    1C
    1UUSER                                                              
    1UDATE              07.july.2020                                    
    1UTIME              15:51:36                                        
    1UHOST                                                              
    1UPGM               CalculiX                                        
    1UVERSION           Version 2.15                             
    1UCOMPILETIME       Sa 15. Dez 15:34:34 CET 2018                    
    1UDIR                                                               
    1UDBN                                                               
    1UMAT    1EL                                                        
    2C                           126                                     1
 -1         1-5.00000E-02 0.00000E+00 0.00000E+00
 -1         2-5.00000E-02 0.00000E+00 3.00000E-01
 -1         3-5.00000E-02 1.00000E+00 0.00000E+00
 -1         4-5.00000E-02 1.00000E+00 3.00000E-01
 -1         5 5.00000E-02 1.00000E+00 0.00000E+00
 -1         6 5.00000E-02 1.00000E+00 3.00000E-01
 -1         7 5.00000E-02 0.00000E+00 0.00000E+00
 -1         8 5.00000E-02 0.00000E+00 3.00000E-01
 -1         9 0.00000E+00 1.00000E+00 0.00000E+00
 -1        10 0.00000E+00 1.00000E+00 3.00000E-01
 -1        11 0.00000E+00 0.00000E+00 0.00000E+00
 -1        12 0.00000E+00 0.00000E+00 3.00000E-01
 -1        13-5.00000E-02 5.00000E-02 0.00000E+00
 -1        14-5.00000E-02 1.00000E-01 0.00000E+00
 -1        15-5.00000E-02 1.50000E-01 0.00000E+00
 -1        16-5.00000E-02 2.00000E-01 0.00000E+00
 -1        17-5.00000E-02 2.50000E-01 0.00000E+00
 -1        18-5.00000E-02 3.00000E-01 0.00000E+00
 -1        19-5.00000E-02 3.50000E-01 0.00000E+00
 -1        20-5.00000E-02 4.00000E-01 0.00000E+00
 -1        21-5.00000E-02 4.50000E-01 0.00000E+00
 -1        22-5.00000E-02 5.00000E-01 0.00000E+00
 -1        23-5.00000E-02 5.50000E-01 0.00000E+00
 -1        24-5.00000E-02 6.00000E-01 0.00000E+00
 -1        25-5.00000E-02 6.50000E-01 0.00000E+00
 -1        26-5.00000E-02 7.00000E-01 0.00000E+00
 -1        27-5.00000E-02 7.50000E-01 0.00000E+00
 -1        28-5.00000E-02 8.00000E-01 0.00000E+00
 -1        29-5.00000E-02 8.50000E-01 0.00000E+00
 -1        30-5.00000E-02 9.00000E-01 0.00000E+00
 -1        31-5.00000E-02 9.50000E-01 0.00000E+00
 -1        32-5.00000E-02 5.00000E-02 3.00000E-01
 -1        33-5.00000E-02 1.00000E-01 3.00000E-01
 -1        34-5.00000E-02 1.50000E-01 3.00000E-01
 -1        35-5.00000E-02 2.00000E-01 3.00000E-01
 -1        36-5.00000E-02 2.50000E-01 3.00000E-01
 -1        37-5.00000E-02 3.00000E-01 3.00000E-01
 -1        38-5.00000E-02 3.50000E-01 3.00000E-01
 -1        39-5.00000E-02 4.00000E-01 3.00000E-01
 -1        40-5.00000E-02 4.50000E-01 3.00000E-01
 -1        41-5.00000E-02 5.00000E-01 3.00000E-01
 -1        42-5.00000E-02 5.50000E-01 3.00000E-01
 -1        43-5.00000E-02 6.00000E-01 3.00000E-01
 -1        44-5.00000E-02 6.50000E-01 3.00000E-01
 -1        45-5.00000E-02 7.00000E-01 3.00000E-01
 -1        46-5.00000E-02 7.50000E-01 3.00000E-01
 -1        47-5.00000E-02 8.00000E-01 3.00000E-01
 -1        48-5.00000E-02 8.50000E-01 3.00000E-01
 -1        49-5.00000E-02 9.00000E-01 3.00000E-01
 -1        50-5.00000E-02 9.50000E-01 3.00000E-01
 -1        51 5.00000E-02 9.50000E-01 0.00000E+00
 -1        52 5.00000E-02 9.00000E-01 0.00000E+00
 -1        53 5.00000E-02 8.50000E-01 0.00000E+00
 -1        54 5.00000E-02 8.00000E-01 0.00000E+00
 -1        55 5.00000E-02 7.50000E-01 0.00000E+00
 -1        56 5.00000E-02 7.00000E-01 0.00000E+00
 -1        57 5.00000E-02 6.50000E-01 0.00000E+00
 -1        58 5.00000E-02 6.00000E-01 0.00000E+00
 -1        59 5.00000E-02 5.50000E-01 0.00000E+00
 -1        60 5.00000E-02 5.00000E-01 0.00000E+00
 -1        61 5.00000E-02 4.50000E-01 0.00000E+00
 -1        62 5.00000E-02 4.00000E-01 0.00000E+00
 -1        63 5.00000E-02 3.50000E-01 0.00000E+00
 -1        64 5.00000E-02 3.00000E-01 0.00000E+00
 -1        65 5.00000E-02 2.50000E-01 0.00000E+00
 -1        66 5.00000E-02 2.00000E-01 0.00000E+00
 -1        67 5.00000E-02 1.50000E-01 0.00000E+00
 -1        68 5.00000E-02 1.00000E-01 0.00000E+00
 -1        69 5.00000E-02 5.00000E-02 0.00000E+00
 -1        70 5.00000E-02 9.50000E-01 3.00000E-01
 -1        71 5.00000E-02 9.00000E-01 3.00000E-01
 -1        72 5.00000E-02 8.50000E-01 3.00000E-01
 -1        73 5.00000E-02 8.00000E-01 3.00000E-01
 -1        74 5.00000E-02 7.50000E-01 3.00000E-01
 -1        75 5.00000E-02 7.00000E-01 3.00000E-01
 -1        76 5.00000E-02 6.50000E-01 3.00000E-01
 -1        77 5.00000E-02 6.00000E-01 3.00000E-01
 -1        78 5.00000E-02 5.50000E-01 3.00000E-01
 -1        79 5.00000E-02 5.00000E-01 3.00000E-01
 -1        80 5.00000E-02 4.50000E-01 3.00000E-01
 -1        81 5.00000E-02 4.00000E-01 3.00000E-01
 -1        82 5.00000E-02 3.50000E-01 3.00000E-01
 -1        83 5.00000E-02 3.00000E-01 3.00000E-01
 -1        84 5.00000E-02 2.50000E-01 3.00000E-01
 -1        85 5.00000E-02 2.00000E-01 3.00000E-01
 -1        86 5.00000E-02 1.50000E-01 3.00000E-01
 -1        87 5.00000E-02 1.00000E-01 3.00000E-01
 -1        88 5.00000E-02 5.00000E-02 3.00000E-01
 -1        89 0.00000E+00 5.00000E-02 0.00000E+00
 -1        90 0.00000E+00 1.00000E-01 0.00000E+00
 -1        91 0.00000E+00 1.50000E-01 0.00000E+00
 -1        92 0.00000E+00 2.00000E-01 0.00000E+00
 -1        93 0.00000E+00 2.50000E-01 0.00000E+00
 -1        94 0.00000E+00 3.00000E-01 0.00000E+00
 -1        95 0.00000E+00 3.50000E-01 0.00000E+00
 -1        96 0.00000E+00 4.00000E-01 0.00000E+00
 -1        97-1.73472E-18 4.50000E-01 0.00000E+00
 -1        98 0.00000E+00 5.00000E-01 0.00000E+00
 -1        99 0.00000E+00 5.50000E-01 0.00000E+00
 -1       100 0.00000E+00 6.00000E-01 0.00000E+00
 -1       101 1.73472E-18 6.50000E-01 0.00000E+00
 -1       102 1.73472E-18 7.00000E-01 0.00000E+00
 -1       103-1.73472E-18 7.50000E-01 0.00000E+00
 -1       104-1.73472E-18 8.00000E-01 0.00000E+00
 -1       105-1.73472E-18 8.50000E-01 0.00000E+00
 -1       106-1.73472E-18 9.00000E-01 0.00000E+00
 -1       107-1.51788E-18 9.50000E-01 0.00000E+00
 -1       108 0.00000E+00 9.50000E-01 3.00000E-01
 -1       109 0.00000E+00 9.00000E-01 3.00000E-01
 -1       110 0.00000E+00 8.50000E-01 3.00000E-01
 -1       111 0.00000E+00 8.00000E-01 3.00000E-01
 -1       112 0.00000E+00 7.50000E-01 3.00000E-01
 -1       113 0.00000E+00 7.00000E-01 3.00000E-01
 -1       114 0.00000E+00 6.50000E-01 3.00000E-01
 -1       115 0.00000E+00 6.00000E-01 3.00000E-01
 -1       116-1.73472E-18 5.50000E-01 3.00000E-01
 -1       117 0.00000E+00 5.00000E-01 3.00000E-01
 -1       118 0.00000E+00 4.50000E-01 3.00000E-01
 -1       119 0.00000E+00 4.00000E-01 3.00000E-01
 -1       120 1.73472E-18 3.50000E-01 3.00000E-01
 -1       121 1.73472E-18 3.00000E-01 3.00000E-01
 -1       122-1.73472E-18 2.50000E-01 3.00000E-01
 -1       123-1.73472E-18 2.00000E-01 3.00000E-01
 -1       124-1.73472E-18 1.50000E-01 3.00000E-01
 -1       125-1.73472E-18 1.00000E-01 3.00000E-01
 -1       126-1.51788E-18 5.00000E-02 3.00000E-01
 -3
    3C                            40                                     1
 -1       217    1    0    1
 -2         2         1        13        32        12        11        89       126
 -1       218    1    0    1
 -2        12        11        89       126         8         7        69        88
 -1       219    1    0    1
 -2        32        13        14        33       126        89        90       125
 -1       220    1    0    1
 -2       126        89        90       125        88        69        68        87
 -1       221    1    0    1
 -2        33        14        15        34       125        90        91       124
 -1       222    1    0    1
 -2       125        90        91       124        87        68        67        86
 -1       223    1    0    1
 -2        34        15        16        35       124        91        92       123
 -1       224    1    0    1
 -2       124        91        92       123        86        67        66        85
 -1       225    1    0    1
 -2        35        16        17        36       123        92        93       122
 -1       226    1    0    1
 -2       123        92        93       122        85        66        65        84
 -1       227    1    0    1
 -2        36        17        18        37       122        93        94       121
 -1       228    1    0    1
 -2       122        93        94       121        84        65        64        83
 -1       229    1    0    1
 -2        37        18        19        38       121        94        95       120
 -1       230    1    0    1
 -2       121        94        95       120        83        64        63        82
 -1       231    1    0    1
 -2        38        19        20        39       120        95        96       119
 -1       232    1    0    1
 -2       120        95        96       119        82        63        62        81
 -1       233    1    0    1
 -2        39        20        21        40       119        96        97       118
 -1       234    1    0    1
 -2       119        96        97       118        81        62        61        80
 -1       235    1    0    1
 -2        40        21        22        41       118        97        98       117
 -1       236    1    0    1
 -2       118        97        98       117        80        61        60        79
 -1       237    1    0    1
 -2        41        22        23        42       117        98        99       116
 -1       238    1    0    1
 -2       117        98        99       116        79        60        59        78
 -1       239    1    0    1
 -2        42        23        24        43       116        99       100       115
 -1       240    1    0    1
 -2       116        99       100       115        78        59        58        77
 -1       241    1    0    1
 -2        43        24        25        44       115       100       101       114
 -1       242    1    0    1
 -2       115       100       101       114        77        58        57        76
 -1       243    1    0    1
 -2        44        25        26        45       114       101       102       113
 -1       244    1    0    1
 -2       114       101       102       113        76        57        56        75
 -1       245    1    0    1
 -2        45        26        27        46       113       102       103       112
 -1       246    1    0    1
 -2       113       102       103       112        75        56        55        74
 -1       247    1    0    1
 -2        46        27        28        47       112       103       104       111
 -1       248    1    0    1
 -2       112       103       104       111        74        55        54        73
 -1       249    1    0    1
 -2        47        28        29        48       111       104       105       110
 -1       250    1    0    1
 -2       111       104       105       110        73        54        53        72
 -1       251    1    0    1
 -2        48        29        30        49       110       105       106       109
 -1       252    1    0    1
 -2       110       105       106       109        72        53        52        71
 -1       253    1    0    1
 -2        49        30        31        50       109       106       107       108
 -1       254    1    0    1
 -2       109       106       107       108        71        52        51        70
 -1       255    1    0    1
 -2        50        31         3         4       108       107         9        10
 -1       256    1    0    1
 -2       108       107         9        10        70        51         5         6
 -3
    1PSTEP                         1           1           1          
  100CL  101 1.00000E-02         126                     1    1           1
 -4  DISP        4    1
 -5  D1          1    2    1    0
 -5  D2          1    2    2    0
 -5  D3          1    2    3    0
 -5  ALL         1    2    0    0    1ALL
 -1         1 0.00000E+00 0.00000E+00 0.00000E+00
 -1         2 0.00000E+00 0.00000E+00 0.00000E+00
 -1         3 1.01191E-04-2.96688E-06 0.00000E+00
 -1         4 1.01191E-04-2.96688E-06 0.00000E+00
 -1         5 9.09880E-05 1.23734E-05 0.00000E+00
 -1         6 9.09880E-05 1.23734E-05 0.00000E+00
 -1         7 0.00000E+00 0.00000E+00 0.00000E+00
 -1         8 0.00000E+00 0.00000E+00 0.00000E+00
 -1         9 7.82094E-05 7.09198E-06 0.00000E+00
 -1        10 7.82094E-05 7.09198E-06 0.00000E+00
 -1        11 0.00000E+00 0.00000E+00 0.00000E+00
 -1        12 0.00000E+00 0.00000E+00 0.00000E+00
 -1        13 2.24523E-04 2.59059E-05 0.00000E+00
 -1        14 2.54745E-04 1.28251E-05 0.00000E+00
 -1        15 2.36613E-04 3.90000E-06 0.00000E+00
 -1        16 2.32232E-04-2.08798E-08 0.00000E+00
 -1        17 2.31905E-04-1.59275E-06 0.00000E+00
 -1        18 2.55890E-04-1.14346E-06 0.00000E+00
 -1        19 2.25403E-04-6.25696E-07 0.00000E+00
 -1        20 2.20570E-04-1.45669E-06 0.00000E+00
 -1        21 2.18651E-04-2.27242E-06 0.00000E+00
 -1        22 2.38685E-04-1.84388E-06 0.00000E+00
 -1        23 2.07314E-04-1.43725E-06 0.00000E+00
 -1        24 2.00360E-04-2.25377E-06 0.00000E+00
 -1        25 1.95941E-04-2.99255E-06 0.00000E+00
 -1        26 2.09507E-04-2.55798E-06 0.00000E+00
 -1        27 1.77352E-04-2.03044E-06 0.00000E+00
 -1        28 1.67396E-04-2.40344E-06 0.00000E+00
 -1        29 1.60090E-04-2.82119E-06 0.00000E+00
 -1        30 1.61195E-04-2.45848E-06 0.00000E+00
 -1        31 1.33187E-04-3.43432E-06 0.00000E+00
 -1        32 2.24523E-04 2.59059E-05 0.00000E+00
 -1        33 2.54745E-04 1.28251E-05 0.00000E+00
 -1        34 2.36613E-04 3.90000E-06 0.00000E+00
 -1        35 2.32232E-04-2.08798E-08 0.00000E+00
 -1        36 2.31905E-04-1.59275E-06 0.00000E+00
 -1        37 2.55890E-04-1.14346E-06 0.00000E+00
 -1        38 2.25403E-04-6.25696E-07 0.00000E+00
 -1        39 2.20570E-04-1.45669E-06 0.00000E+00
 -1        40 2.18651E-04-2.27242E-06 0.00000E+00
 -1        41 2.38685E-04-1.84388E-06 0.00000E+00
 -1        42 2.07314E-04-1.43725E-06 0.00000E+00
 -1        43 2.00360E-04-2.25377E-06 0.00000E+00
 -1        44 1.95941E-04-2.99255E-06 0.00000E+00
 -1        45 2.09507E-04-2.55798E-06 0.00000E+00
 -1        46 1.77352E-04-2.03044E-06 0.00000E+00
 -1        47 1.67396E-04-2.40344E-06 0.00000E+00
 -1        48 1.60090E-04-2.82119E-06 0.00000E+00
 -1        49 1.61195E-04-2.45848E-06 0.00000E+00
 -1        50 1.33187E-04-3.43432E-06 0.00000E+00
 -1        51 1.18662E-04 1.00958E-05 0.00000E+00
 -1        52 1.36175E-04 7.14597E-06 0.00000E+00
 -1        53 1.31239E-04 6.38551E-06 0.00000E+00
 -1        54 1.36583E-04 5.21703E-06 0.00000E+00
 -1        55 1.43494E-04 4.00742E-06 0.00000E+00
 -1        56 1.63888E-04 4.01956E-06 0.00000E+00
 -1        57 1.57695E-04 4.11207E-06 0.00000E+00
 -1        58 1.61760E-04 3.12782E-06 0.00000E+00
 -1        59 1.67486E-04 2.08389E-06 0.00000E+00
 -1        60 1.87260E-04 2.37097E-06 0.00000E+00
 -1        61 1.76870E-04 2.71607E-06 0.00000E+00
 -1        62 1.78872E-04 1.80605E-06 0.00000E+00
 -1        63 1.82907E-04 8.64268E-07 0.00000E+00
 -1        64 2.01857E-04 1.31356E-06 0.00000E+00
 -1        65 1.88507E-04 1.67079E-06 0.00000E+00
 -1        66 1.89146E-04-1.06353E-07 0.00000E+00
 -1        67 1.92714E-04-4.39819E-06 0.00000E+00
 -1        68 2.00027E-04-1.44698E-05 0.00000E+00
 -1        69 1.71031E-04-2.65431E-05 0.00000E+00
 -1        70 1.18662E-04 1.00958E-05 0.00000E+00
 -1        71 1.36175E-04 7.14597E-06 0.00000E+00
 -1        72 1.31239E-04 6.38551E-06 0.00000E+00
 -1        73 1.36583E-04 5.21703E-06 0.00000E+00
 -1        74 1.43494E-04 4.00742E-06 0.00000E+00
 -1        75 1.63888E-04 4.01956E-06 0.00000E+00
 -1        76 1.57695E-04 4.11207E-06 0.00000E+00
 -1        77 1.61760E-04 3.12782E-06 0.00000E+00
 -1        78 1.67486E-04 2.08389E-06 0.00000E+00
 -1        79 1.87260E-04 2.37097E-06 0.00000E+00
 -1        80 1.76870E-04 2.71607E-06 0.00000E+00
 -1        81 1.78872E-04 1.80605E-06 0.00000E+00
 -1        82 1.82907E-04 8.64268E-07 0.00000E+00
 -1        83 2.01857E-04 1.31356E-06 0.00000E+00
 -1        84 1.88507E-04 1.67079E-06 0.00000E+00
 -1        85 1.89146E-04-1.06353E-07 0.00000E+00
 -1        86 1.92714E-04-4.39819E-06 0.00000E+00
 -1        87 2.00027E-04-1.44698E-05 0.00000E+00
 -1        88 1.71031E-04-2.65431E-05 0.00000E+00
 -1        89 1.37281E-04-5.29256E-06 0.00000E+00
 -1        90 1.69262E-04-2.53870E-07 0.00000E+00
 -1        91 1.71573E-04 8.55937E-07 0.00000E+00
 -1        92 1.68904E-04-1.17131E-08 0.00000E+00
 -1        93 1.67258E-04-9.56777E-07 0.00000E+00
 -1        94 1.65274E-04 1.80142E-07 0.00000E+00
 -1        95 1.62687E-04 1.26936E-06 0.00000E+00
 -1        96 1.59423E-04 2.62387E-07 0.00000E+00
 -1        97 1.57077E-04-6.49859E-07 0.00000E+00
 -1        98 1.53734E-04 4.69382E-07 0.00000E+00
 -1        99 1.49505E-04 1.53531E-06 0.00000E+00
 -1       100 1.44533E-04 6.29763E-07 0.00000E+00
 -1       101 1.40213E-04-3.56444E-08 0.00000E+00
 -1       102 1.34721E-04 1.19755E-06 0.00000E+00
 -1       103 1.28254E-04 2.43074E-06 0.00000E+00
 -1       104 1.21344E-04 2.02189E-06 0.00000E+00
 -1       105 1.15259E-04 2.46841E-06 0.00000E+00
 -1       106 1.07707E-04 3.82959E-06 0.00000E+00
 -1       107 1.00767E-04 4.97784E-06 0.00000E+00
 -1       108 1.00767E-04 4.97784E-06 0.00000E+00
 -1       109 1.07707E-04 3.82959E-06 0.00000E+00
 -1       110 1.15259E-04 2.46841E-06 0.00000E+00
 -1       111 1.21344E-04 2.02189E-06 0.00000E+00
 -1       112 1.28254E-04 2.43074E-06 0.00000E+00
 -1       113 1.34721E-04 1.19755E-06 0.00000E+00
 -1       114 1.40213E-04-3.56444E-08 0.00000E+00
 -1       115 1.44533E-04 6.29763E-07 0.00000E+00
 -1       116 1.49505E-04 1.53531E-06 0.00000E+00
 -1       117 1.53734E-04 4.69382E-07 0.00000E+00
 -1       118 1.57077E-04-6.49859E-07 0.00000E+00
 -1       119 1.59423E-04 2.62387E-07 0.00000E+00
 -1       120 1.62687E-04 1.26936E-06 0.00000E+00
 -1       121 1.65274E-04 1.80142E-07 0.00000E+00
 -1       122 1.67258E-04-9.56777E-07 0.00000E+00
 -1       123 1.68904E-04-1.17131E-08 0.00000E+00
 -1       124 1.71573E-04 8.55937E-07 0.00000E+00
 -1       125 1.69262E-04-2.53870E-07 0.00000E+00
 -1       126 1.37281E-04-5.29256E-06 0.00000E+00
 -3
    1PSTEP                         2           1           1          
  100CL  101 1.00000E-02         126                     1    1           1
 -4  STRESS      6    1
 -5  SXX         1    4    1    1
 -5  SYY         1    4    2    2
 -5  SZZ         1    4    3    3
 -5  SXY         1    4    1    2
 -5  SYZ         1    4    2    3
 -5  SZX         1    4    3    1
 -1         1 1.27446E+02 2.84477E+02 1.21864E+02 6.91900E+02-2.65231E-12-1.21283E-11
 -1         2 1.27446E+02 2.84477E+02 1.21864E+02 6.91900E+02-2.65231E-12-1.21283E-11
 -1         3-2.45012E+02-1.00965E+02-1.03876E+02-6.74385E+01-2.62047E-08-6.34360E-08
 -1         4-2.45012E+02-1.00965E+02-1.03876E+02-6.74385E+01-2.62047E-08-6.34360E-08
 -1         5 1.48282E+02 8.35621E+01 6.95106E+01-6.89483E+01 5.16887E-08-1.23734E-07
 -1         6 1.48282E+02 8.35621E+01 6.95106E+01-6.89483E+01 5.16887E-08-1.23734E-07
 -1         7-1.17691E+02-2.82516E+02-1.21188E+02 5.25315E+02-1.96200E-12 7.00252E-12
 -1         8-1.17691E+02-2.82516E+02-1.21188E+02 5.25315E+02-1.96206E-12 7.00203E-12
 -1         9-4.49976E+01-7.46051E-01-1.37739E+01-4.58130E+01-3.15657E-09-1.22201E-07
 -1        10-4.49976E+01-7.46052E-01-1.37739E+01-4.58130E+01-3.15657E-09-1.22201E-07
 -1        11-2.16003E+01-5.50584E+01-2.35559E+01 4.22162E+02-2.41119E-12-5.84366E-12
 -1        12-2.16003E+01-5.50584E+01-2.35559E+01 4.22162E+02-2.41107E-12-5.84275E-12
 -1        13-9.03765E+02-3.31378E+02-3.72082E+02 2.95249E+02-6.82118E-09-1.62204E-08
 -1        14-9.68997E+02-5.13358E+02-4.45783E+02-2.14940E+01 7.56510E-09-9.34333E-08
 -1        15-7.28715E+02-3.69554E+02-3.30082E+02-4.38295E+01 1.90763E-08-3.63132E-09
 -1        16-6.93367E+02-3.22050E+02-3.05164E+02-7.18859E+00 1.39330E-08 1.02410E-07
 -1        17-6.97394E+02-3.04572E+02-3.01136E+02 3.82285E+01 4.51377E-09 4.49165E-08
 -1        18-9.70878E+02-4.13308E+02-4.16319E+02-5.91133E+00-5.62993E-09 2.06098E-09
 -1        19-6.74789E+02-2.91274E+02-2.90333E+02-4.83634E+01-7.63224E-09 4.39536E-08
 -1        20-6.61082E+02-2.91252E+02-2.86189E+02-5.08908E+00-1.99871E-09-7.88932E-09
 -1        21-6.62736E+02-2.86417E+02-2.85238E+02 3.27551E+01 5.12833E-10 2.76854E-08
 -1        22-9.10507E+02-3.87836E+02-3.90439E+02-1.02918E+01-1.37794E-08 5.66188E-08
 -1        23-6.22352E+02-2.69117E+02-2.67879E+02-4.96820E+01-1.25876E-08-1.40798E-07
 -1        24-6.03773E+02-2.66173E+02-2.61392E+02-8.61025E+00-3.60845E-09 4.48892E-08
 -1        25-5.99817E+02-2.58965E+02-2.58037E+02 2.30968E+01-1.14226E-09-1.12182E-07
 -1        26-8.01270E+02-3.40169E+02-3.43157E+02-1.69961E+01 7.40071E-09 1.20603E-07
 -1        27-5.27532E+02-2.25827E+02-2.26324E+02-5.09486E+01 2.63881E-09 3.07813E-09
 -1        28-4.97058E+02-2.16891E+02-2.14461E+02-1.29234E+01 2.51437E-10-6.65174E-08
 -1        29-4.82248E+02-2.07287E+02-2.07120E+02 6.70691E+00-1.94659E-09 7.26748E-08
 -1        30-5.76460E+02-2.50259E+02-2.48390E+02-2.20001E+01-8.26565E-09 2.73148E-08
 -1        31-3.49854E+02-1.52338E+02-1.50804E+02-6.63396E+01-2.47291E-08-3.91500E-08
 -1        32-9.03765E+02-3.31378E+02-3.72082E+02 2.95249E+02-6.82118E-09-1.62204E-08
 -1        33-9.68997E+02-5.13358E+02-4.45783E+02-2.14940E+01 7.56510E-09-9.34333E-08
 -1        34-7.28715E+02-3.69554E+02-3.30082E+02-4.38295E+01 1.90763E-08-3.63131E-09
 -1        35-6.93367E+02-3.22050E+02-3.05164E+02-7.18859E+00 1.39330E-08 1.02410E-07
 -1        36-6.97394E+02-3.04572E+02-3.01136E+02 3.82285E+01 4.51377E-09 4.49165E-08
 -1        37-9.70878E+02-4.13308E+02-4.16319E+02-5.91133E+00-5.62993E-09 2.06098E-09
 -1        38-6.74789E+02-2.91274E+02-2.90333E+02-4.83634E+01-7.63224E-09 4.39536E-08
 -1        39-6.61082E+02-2.91252E+02-2.86189E+02-5.08908E+00-1.99871E-09-7.88932E-09
 -1        40-6.62736E+02-2.86417E+02-2.85238E+02 3.27551E+01 5.12833E-10 2.76854E-08
 -1        41-9.10507E+02-3.87836E+02-3.90439E+02-1.02918E+01-1.37794E-08 5.66188E-08
 -1        42-6.22352E+02-2.69117E+02-2.67879E+02-4.96820E+01-1.25876E-08-1.40798E-07
 -1        43-6.03773E+02-2.66173E+02-2.61392E+02-8.61025E+00-3.60845E-09 4.48892E-08
 -1        44-5.99817E+02-2.58965E+02-2.58037E+02 2.30968E+01-1.14226E-09-1.12182E-07
 -1        45-8.01270E+02-3.40169E+02-3.43157E+02-1.69961E+01 7.40071E-09 1.20603E-07
 -1        46-5.27532E+02-2.25827E+02-2.26324E+02-5.09486E+01 2.63881E-09 3.07813E-09
 -1        47-4.97058E+02-2.16891E+02-2.14461E+02-1.29234E+01 2.51437E-10-6.65174E-08
 -1        48-4.82248E+02-2.07287E+02-2.07120E+02 6.70691E+00-1.94659E-09 7.26748E-08
 -1        49-5.76460E+02-2.50259E+02-2.48390E+02-2.20001E+01-8.26565E-09 2.73148E-08
 -1        50-3.49854E+02-1.52338E+02-1.50804E+02-6.63396E+01-2.47291E-08-3.91500E-08
 -1        51 2.04940E+02 1.10764E+02 9.46534E+01-5.38213E+01 3.12215E-08-1.34240E-08
 -1        52 3.15400E+02 1.51337E+02 1.39909E+02-9.15487E+00 5.00364E-09-1.82251E-08
 -1        53 1.76614E+02 8.41269E+01 7.81880E+01 1.14393E+01 2.90998E-09-2.47964E-08
 -1        54 1.69667E+02 8.31246E+01 7.58049E+01-9.02730E+00 3.29010E-09 7.72583E-08
 -1        55 1.66979E+02 7.67918E+01 7.30958E+01-3.71842E+01-5.61558E-09 9.43075E-09
 -1        56 3.14149E+02 1.34030E+02 1.34341E+02-1.31788E+01-3.82524E-09-8.20777E-08
 -1        57 1.90421E+02 8.54766E+01 8.27287E+01 1.60551E+01-3.85610E-09-1.05354E-08
 -1        58 1.90284E+02 9.04103E+01 8.41678E+01-7.38053E+00-2.65842E-09-6.32275E-08
 -1        59 1.95508E+02 8.70657E+01 8.47256E+01-3.75763E+01 9.69790E-09 2.65085E-08
 -1        60 3.59972E+02 1.51302E+02 1.53235E+02-8.59698E+00 9.55252E-09-2.73953E-08
 -1        61 2.14589E+02 9.43836E+01 9.26395E+01 2.32880E+01 1.26773E-09 7.79251E-08
 -1        62 2.13841E+02 9.97150E+01 9.40156E+01-4.54027E+00-7.78576E-10 2.38827E-08
 -1        63 2.19038E+02 9.59725E+01 9.44462E+01-3.66441E+01 9.54304E-09 4.53244E-08
 -1        64 3.92550E+02 1.64460E+02 1.66929E+02-5.13480E+00 8.57640E-09 7.90599E-08
 -1        65 2.32256E+02 1.05703E+02 1.01326E+02 2.76719E+01-2.08304E-09 2.56308E-08
 -1        66 2.32113E+02 1.26076E+02 1.07396E+02-6.77109E+00-1.23992E-08 9.01980E-08
 -1        67 2.60942E+02 1.74898E+02 1.30668E+02-3.29587E+01-1.89966E-08-3.25413E-08
 -1        68 3.82737E+02 2.61237E+02 1.93007E+02-1.04160E+01-8.30279E-09-3.96155E-08
 -1        69 3.32716E+02 7.93702E+01 1.23058E+02 2.42306E+02 5.72976E-09-2.18612E-08
 -1        70 2.04940E+02 1.10764E+02 9.46534E+01-5.38213E+01 3.12215E-08-1.34240E-08
 -1        71 3.15400E+02 1.51337E+02 1.39909E+02-9.15487E+00 5.00364E-09-1.82251E-08
 -1        72 1.76614E+02 8.41269E+01 7.81880E+01 1.14393E+01 2.90998E-09-2.47964E-08
 -1        73 1.69667E+02 8.31246E+01 7.58049E+01-9.02730E+00 3.29010E-09 7.72583E-08
 -1        74 1.66979E+02 7.67918E+01 7.30958E+01-3.71842E+01-5.61558E-09 9.43075E-09
 -1        75 3.14149E+02 1.34030E+02 1.34341E+02-1.31788E+01-3.82524E-09-8.20777E-08
 -1        76 1.90421E+02 8.54766E+01 8.27287E+01 1.60551E+01-3.85610E-09-1.05354E-08
 -1        77 1.90284E+02 9.04103E+01 8.41678E+01-7.38053E+00-2.65842E-09-6.32275E-08
 -1        78 1.95508E+02 8.70657E+01 8.47256E+01-3.75763E+01 9.69790E-09 2.65085E-08
 -1        79 3.59972E+02 1.51302E+02 1.53235E+02-8.59698E+00 9.55252E-09-2.73953E-08
 -1        80 2.14589E+02 9.43836E+01 9.26395E+01 2.32880E+01 1.26773E-09 7.79251E-08
 -1        81 2.13841E+02 9.97150E+01 9.40156E+01-4.54027E+00-7.78576E-10 2.38827E-08
 -1        82 2.19038E+02 9.59725E+01 9.44462E+01-3.66441E+01 9.54304E-09 4.53244E-08
 -1        83 3.92550E+02 1.64460E+02 1.66929E+02-5.13480E+00 8.57640E-09 7.90599E-08
 -1        84 2.32256E+02 1.05703E+02 1.01326E+02 2.76719E+01-2.08304E-09 2.56307E-08
 -1        85 2.32113E+02 1.26076E+02 1.07396E+02-6.77109E+00-1.23992E-08 9.01980E-08
 -1        86 2.60942E+02 1.74898E+02 1.30668E+02-3.29587E+01-1.89966E-08-3.25414E-08
 -1        87 3.82737E+02 2.61237E+02 1.93007E+02-1.04160E+01-8.30279E-09-3.96155E-08
 -1        88 3.32716E+02 7.93702E+01 1.23058E+02 2.42306E+02 5.72976E-09-2.18612E-08
 -1        89-2.85902E+02-1.24143E+02-1.23738E+02 1.79475E+02 4.24617E-09-2.95593E-08
 -1        90-2.79026E+02-9.32911E+01-1.12222E+02 1.07734E+01-2.55533E-09-5.93987E-08
 -1        91-2.35061E+02-1.00106E+02-1.00848E+02-1.33076E+01-6.09840E-09-3.08692E-09
 -1        92-2.35463E+02-1.09290E+02-1.03714E+02-6.76141E+00 1.80252E-09 4.96678E-08
 -1        93-2.32499E+02-9.92202E+01-9.98085E+01-5.56018E-01 9.57527E-09 4.97464E-08
 -1        94-2.84297E+02-1.12923E+02-1.19766E+02-3.25217E+00 3.68533E-09 4.84446E-08
 -1        95-2.27945E+02-9.77226E+01-9.79737E+01-6.71365E+00-2.75502E-09 1.94700E-08
 -1        96-2.28285E+02-1.06653E+02-1.00750E+02-3.60986E+00 2.14740E-09 4.81811E-09
 -1        97-2.23823E+02-9.53947E+01-9.60303E+01-1.07248E+00-8.75373E-09 3.02530E-08
 -1        98-2.70536E+02-1.07095E+02-1.13813E+02-5.16425E+00 7.81405E-09 2.12056E-08
 -1        99-2.13506E+02-9.11287E+01-9.16206E+01-8.74020E+00-3.39767E-09-4.06317E-08
 -1       100-2.10914E+02-9.76122E+01-9.27803E+01-6.01447E+00-9.89384E-09-2.85856E-08
 -1       101-2.04074E+02-8.52746E+01-8.70211E+01-4.16063E+00-1.20984E-08-3.04283E-08
 -1       102-2.38921E+02-9.21364E+01-9.97215E+01-8.27961E+00-5.47623E-09-2.26719E-08
 -1       103-1.79988E+02-7.37509E+01-7.62865E+01-1.12951E+01 2.89989E-08 6.78129E-09
 -1       104-1.65440E+02-7.09528E+01-7.10700E+01-8.26961E+00-6.77967E-09-8.21415E-09
 -1       105-1.50805E+02-5.68891E+01-6.24517E+01-6.81967E+00-1.66566E-08-6.17685E-10
 -1       106-1.28342E+02-4.43037E+01-5.20243E+01-7.53210E+00 8.32783E-09-1.05074E-08
 -1       107-7.04331E+01-1.59580E+01-2.60050E+01-2.45720E+01 1.51502E-09-5.00798E-09
 -1       108-7.04331E+01-1.59580E+01-2.60050E+01-2.45720E+01 1.51502E-09-5.00797E-09
 -1       109-1.28342E+02-4.43037E+01-5.20243E+01-7.53210E+00 8.32783E-09-1.05074E-08
 -1       110-1.50805E+02-5.68891E+01-6.24517E+01-6.81967E+00-1.66566E-08-6.17687E-10
 -1       111-1.65440E+02-7.09528E+01-7.10700E+01-8.26961E+00-6.77967E-09-8.21415E-09
 -1       112-1.79988E+02-7.37509E+01-7.62865E+01-1.12951E+01 2.89989E-08 6.78129E-09
 -1       113-2.38921E+02-9.21364E+01-9.97215E+01-8.27961E+00-5.47623E-09-2.26719E-08
 -1       114-2.04074E+02-8.52746E+01-8.70211E+01-4.16063E+00-1.20984E-08-3.04283E-08
 -1       115-2.10914E+02-9.76122E+01-9.27803E+01-6.01447E+00-9.89384E-09-2.85856E-08
 -1       116-2.13506E+02-9.11287E+01-9.16206E+01-8.74020E+00-3.39767E-09-4.06317E-08
 -1       117-2.70536E+02-1.07095E+02-1.13813E+02-5.16425E+00 7.81405E-09 2.12056E-08
 -1       118-2.23823E+02-9.53947E+01-9.60303E+01-1.07248E+00-8.75373E-09 3.02530E-08
 -1       119-2.28285E+02-1.06653E+02-1.00750E+02-3.60986E+00 2.14740E-09 4.81811E-09
 -1       120-2.27945E+02-9.77226E+01-9.79737E+01-6.71365E+00-2.75502E-09 1.94700E-08
 -1       121-2.84297E+02-1.12923E+02-1.19766E+02-3.25217E+00 3.68533E-09 4.84446E-08
 -1       122-2.32499E+02-9.92202E+01-9.98085E+01-5.56018E-01 9.57527E-09 4.97464E-08
 -1       123-2.35463E+02-1.09290E+02-1.03714E+02-6.76141E+00 1.80252E-09 4.96678E-08
 -1       124-2.35061E+02-1.00106E+02-1.00848E+02-1.33076E+01-6.09840E-09-3.08693E-09
 -1       125-2.79026E+02-9.32911E+01-1.12222E+02 1.07734E+01-2.55533E-09-5.93987E-08
 -1       126-2.85902E+02-1.24143E+02-1.23738E+02 1.79475E+02 4.24617E-09-2.95593E-08
 -3
    1PSTEP                         3           1           1          
  100CL  101 1.00000E-02         126                     1    1           1
 -4  TOSTRAIN    6    1
 -5  EXX         1    4    1    1
 -5  EYY         1    4    2    2
 -5  EZZ         1    4    3    3
 -5  EXY         1    4    1    2
 -5  EYZ         1    4    2    3
 -5  EZX         1    4    3    1
 -1         1-2.56713E-07 5.28037E-04-9.18769E-28 2.24516E-03 9.58804E-21-1.63654E-17
 -1         2-2.56713E-07 5.28037E-04-9.18769E-28 2.24516E-03 9.58804E-21-1.63654E-17
 -1         3-4.59480E-04 9.54968E-06 8.87692E-26-2.19221E-04-8.51420E-14-2.06365E-13
 -1         4-4.59480E-04 9.54968E-06 8.87692E-26-2.19221E-04-8.51420E-14-2.06365E-13
 -1         5 2.55598E-04 4.57037E-05 3.24731E-25-2.23983E-04 1.67997E-13-4.01875E-13
 -1         6 2.55598E-04 4.57037E-05 3.24731E-25-2.23983E-04 1.67997E-13-4.01875E-13
 -1         7-6.44171E-08-5.24910E-04-1.75978E-27 1.71025E-03-2.62924E-19 1.07756E-17
 -1         8-6.44171E-08-5.24910E-04-1.75978E-27 1.71025E-03-2.63126E-19 1.07740E-17
 -1         9-1.01941E-04 4.23819E-05 2.57833E-25-1.48839E-04-1.01986E-14-3.97216E-13
 -1        10-1.01941E-04 4.23819E-05 2.57833E-25-1.48839E-04-1.01986E-14-3.97216E-13
 -1        11-1.60565E-07-1.02244E-04-3.04360E-27 1.37275E-03-7.11825E-20-6.07820E-18
 -1        12-1.60565E-07-1.02244E-04-3.04360E-27 1.37275E-03-7.08074E-20-6.07527E-18
 -1        13-1.74321E-03 1.33316E-04-5.10337E-27 9.59442E-04-2.22209E-14-5.27883E-14
 -1        14-1.70811E-03-2.19920E-04 1.58394E-25-7.04160E-05 2.45317E-14-3.04463E-13
 -1        15-1.29990E-03-1.28422E-04-2.74876E-26-1.42848E-04 6.20541E-14-1.17981E-14
 -1        16-1.26571E-03-5.49224E-05 1.92666E-25-2.34129E-05 4.53158E-14 3.33482E-13
 -1        17-1.29206E-03-1.11790E-05 3.52989E-26 1.24495E-04 1.46780E-14 1.46269E-13
 -1        18-1.81064E-03 9.79626E-06-1.16814E-26-1.92150E-05-1.83131E-14 6.73423E-15
 -1        19-1.25350E-03-3.04989E-06 3.40516E-26-1.57424E-04-2.48257E-14 1.43120E-13
 -1        20-1.22215E-03-1.64637E-05-5.80188E-27-1.65295E-05-6.49902E-15-2.56889E-14
 -1        21-1.23068E-03-3.84041E-06 1.26605E-26 1.06686E-04 1.66573E-15 9.01397E-14
 -1        22-1.69755E-03 8.46835E-06 1.42430E-27-3.34542E-05-4.48283E-14 1.84427E-13
 -1        23-1.15548E-03-4.00780E-06 2.73026E-25-1.61674E-04-4.09071E-14-4.58446E-13
 -1        24-1.11587E-03-1.55456E-05-6.49614E-26-2.79685E-05-1.17428E-14 1.46138E-13
 -1        25-1.11389E-03-3.02779E-06 1.25565E-25 7.52514E-05-3.69231E-15-3.65238E-13
 -1        26-1.49456E-03 9.72532E-06 1.38381E-25-5.52458E-05 2.40401E-14 3.92784E-13
 -1        27-9.81446E-04 1.64742E-06-2.72181E-26-1.65733E-04 8.57878E-15 9.99998E-15
 -1        28-9.20577E-04-7.89224E-06 4.51837E-26-4.19794E-05 8.37286E-16-2.16482E-13
 -1        29-8.96171E-04-5.46496E-07 6.02047E-26 2.19196E-05-6.35397E-15 2.36516E-13
 -1        30-1.06915E-03-6.06168E-06 1.47169E-27-7.14858E-05-2.68905E-14 8.89017E-14
 -1        31-6.48163E-04-4.91247E-06 3.36601E-26-2.15701E-04-8.03761E-14-1.27419E-13
 -1        32-1.74321E-03 1.33316E-04-5.10337E-27 9.59442E-04-2.22209E-14-5.27883E-14
 -1        33-1.70811E-03-2.19920E-04 1.58394E-25-7.04160E-05 2.45317E-14-3.04463E-13
 -1        34-1.29990E-03-1.28422E-04-2.74876E-26-1.42848E-04 6.20541E-14-1.17981E-14
 -1        35-1.26571E-03-5.49224E-05 1.92666E-25-2.34129E-05 4.53158E-14 3.33482E-13
 -1        36-1.29206E-03-1.11790E-05 3.52989E-26 1.24495E-04 1.46780E-14 1.46269E-13
 -1        37-1.81064E-03 9.79626E-06-1.16814E-26-1.92150E-05-1.83131E-14 6.73422E-15
 -1        38-1.25350E-03-3.04989E-06 3.40516E-26-1.57424E-04-2.48257E-14 1.43120E-13
 -1        39-1.22215E-03-1.64637E-05-5.80188E-27-1.65295E-05-6.49902E-15-2.56889E-14
 -1        40-1.23068E-03-3.84041E-06 1.26605E-26 1.06686E-04 1.66573E-15 9.01397E-14
 -1        41-1.69755E-03 8.46835E-06 1.42430E-27-3.34542E-05-4.48283E-14 1.84427E-13
 -1        42-1.15548E-03-4.00780E-06 2.73026E-25-1.61674E-04-4.09071E-14-4.58446E-13
 -1        43-1.11587E-03-1.55456E-05-6.49614E-26-2.79685E-05-1.17428E-14 1.46138E-13
 -1        44-1.11389E-03-3.02779E-06 1.25565E-25 7.52514E-05-3.69231E-15-3.65238E-13
 -1        45-1.49456E-03 9.72532E-06 1.38381E-25-5.52458E-05 2.40401E-14 3.92784E-13
 -1        46-9.81446E-04 1.64742E-06-2.72181E-26-1.65733E-04 8.57878E-15 9.99998E-15
 -1        47-9.20577E-04-7.89224E-06 4.51837E-26-4.19794E-05 8.37285E-16-2.16482E-13
 -1        48-8.96171E-04-5.46496E-07 6.02047E-26 2.19196E-05-6.35397E-15 2.36516E-13
 -1        49-1.06915E-03-6.06168E-06 1.47168E-27-7.14858E-05-2.68905E-14 8.89017E-14
 -1        50-6.48163E-04-4.91247E-06 3.36601E-26-2.15701E-04-8.03761E-14-1.27419E-13
 -1        51 3.57949E-04 5.23791E-05-1.83913E-27-1.74828E-04 1.01448E-13-4.35561E-14
 -1        52 5.69500E-04 3.71312E-05 6.49771E-27-2.97539E-05 1.62595E-14-5.91778E-14
 -1        53 3.19633E-04 1.92915E-05-4.86427E-27 3.71337E-05 9.46162E-15-8.05474E-14
 -1        54 3.04807E-04 2.37882E-05 7.96933E-26-2.93408E-05 1.06752E-14 2.50973E-13
 -1        55 3.04825E-04 1.20175E-05-2.05327E-26-1.20799E-04-1.82486E-14 3.06230E-14
 -1        56 5.83480E-04-1.00709E-06 1.09537E-25-4.28262E-05-1.24134E-14-2.66538E-13
 -1        57 3.49695E-04 8.92030E-06-1.01234E-26 5.21220E-05-1.25261E-14-3.42280E-14
 -1        58 3.44573E-04 2.02867E-05 6.46835E-26-2.39890E-05-8.62808E-15-2.05382E-13
 -1        59 3.59664E-04 7.60671E-06-1.21887E-26-1.22059E-04 3.15100E-14 8.61067E-14
 -1        60 6.70725E-04-6.27941E-06-8.59234E-27-2.79381E-05 3.10397E-14-8.89608E-14
 -1        61 3.95936E-04 5.65702E-06 9.80036E-26 7.56137E-05 4.10395E-15 2.53095E-13
 -1        62 3.89047E-04 1.85200E-05 4.96907E-27-1.47579E-05-2.53196E-15 7.75731E-14
 -1        63 4.04467E-04 4.95791E-06 3.94847E-26-1.19017E-04 3.10096E-14 1.47225E-13
 -1        64 7.31885E-04-8.02011E-06 1.23577E-25-1.66873E-05 2.78578E-14 2.56677E-13
 -1        65 4.25053E-04 1.42128E-05 8.70298E-28 8.98531E-05-6.77367E-15 8.32522E-14
 -1        66 4.04906E-04 6.06916E-05 1.36904E-25-2.19863E-05-4.02834E-14 2.92955E-13
 -1        67 4.22900E-04 1.43647E-04 1.64049E-27-1.06972E-04-6.17211E-14-1.05693E-13
 -1        68 6.15502E-04 2.21553E-04 3.25863E-26-3.37079E-05-2.70041E-14-1.28611E-13
 -1        69 6.75256E-04-1.41628E-04 8.83533E-27 7.88305E-04 1.85914E-14-7.10246E-14
 -1        70 3.57949E-04 5.23791E-05-1.83913E-27-1.74828E-04 1.01448E-13-4.35561E-14
 -1        71 5.69500E-04 3.71312E-05 6.49771E-27-2.97539E-05 1.62595E-14-5.91779E-14
 -1        72 3.19633E-04 1.92915E-05-4.86427E-27 3.71337E-05 9.46162E-15-8.05474E-14
 -1        73 3.04807E-04 2.37882E-05 7.96933E-26-2.93408E-05 1.06752E-14 2.50973E-13
 -1        74 3.04825E-04 1.20175E-05-2.05327E-26-1.20799E-04-1.82486E-14 3.06230E-14
 -1        75 5.83480E-04-1.00709E-06 1.09537E-25-4.28262E-05-1.24134E-14-2.66538E-13
 -1        76 3.49695E-04 8.92030E-06-1.01234E-26 5.21220E-05-1.25261E-14-3.42279E-14
 -1        77 3.44573E-04 2.02867E-05 6.46835E-26-2.39890E-05-8.62808E-15-2.05382E-13
 -1        78 3.59664E-04 7.60671E-06-1.21887E-26-1.22059E-04 3.15099E-14 8.61067E-14
 -1        79 6.70725E-04-6.27941E-06-8.59234E-27-2.79381E-05 3.10397E-14-8.89608E-14
 -1        80 3.95936E-04 5.65702E-06 9.80036E-26 7.56137E-05 4.10395E-15 2.53095E-13
 -1        81 3.89047E-04 1.85200E-05 4.96907E-27-1.47579E-05-2.53196E-15 7.75731E-14
 -1        82 4.04467E-04 4.95791E-06 3.94847E-26-1.19017E-04 3.10096E-14 1.47225E-13
 -1        83 7.31885E-04-8.02011E-06 1.23577E-25-1.66873E-05 2.78578E-14 2.56677E-13
 -1        84 4.25053E-04 1.42128E-05 8.70287E-28 8.98531E-05-6.77367E-15 8.32522E-14
 -1        85 4.04906E-04 6.06916E-05 1.36904E-25-2.19863E-05-4.02834E-14 2.92955E-13
 -1        86 4.22900E-04 1.43647E-04 1.64048E-27-1.06972E-04-6.17211E-14-1.05693E-13
 -1        87 6.15502E-04 2.21553E-04 3.25863E-26-3.37079E-05-2.70041E-14-1.28611E-13
 -1        88 6.75256E-04-1.41628E-04 8.83533E-27 7.88305E-04 1.85914E-14-7.10246E-14
 -1        89-5.33978E-04-6.34422E-07 1.55136E-26 5.83582E-04 1.37546E-14-9.61637E-14
 -1        90-5.46303E-04 6.15800E-05 6.55750E-26 3.48794E-05-8.35974E-15-1.93192E-13
 -1        91-4.38502E-04 2.41674E-06-1.08612E-26-4.32759E-05-1.98230E-14-1.00382E-14
 -1        92-4.30401E-04-1.81260E-05 4.10438E-26-2.19889E-05 5.86031E-15 1.61527E-13
 -1        93-4.33505E-04 1.91167E-06 5.46866E-26-1.82612E-06 3.11211E-14 1.61781E-13
 -1        94-5.39379E-04 2.22458E-05 4.42506E-26-1.05593E-05 1.19763E-14 1.57570E-13
 -1        95-4.24517E-04 8.15571E-07 4.66274E-27-2.17915E-05-8.95671E-15 6.33159E-14
 -1        96-4.16553E-04-1.91900E-05-1.72101E-27-1.17249E-05 6.98020E-15 1.56693E-14
 -1        97-4.17374E-04 2.06558E-06 1.66015E-26-3.49337E-06-2.84604E-14 9.83836E-14
 -1        98-5.13413E-04 2.18400E-05 2.44805E-27-1.67643E-05 2.53983E-14 6.89704E-14
 -1        99-3.97907E-04 1.59996E-06 1.24373E-26-2.83744E-05-1.10399E-14-1.32136E-13
 -1       100-3.85648E-04-1.57048E-05 1.72166E-26-1.95347E-05-3.21568E-14-9.29609E-14
 -1       101-3.82100E-04 5.67852E-06 2.20092E-26-1.35187E-05-3.93199E-14-9.89518E-14
 -1       102-4.55541E-04 2.46594E-05-2.25608E-26-2.68761E-05-1.77960E-14-7.37345E-14
 -1       103-3.38311E-04 8.24499E-06 1.51717E-26-3.66715E-05 9.42603E-14 2.20675E-14
 -1       104-3.07885E-04 3.84912E-07-1.34134E-26-2.68520E-05-2.20354E-14-2.67111E-14
 -1       105-2.88269E-04 1.80841E-05-2.47513E-27-2.21300E-05-5.41402E-14-2.01500E-15
 -1       106-2.49827E-04 2.50977E-05 6.39457E-28-2.44168E-05 2.70714E-14-3.41572E-14
 -1       107-1.45107E-04 3.26733E-05-2.64349E-26-7.98093E-05 4.92613E-15-1.62785E-14
 -1       108-1.45107E-04 3.26733E-05-2.64349E-26-7.98093E-05 4.92613E-15-1.62785E-14
 -1       109-2.49827E-04 2.50977E-05 6.39456E-28-2.44168E-05 2.70714E-14-3.41571E-14
 -1       110-2.88269E-04 1.80841E-05-2.47513E-27-2.21300E-05-5.41402E-14-2.01501E-15
 -1       111-3.07885E-04 3.84911E-07-1.34134E-26-2.68520E-05-2.20354E-14-2.67111E-14
 -1       112-3.38311E-04 8.24499E-06 1.51717E-26-3.66715E-05 9.42603E-14 2.20675E-14
 -1       113-4.55541E-04 2.46594E-05-2.25608E-26-2.68761E-05-1.77960E-14-7.37346E-14
 -1       114-3.82100E-04 5.67852E-06 2.20092E-26-1.35187E-05-3.93199E-14-9.89518E-14
 -1       115-3.85648E-04-1.57048E-05 1.72166E-26-1.95347E-05-3.21568E-14-9.29608E-14
 -1       116-3.97907E-04 1.59996E-06 1.24373E-26-2.83744E-05-1.10399E-14-1.32136E-13
 -1       117-5.13413E-04 2.18400E-05 2.44806E-27-1.67643E-05 2.53983E-14 6.89704E-14
 -1       118-4.17374E-04 2.06558E-06 1.66015E-26-3.49337E-06-2.84605E-14 9.83836E-14
 -1       119-4.16553E-04-1.91900E-05-1.72102E-27-1.17249E-05 6.98020E-15 1.56693E-14
 -1       120-4.24517E-04 8.15571E-07 4.66273E-27-2.17915E-05-8.95671E-15 6.33158E-14
 -1       121-5.39379E-04 2.22458E-05 4.42507E-26-1.05593E-05 1.19763E-14 1.57570E-13
 -1       122-4.33505E-04 1.91167E-06 5.46865E-26-1.82612E-06 3.11211E-14 1.61781E-13
 -1       123-4.30401E-04-1.81260E-05 4.10438E-26-2.19889E-05 5.86031E-15 1.61527E-13
 -1       124-4.38502E-04 2.41674E-06-1.08612E-26-4.32759E-05-1.98230E-14-1.00382E-14
 -1       125-5.46303E-04 6.15800E-05 6.55750E-26 3.48794E-05-8.35974E-15-1.93192E-13
 -1       126-5.33978E-04-6.34422E-07 1.55136E-26 5.83582E-04 1.37546E-14-9.61637E-14
 -3
    1PSTEP                         4           1           1          
  100CL  101 1.00000E-02         126                     1    1           1
 -4  ERROR       1    1
 -5  STR(%)      1    1    0    0
 -1         1 2.61760E+01
 -1         2 2.61760E+01
 -1         3 9.29084E+00
 -1         4 9.29084E+00
 -1         5 5.22881E+00
 -1         6 5.22881E+00
 -1         7 3.81918E+01
 -1         8 3.81918E+01
 -1         9 9.29084E+00
 -1        10 9.29084E+00
 -1        11 3.81918E+01
 -1        12 3.81918E+01
 -1        13 2.61760E+01
 -1        14 6.92571E+00
 -1        15 6.92571E+00
 -1        16 8.70519E-01
 -1        17 7.29753E+00
 -1        18 8.60197E+00
 -1        19 8.60197E+00
 -1        20 4.75243E-01
 -1        21 6.62715E+00
 -1        22 9.35596E+00
 -1        23 9.35596E+00
 -1        24 6.31509E-01
 -1        25 5.47350E+00
 -1        26 1.09126E+01
 -1        27 1.09126E+01
 -1        28 1.16886E+00
 -1        29 3.28862E+00
 -1        30 1.45029E+01
 -1        31 1.45029E+01
 -1        32 2.61760E+01
 -1        33 6.92571E+00
 -1        34 6.92571E+00
 -1        35 8.70519E-01
 -1        36 7.29753E+00
 -1        37 8.60197E+00
 -1        38 8.60197E+00
 -1        39 4.75243E-01
 -1        40 6.62715E+00
 -1        41 9.35596E+00
 -1        42 9.35596E+00
 -1        43 6.31509E-01
 -1        44 5.47350E+00
 -1        45 1.09126E+01
 -1        46 1.09126E+01
 -1        47 1.16886E+00
 -1        48 3.28862E+00
 -1        49 1.45029E+01
 -1        50 1.45029E+01
 -1        51 1.33810E+01
 -1        52 1.50130E+01
 -1        53 1.50130E+01
 -1        54 1.11790E+00
 -1        55 1.77559E+01
 -1        56 1.77559E+01
 -1        57 1.28346E+01
 -1        58 1.77439E+00
 -1        59 1.71058E+01
 -1        60 1.71058E+01
 -1        61 1.34769E+01
 -1        62 1.55913E+00
 -1        63 1.60545E+01
 -1        64 1.60545E+01
 -1        65 1.41955E+01
 -1        66 2.96564E+00
 -1        67 1.49081E+01
 -1        68 1.49081E+01
 -1        69 3.81918E+01
 -1        70 1.33810E+01
 -1        71 1.50130E+01
 -1        72 1.50130E+01
 -1        73 1.11790E+00
 -1        74 1.77559E+01
 -1        75 1.77559E+01
 -1        76 1.28346E+01
 -1        77 1.77439E+00
 -1        78 1.71058E+01
 -1        79 1.71058E+01
 -1        80 1.34769E+01
 -1        81 1.55913E+00
 -1        82 1.60545E+01
 -1        83 1.60545E+01
 -1        84 1.41955E+01
 -1        85 2.96564E+00
 -1        86 1.49081E+01
 -1        87 1.49081E+01
 -1        88 3.81918E+01
 -1        89 3.81918E+01
 -1        90 1.49081E+01
 -1        91 1.49081E+01
 -1        92 2.96564E+00
 -1        93 1.41955E+01
 -1        94 1.60545E+01
 -1        95 1.60545E+01
 -1        96 1.55913E+00
 -1        97 1.34769E+01
 -1        98 1.71058E+01
 -1        99 1.71058E+01
 -1       100 1.77439E+00
 -1       101 1.28346E+01
 -1       102 1.77559E+01
 -1       103 1.77559E+01
 -1       104 1.16886E+00
 -1       105 1.50130E+01
 -1       106 1.50130E+01
 -1       107 1.45029E+01
 -1       108 1.45029E+01
 -1       109 1.50130E+01
 -1       110 1.50130E+01
 -1       111 1.16886E+00
 -1       112 1.77559E+01
 -1       113 1.77559E+01
 -1       114 1.28346E+01
 -1       115 1.77439E+00
 -1       116 1.71058E+01
 -1       117 1.71058E+01
 -1       118 1.34769E+01
 -1       119 1.55913E+00
 -1       120 1.60545E+01
 -1       121 1.60545E+01
 -1       122 1.41955E+01
 -1       123 2.96564E+00
 -1       124 1.49081E+01
 -1       125 1.49081E+01
 -1       126 3.81918E+01
 -3
    1PSTEP                         5           2           1          
  100CL  102 2.00000E-02         126                     1    2           1
 -4  DISP        4    1
 -5  D1          1    2    1    0
 -5  D2          1    2    2    0
 -5  D3          1    2    3    0
 -5  ALL         1    2    0    0    1ALL
 -1         1 0.00000E+00 0.00000E+00 0.00000E+00
 -1         2 0.00000E+00 0.00000E+00 0.00000E+00
 -1         3 4.18261E-04 9.53732E-06 0.00000E+00
 -1         4 4.18261E-04 9.53732E-06 0.00000E+00
 -1         5 4.29172E-04 9.62883E-05 0.00000E+00
 -1         6 4.29172E-04 9.62883E-05 0.00000E+00
 -1         7 0.00000E+00 0.00000E+00 0.00000E+00
 -1         8 0.00000E+00 0.00000E+00 0.00000E+00
 -1         9 4.12877E-04 7.39150E-05 0.00000E+00
 -1        10 4.12877E-04 7.39150E-05 0.00000E+00
 -1        11 0.00000E+00 0.00000E+00 0.00000E+00
 -1        12 0.00000E+00 0.00000E+00 0.00000E+00
 -1        13 5.19329E-04 1.45981E-04 0.00000E+00
 -1        14 7.56271E-04 1.04451E-04 0.00000E+00
 -1        15 8.04254E-04 3.79616E-05 0.00000E+00
 -1        16 7.99689E-04 6.88369E-06 0.00000E+00
 -1        17 7.97354E-04-2.56575E-06 0.00000E+00
 -1        18 8.05955E-04-7.33196E-06 0.00000E+00
 -1        19 7.74147E-04-9.97559E-06 0.00000E+00
 -1        20 7.54663E-04-8.67492E-06 0.00000E+00
 -1        21 7.49542E-04-7.77073E-06 0.00000E+00
 -1        22 7.53369E-04-1.06823E-05 0.00000E+00
 -1        23 7.16553E-04-1.34454E-05 0.00000E+00
 -1        24 6.90463E-04-1.25736E-05 0.00000E+00
 -1        25 6.76608E-04-1.17382E-05 0.00000E+00
 -1        26 6.69218E-04-1.35313E-05 0.00000E+00
 -1        27 6.25150E-04-1.41406E-05 0.00000E+00
 -1        28 5.92249E-04-1.08687E-05 0.00000E+00
 -1        29 5.70311E-04-7.93790E-06 0.00000E+00
 -1        30 5.48177E-04-7.85373E-06 0.00000E+00
 -1        31 4.92730E-04-4.80939E-06 0.00000E+00
 -1        32 5.19329E-04 1.45981E-04 0.00000E+00
 -1        33 7.56271E-04 1.04451E-04 0.00000E+00
 -1        34 8.04254E-04 3.79616E-05 0.00000E+00
 -1        35 7.99689E-04 6.88369E-06 0.00000E+00
 -1        36 7.97354E-04-2.56575E-06 0.00000E+00
 -1        37 8.05955E-04-7.33196E-06 0.00000E+00
 -1        38 7.74147E-04-9.97559E-06 0.00000E+00
 -1        39 7.54663E-04-8.67492E-06 0.00000E+00
 -1        40 7.49542E-04-7.77073E-06 0.00000E+00
 -1        41 7.53369E-04-1.06823E-05 0.00000E+00
 -1        42 7.16553E-04-1.34454E-05 0.00000E+00
 -1        43 6.90463E-04-1.25736E-05 0.00000E+00
 -1        44 6.76608E-04-1.17382E-05 0.00000E+00
 -1        45 6.69218E-04-1.35313E-05 0.00000E+00
 -1        46 6.25150E-04-1.41406E-05 0.00000E+00
 -1        47 5.92249E-04-1.08687E-05 0.00000E+00
 -1        48 5.70311E-04-7.93790E-06 0.00000E+00
 -1        49 5.48177E-04-7.85373E-06 0.00000E+00
 -1        50 4.92730E-04-4.80939E-06 0.00000E+00
 -1        51 5.06854E-04 7.66961E-05 0.00000E+00
 -1        52 5.58143E-04 5.39172E-05 0.00000E+00
 -1        53 5.65921E-04 3.94289E-05 0.00000E+00
 -1        54 5.85000E-04 3.34512E-05 0.00000E+00
 -1        55 6.12348E-04 3.04940E-05 0.00000E+00
 -1        56 6.48414E-04 2.52915E-05 0.00000E+00
 -1        57 6.55087E-04 2.02880E-05 0.00000E+00
 -1        58 6.69167E-04 1.93370E-05 0.00000E+00
 -1        59 6.91803E-04 1.89093E-05 0.00000E+00
 -1        60 7.20831E-04 1.47579E-05 0.00000E+00
 -1        61 7.20617E-04 1.07127E-05 0.00000E+00
 -1        62 7.26918E-04 1.11773E-05 0.00000E+00
 -1        63 7.43621E-04 1.20379E-05 0.00000E+00
 -1        64 7.67766E-04 8.36156E-06 0.00000E+00
 -1        65 7.64764E-04 2.35485E-06 0.00000E+00
 -1        66 7.68625E-04-8.21152E-06 0.00000E+00
 -1        67 7.70377E-04-4.12956E-05 0.00000E+00
 -1        68 7.12748E-04-1.10936E-04 0.00000E+00
 -1        69 4.82567E-04-1.52502E-04 0.00000E+00
 -1        70 5.06854E-04 7.66961E-05 0.00000E+00
 -1        71 5.58143E-04 5.39172E-05 0.00000E+00
 -1        72 5.65921E-04 3.94289E-05 0.00000E+00
 -1        73 5.85000E-04 3.34512E-05 0.00000E+00
 -1        74 6.12348E-04 3.04940E-05 0.00000E+00
 -1        75 6.48414E-04 2.52915E-05 0.00000E+00
 -1        76 6.55087E-04 2.02880E-05 0.00000E+00
 -1        77 6.69167E-04 1.93370E-05 0.00000E+00
 -1        78 6.91803E-04 1.89093E-05 0.00000E+00
 -1        79 7.20831E-04 1.47579E-05 0.00000E+00
 -1        80 7.20617E-04 1.07127E-05 0.00000E+00
 -1        81 7.26918E-04 1.11773E-05 0.00000E+00
 -1        82 7.43621E-04 1.20379E-05 0.00000E+00
 -1        83 7.67766E-04 8.36156E-06 0.00000E+00
 -1        84 7.64764E-04 2.35485E-06 0.00000E+00
 -1        85 7.68625E-04-8.21152E-06 0.00000E+00
 -1        86 7.70377E-04-4.12956E-05 0.00000E+00
 -1        87 7.12748E-04-1.10936E-04 0.00000E+00
 -1        88 4.82567E-04-1.52502E-04 0.00000E+00
 -1        89 4.62512E-04-8.47147E-06 0.00000E+00
 -1        90 7.32095E-04-3.53185E-06 0.00000E+00
 -1        91 7.82650E-04-1.68800E-07 0.00000E+00
 -1        92 7.73701E-04-4.62283E-07 0.00000E+00
 -1        93 7.67543E-04-9.81894E-07 0.00000E+00
 -1        94 7.66142E-04 8.10396E-07 0.00000E+00
 -1        95 7.44197E-04 2.41888E-06 0.00000E+00
 -1        96 7.26008E-04 1.53845E-06 0.00000E+00
 -1        97 7.20480E-04 8.97549E-07 0.00000E+00
 -1        98 7.16019E-04 2.62110E-06 0.00000E+00
 -1        99 6.89352E-04 4.28545E-06 0.00000E+00
 -1       100 6.64869E-04 3.95938E-06 0.00000E+00
 -1       101 6.50957E-04 4.39761E-06 0.00000E+00
 -1       102 6.36810E-04 7.12609E-06 0.00000E+00
 -1       103 6.03061E-04 1.02533E-05 0.00000E+00
 -1       104 5.72729E-04 1.29217E-05 0.00000E+00
 -1       105 5.52444E-04 1.83502E-05 0.00000E+00
 -1       106 5.29574E-04 2.65723E-05 0.00000E+00
 -1       107 4.81810E-04 4.05750E-05 0.00000E+00
 -1       108 4.81810E-04 4.05750E-05 0.00000E+00
 -1       109 5.29574E-04 2.65723E-05 0.00000E+00
 -1       110 5.52444E-04 1.83502E-05 0.00000E+00
 -1       111 5.72729E-04 1.29217E-05 0.00000E+00
 -1       112 6.03061E-04 1.02533E-05 0.00000E+00
 -1       113 6.36810E-04 7.12609E-06 0.00000E+00
 -1       114 6.50957E-04 4.39761E-06 0.00000E+00
 -1       115 6.64869E-04 3.95938E-06 0.00000E+00
 -1       116 6.89352E-04 4.28545E-06 0.00000E+00
 -1       117 7.16019E-04 2.62110E-06 0.00000E+00
 -1       118 7.20480E-04 8.97549E-07 0.00000E+00
 -1       119 7.26008E-04 1.53845E-06 0.00000E+00
 -1       120 7.44197E-04 2.41888E-06 0.00000E+00
 -1       121 7.66142E-04 8.10396E-07 0.00000E+00
 -1       122 7.67543E-04-9.81894E-07 0.00000E+00
 -1       123 7.73701E-04-4.62283E-07 0.00000E+00
 -1       124 7.82650E-04-1.68800E-07 0.00000E+00
 -1       125 7.32095E-04-3.53185E-06 0.00000E+00
 -1       126 4.62512E-04-8.47147E-06 0.00000E+00
 -3
    1PSTEP                         6           2           1          
  100CL  102 2.00000E-02         126                     1    2           1
 -4  STRESS      6    1
 -5  SXX         1    4    1    1
 -5  SYY         1    4    2    2
 -5  SZZ         1    4    3    3
 -5  SXY         1    4    1    2
 -5  SYZ         1    4    2    3
 -5  SZX         1    4    3    1
 -1         1 7.17941E+02 1.60610E+03 6.85179E+02 1.61389E+03-3.88079E-11-4.11079E-11
 -1         2 7.17941E+02 1.60610E+03 6.85179E+02 1.61389E+03-3.88079E-11-4.11079E-11
 -1         3 9.03866E+00 1.30402E+02 4.18174E+01-3.11576E+01-9.85549E-08-2.34483E-07
 -1         4 9.03866E+00 1.30402E+02 4.18174E+01-3.11576E+01-9.85549E-08-2.34483E-07
 -1         5 2.66779E+02 2.86763E+02 1.65837E+02-1.70559E+02 1.15190E-07-2.10702E-07
 -1         6 2.66779E+02 2.86763E+02 1.65837E+02-1.70559E+02 1.15190E-07-2.10702E-07
 -1         7-6.65784E+02-1.61148E+03-6.94134E+02 1.46939E+03-4.48892E-11 2.34356E-11
 -1         8-6.65784E+02-1.61148E+03-6.94134E+02 1.46939E+03-4.48897E-11 2.34356E-11
 -1         9 2.13277E+02 3.85058E+02 1.79286E+02-7.89717E+01 4.78792E-09-2.45313E-07
 -1        10 2.13277E+02 3.85058E+02 1.79286E+02-7.89717E+01 4.78792E-09-2.45313E-07
 -1        11-3.27670E+00-7.00211E+01-2.92255E+01 1.42221E+03-4.41454E-11-1.06535E-11
 -1        12-3.27670E+00-7.00211E+01-2.92255E+01 1.42221E+03-4.41445E-11-1.06535E-11
 -1        13-3.47338E+02 3.17485E+02-1.27137E+01 6.92417E+02-1.53556E-08-7.31564E-08
 -1        14-5.05508E+02-6.89473E+02-3.59368E+02 1.05558E+02 2.96913E-08-1.43013E-07
 -1        15-4.57685E+02-6.24311E+02-3.25078E+02-5.04625E+01 7.33415E-08 1.52340E-09
 -1        16-3.73248E+02-3.38113E+02-2.13612E+02-3.31150E+01 5.55880E-08 1.44490E-07
 -1        17-3.53573E+02-2.14177E+02-1.70469E+02 1.44886E+01 1.37790E-08 1.81058E-07
 -1        18-4.45268E+02-2.23676E+02-2.00918E+02-1.06462E+01-1.63101E-08 1.07975E-07
 -1        19-3.25253E+02-1.45441E+02-1.41333E+02-4.07311E+01-2.38840E-08 9.80988E-08
 -1        20-3.03190E+02-1.20385E+02-1.27177E+02-6.43788E+00-1.46975E-08 4.42993E-08
 -1        21-3.17320E+02-1.44965E+02-1.38800E+02 2.46281E+01-2.42698E-08 6.78214E-08
 -1        22-4.14777E+02-2.02936E+02-1.85520E+02-9.82760E+00-5.09224E-08 4.50427E-08
 -1        23-2.96919E+02-1.35665E+02-1.29880E+02-4.21889E+01-4.62707E-08-1.29876E-07
 -1        24-2.71402E+02-1.08904E+02-1.14176E+02-1.05961E+01-1.91793E-08-8.80108E-08
 -1        25-2.78209E+02-1.23540E+02-1.20612E+02 1.69166E+01 5.46716E-09-1.06869E-07
 -1        26-3.54064E+02-1.62447E+02-1.55104E+02-1.56206E+01 2.60253E-08 3.69979E-08
 -1        27-2.31368E+02-8.74794E+01-9.57213E+01-4.33451E+01 1.70865E-08-4.58444E-09
 -1        28-1.95648E+02-5.65972E+01-7.57187E+01-1.11901E+01-2.13207E-09-3.30051E-08
 -1        29-1.85261E+02-6.61429E+01-7.54595E+01 1.30414E+01-1.97156E-08 1.97515E-08
 -1        30-1.92737E+02-6.88040E+01-7.85120E+01-1.34696E+01-5.00877E-08 4.79884E-10
 -1        31-7.68319E+01 4.37129E+01-9.96406E+00-6.03023E+01-8.42024E-08-1.21862E-07
 -1        32-3.47338E+02 3.17485E+02-1.27137E+01 6.92417E+02-1.53556E-08-7.31564E-08
 -1        33-5.05508E+02-6.89473E+02-3.59368E+02 1.05558E+02 2.96913E-08-1.43013E-07
 -1        34-4.57685E+02-6.24311E+02-3.25078E+02-5.04625E+01 7.33415E-08 1.52339E-09
 -1        35-3.73248E+02-3.38113E+02-2.13612E+02-3.31150E+01 5.55880E-08 1.44490E-07
 -1        36-3.53573E+02-2.14177E+02-1.70469E+02 1.44886E+01 1.37790E-08 1.81058E-07
 -1        37-4.45268E+02-2.23676E+02-2.00918E+02-1.06462E+01-1.63101E-08 1.07975E-07
 -1        38-3.25253E+02-1.45441E+02-1.41333E+02-4.07311E+01-2.38840E-08 9.80987E-08
 -1        39-3.03190E+02-1.20385E+02-1.27177E+02-6.43788E+00-1.46975E-08 4.42993E-08
 -1        40-3.17320E+02-1.44965E+02-1.38800E+02 2.46281E+01-2.42698E-08 6.78214E-08
 -1        41-4.14777E+02-2.02936E+02-1.85520E+02-9.82760E+00-5.09224E-08 4.50427E-08
 -1        42-2.96918E+02-1.35665E+02-1.29880E+02-4.21889E+01-4.62707E-08-1.29876E-07
 -1        43-2.71402E+02-1.08904E+02-1.14176E+02-1.05961E+01-1.91793E-08-8.80107E-08
 -1        44-2.78209E+02-1.23540E+02-1.20612E+02 1.69166E+01 5.46716E-09-1.06869E-07
 -1        45-3.54064E+02-1.62447E+02-1.55104E+02-1.56206E+01 2.60253E-08 3.69979E-08
 -1        46-2.31368E+02-8.74794E+01-9.57213E+01-4.33451E+01 1.70865E-08-4.58445E-09
 -1        47-1.95648E+02-5.65972E+01-7.57187E+01-1.11901E+01-2.13207E-09-3.30052E-08
 -1        48-1.85261E+02-6.61429E+01-7.54595E+01 1.30414E+01-1.97156E-08 1.97515E-08
 -1        49-1.92737E+02-6.88040E+01-7.85120E+01-1.34696E+01-5.00877E-08 4.79874E-10
 -1        50-7.68319E+01 4.37129E+01-9.96406E+00-6.03023E+01-8.42024E-08-1.21862E-07
 -1        51 3.68161E+02 3.44163E+02 2.13468E+02-8.75002E+01 9.79480E-08-1.17724E-07
 -1        52 3.94034E+02 3.32696E+02 2.17795E+02-6.75766E+00 4.98576E-08-2.08940E-08
 -1        53 1.92431E+02 1.72470E+02 1.09416E+02 2.35774E+01 1.68325E-08-1.47412E-08
 -1        54 1.52882E+02 1.04808E+02 7.72779E+01-8.25492E+00 2.83475E-09 4.84564E-08
 -1        55 1.19003E+02 8.68960E+01 6.17468E+01-3.53006E+01-1.47059E-08 2.45234E-08
 -1        56 1.48646E+02 1.08583E+02 7.71338E+01-9.86005E+00-2.89408E-08-9.67752E-08
 -1        57 5.82419E+01 5.11580E+01 3.28140E+01 1.69753E+01-2.61320E-08-9.09099E-08
 -1        58 4.95190E+01 2.73007E+01 2.30422E+01-9.16991E+00-3.18437E-09-1.15242E-07
 -1        59 3.70593E+01 3.60350E+01 2.19210E+01-3.44959E+01 3.01945E-08-4.14352E-08
 -1        60 7.07976E+01 6.63904E+01 4.11415E+01-6.98852E+00 4.26340E-08 6.88844E-10
 -1        61 9.74840E+00 1.99295E+01 8.90056E+00 2.08368E+01 1.90139E-08 1.01592E-07
 -1        62 6.77041E+00-2.91388E+00 1.15577E+00-5.73054E+00 9.67019E-09 6.09101E-08
 -1        63 3.55520E-01 1.25441E+01 3.86434E+00-3.32491E+01 2.64576E-08 1.09004E-07
 -1        64 3.98769E+01 5.96705E+01 2.98533E+01-9.29512E+00 2.43685E-08 1.54476E-07
 -1        65 8.32235E+00 7.64357E+01 2.54210E+01 8.94320E+00-3.76144E-09 1.45308E-07
 -1        66 4.60662E+01 2.11780E+02 7.72986E+01-3.25132E+01-5.16761E-08 1.42571E-07
 -1        67 1.05169E+02 4.97605E+02 1.80537E+02-4.04449E+01-7.76629E-08-8.90233E-09
 -1        68 5.23913E+01 5.13520E+02 1.69194E+02 1.12911E+02-3.47719E-08-1.09531E-07
 -1        69-2.04173E+01-4.88980E+02-1.56256E+02 6.48397E+02 1.36740E-08-9.18726E-08
 -1        70 3.68161E+02 3.44163E+02 2.13468E+02-8.75002E+01 9.79480E-08-1.17724E-07
 -1        71 3.94034E+02 3.32696E+02 2.17795E+02-6.75766E+00 4.98576E-08-2.08940E-08
 -1        72 1.92431E+02 1.72470E+02 1.09416E+02 2.35774E+01 1.68325E-08-1.47412E-08
 -1        73 1.52882E+02 1.04808E+02 7.72779E+01-8.25492E+00 2.83475E-09 4.84563E-08
 -1        74 1.19003E+02 8.68960E+01 6.17468E+01-3.53006E+01-1.47059E-08 2.45234E-08
 -1        75 1.48646E+02 1.08583E+02 7.71338E+01-9.86005E+00-2.89408E-08-9.67752E-08
 -1        76 5.82419E+01 5.11580E+01 3.28140E+01 1.69753E+01-2.61320E-08-9.09098E-08
 -1        77 4.95190E+01 2.73007E+01 2.30422E+01-9.16991E+00-3.18437E-09-1.15242E-07
 -1        78 3.70593E+01 3.60350E+01 2.19210E+01-3.44959E+01 3.01945E-08-4.14352E-08
 -1        79 7.07976E+01 6.63904E+01 4.11415E+01-6.98852E+00 4.26340E-08 6.88842E-10
 -1        80 9.74840E+00 1.99295E+01 8.90056E+00 2.08368E+01 1.90139E-08 1.01592E-07
 -1        81 6.77041E+00-2.91388E+00 1.15577E+00-5.73054E+00 9.67019E-09 6.09101E-08
 -1        82 3.55520E-01 1.25441E+01 3.86434E+00-3.32491E+01 2.64576E-08 1.09004E-07
 -1        83 3.98769E+01 5.96705E+01 2.98533E+01-9.29512E+00 2.43685E-08 1.54476E-07
 -1        84 8.32235E+00 7.64357E+01 2.54210E+01 8.94320E+00-3.76144E-09 1.45308E-07
 -1        85 4.60662E+01 2.11780E+02 7.72986E+01-3.25132E+01-5.16761E-08 1.42571E-07
 -1        86 1.05169E+02 4.97605E+02 1.80537E+02-4.04449E+01-7.76629E-08-8.90229E-09
 -1        87 5.23913E+01 5.13520E+02 1.69194E+02 1.12911E+02-3.47719E-08-1.09531E-07
 -1        88-2.04173E+01-4.88980E+02-1.56256E+02 6.48397E+02 1.36740E-08-9.18726E-08
 -1        89-1.85847E+02-9.24374E+01-8.54261E+01 6.66387E+02 3.36409E-09-8.89641E-08
 -1        90-2.09617E+02-5.21074E+01-7.90072E+01 1.61209E+02-1.76193E-09-1.37682E-07
 -1        91-1.74960E+02-6.15814E+01-7.09667E+01-5.78365E+01-5.98539E-09-7.44745E-09
 -1        92-1.69008E+02-7.61013E+01-7.35709E+01-4.64204E+01 7.12452E-10 1.52740E-07
 -1        93-1.72395E+02-6.83744E+01-7.22853E+01-4.05439E+00 1.23773E-08 1.67031E-07
 -1        94-1.97487E+02-6.98230E+01-8.02946E+01-1.17736E+01 1.05864E-08 1.40126E-07
 -1        95-1.62488E+02-6.65054E+01-6.87579E+01-2.78719E+01-2.42704E-10 8.81359E-08
 -1        96-1.52739E+02-7.22128E+01-6.75414E+01-5.94899E+00-9.10293E-10 5.83197E-08
 -1        97-1.53102E+02-6.09251E+01-6.42620E+01 1.30529E+01-9.69146E-09 8.64227E-08
 -1        98-1.67102E+02-5.68324E+01-6.72723E+01-8.76151E+00 1.02197E-09 2.61050E-08
 -1        99-1.29965E+02-4.98583E+01-5.39970E+01-2.89171E+01-7.65200E-09-8.79900E-08
 -1       100-1.14244E+02-4.85073E+01-4.88704E+01-9.98223E+00-2.27253E-08-1.05904E-07
 -1       101-1.08432E+02-3.25886E+01-4.23476E+01 6.08857E+00-2.29865E-08-1.00252E-07
 -1       102-9.82187E+01-1.64215E+01-3.44689E+01-1.39763E+01 9.10802E-10-3.66823E-08
 -1       103-5.53230E+01 1.76390E+00-1.61066E+01-2.99333E+01 3.01719E-08 1.41633E-08
 -1       104-2.01631E+01 2.69509E+01 2.00004E+00-9.70252E+00-3.79462E-09 9.41323E-09
 -1       105 8.01275E+00 6.34553E+01 2.14053E+01 6.45738E+00-1.61558E-08 1.33871E-08
 -1       106 1.05323E+02 1.42848E+02 7.43502E+01-1.36887E+01 5.18599E-09-1.37593E-08
 -1       107 1.85845E+02 2.88035E+02 1.42002E+02-5.43333E+01 9.44875E-09-9.71859E-08
 -1       108 1.85845E+02 2.88035E+02 1.42002E+02-5.43333E+01 9.44874E-09-9.71859E-08
 -1       109 1.05323E+02 1.42848E+02 7.43502E+01-1.36887E+01 5.18599E-09-1.37593E-08
 -1       110 8.01275E+00 6.34553E+01 2.14053E+01 6.45738E+00-1.61558E-08 1.33871E-08
 -1       111-2.01631E+01 2.69509E+01 2.00004E+00-9.70252E+00-3.79462E-09 9.41329E-09
 -1       112-5.53230E+01 1.76390E+00-1.61066E+01-2.99333E+01 3.01719E-08 1.41633E-08
 -1       113-9.82187E+01-1.64215E+01-3.44689E+01-1.39763E+01 9.10802E-10-3.66822E-08
 -1       114-1.08432E+02-3.25886E+01-4.23476E+01 6.08857E+00-2.29865E-08-1.00252E-07
 -1       115-1.14244E+02-4.85073E+01-4.88704E+01-9.98223E+00-2.27253E-08-1.05904E-07
 -1       116-1.29965E+02-4.98583E+01-5.39970E+01-2.89171E+01-7.65200E-09-8.79900E-08
 -1       117-1.67102E+02-5.68324E+01-6.72723E+01-8.76151E+00 1.02197E-09 2.61050E-08
 -1       118-1.53102E+02-6.09251E+01-6.42620E+01 1.30529E+01-9.69146E-09 8.64227E-08
 -1       119-1.52739E+02-7.22128E+01-6.75414E+01-5.94899E+00-9.10293E-10 5.83197E-08
 -1       120-1.62488E+02-6.65054E+01-6.87579E+01-2.78719E+01-2.42704E-10 8.81359E-08
 -1       121-1.97487E+02-6.98230E+01-8.02946E+01-1.17736E+01 1.05864E-08 1.40126E-07
 -1       122-1.72395E+02-6.83744E+01-7.22853E+01-4.05439E+00 1.23773E-08 1.67031E-07
 -1       123-1.69008E+02-7.61013E+01-7.35709E+01-4.64204E+01 7.12452E-10 1.52740E-07
 -1       124-1.74960E+02-6.15814E+01-7.09667E+01-5.78365E+01-5.98539E-09-7.44745E-09
 -1       125-2.09617E+02-5.21074E+01-7.90072E+01 1.61209E+02-1.76193E-09-1.37682E-07
 -1       126-1.85847E+02-9.24374E+01-8.54261E+01 6.66387E+02 3.36409E-09-8.89641E-08
 -3
    1PSTEP                         7           2           1          
  100CL  102 2.00000E-02         126                     1    2           1
 -4  TOSTRAIN    6    1
 -5  EXX         1    4    1    1
 -5  EYY         1    4    2    2
 -5  EZZ         1    4    3    3
 -5  EXY         1    4    1    2
 -5  EYZ         1    4    2    3
 -5  EZX         1    4    3    1
 -1         1-8.83668E-07 2.97686E-03-1.93248E-26 5.19312E-03 2.42074E-19-6.56557E-17
 -1         2-8.83668E-07 2.97686E-03-1.93248E-26 5.19312E-03 2.42074E-19-6.56557E-17
 -1         3-1.06838E-04 2.88053E-04 1.28471E-24-1.00644E-04-3.19193E-13-7.62562E-13
 -1         4-1.06838E-04 2.88053E-04 1.28471E-24-1.00644E-04-3.19193E-13-7.62562E-13
 -1         5 3.26027E-04 3.93100E-04 1.13702E-24-5.53228E-04 3.74380E-13-6.83733E-13
 -1         6 3.26027E-04 3.93100E-04 1.13702E-24-5.53228E-04 3.74380E-13-6.83733E-13
 -1         7-7.11710E-07-2.99944E-03-3.03698E-26 4.82550E-03-3.86385E-19 4.69738E-17
 -1         8-7.11710E-07-2.99944E-03-3.03698E-26 4.82550E-03-3.87956E-19 4.69738E-17
 -1         9 1.09595E-04 6.67941E-04 1.15194E-24-2.55349E-04 1.62351E-14-7.96848E-13
 -1        10 1.09595E-04 6.67941E-04 1.15194E-24-2.55349E-04 1.62351E-14-7.96848E-13
 -1        11-7.97689E-07-1.27432E-04-2.77627E-26 4.62495E-03-1.95554E-20-6.96726E-18
 -1        12-7.97689E-07-1.27432E-04-2.77627E-26 4.62495E-03-1.66235E-20-6.96727E-18
 -1        13-1.13140E-03 1.07887E-03 9.49645E-26 2.23081E-03-5.05543E-14-2.37629E-13
 -1        14-4.81192E-04-1.07385E-03 3.98111E-25 3.45254E-04 9.56821E-14-4.65670E-13
 -1        15-4.31781E-04-9.74980E-04 1.57800E-26-1.63926E-04 2.38780E-13 4.84930E-15
 -1        16-5.19610E-04-4.05173E-04 4.56239E-25-1.07906E-04 1.80896E-13 4.70064E-13
 -1        17-5.96022E-04-1.42138E-04 6.83393E-25 4.71473E-05 4.47861E-14 5.89010E-13
 -1        18-7.95906E-04-7.39901E-05 2.36858E-25-3.45206E-05-5.30919E-14 3.51347E-13
 -1        19-5.98779E-04-1.32915E-05 2.08785E-25-1.32360E-04-7.77262E-14 3.19070E-13
 -1        20-5.72887E-04 2.20890E-05 3.85850E-26-2.08172E-05-4.78085E-14 1.44082E-13
 -1        21-5.81037E-04-2.00703E-05 1.05496E-25 8.02157E-05-7.89402E-14 2.20614E-13
 -1        22-7.46669E-04-5.66109E-05 3.27833E-26-3.17964E-05-1.65613E-13 1.46490E-13
 -1        23-5.43791E-04-1.87100E-05 3.35527E-25-1.37050E-04-1.50279E-13-4.22551E-13
 -1        24-5.11678E-04 1.71593E-05 1.66514E-25-3.42871E-05-6.22524E-14-2.86277E-13
 -1        25-5.12826E-04-9.55352E-06 2.02820E-25 5.51850E-05 1.78875E-14-3.47596E-13
 -1        26-6.47845E-04-2.38281E-05-1.36833E-26-5.05541E-05 8.45633E-14 1.20392E-13
 -1        27-4.41548E-04 2.69255E-05 2.67042E-27-1.40726E-04 5.55475E-14-1.48693E-14
 -1        28-3.90190E-04 6.21824E-05 1.02048E-26-3.61651E-05-6.87831E-15-1.07330E-13
 -1        29-3.57130E-04 3.02438E-05 1.00606E-26 4.26060E-05-6.41179E-14 6.41982E-14
 -1        30-3.71744E-04 3.16339E-05 1.25048E-26-4.34917E-05-1.62809E-13 1.42791E-15
 -1        31-2.17954E-04 1.74772E-04 3.81168E-25-1.95511E-04-2.73253E-13-3.96506E-13
 -1        32-1.13140E-03 1.07887E-03 9.49645E-26 2.23081E-03-5.05543E-14-2.37629E-13
 -1        33-4.81192E-04-1.07385E-03 3.98111E-25 3.45254E-04 9.56821E-14-4.65670E-13
 -1        34-4.31781E-04-9.74980E-04 1.57800E-26-1.63926E-04 2.38780E-13 4.84927E-15
 -1        35-5.19610E-04-4.05173E-04 4.56239E-25-1.07906E-04 1.80896E-13 4.70064E-13
 -1        36-5.96022E-04-1.42138E-04 6.83393E-25 4.71473E-05 4.47861E-14 5.89010E-13
 -1        37-7.95906E-04-7.39901E-05 2.36858E-25-3.45206E-05-5.30919E-14 3.51347E-13
 -1        38-5.98779E-04-1.32915E-05 2.08784E-25-1.32360E-04-7.77262E-14 3.19070E-13
 -1        39-5.72887E-04 2.20890E-05 3.85851E-26-2.08172E-05-4.78085E-14 1.44082E-13
 -1        40-5.81037E-04-2.00703E-05 1.05496E-25 8.02157E-05-7.89402E-14 2.20614E-13
 -1        41-7.46669E-04-5.66109E-05 3.27833E-26-3.17964E-05-1.65613E-13 1.46490E-13
 -1        42-5.43791E-04-1.87100E-05 3.35527E-25-1.37050E-04-1.50279E-13-4.22551E-13
 -1        43-5.11678E-04 1.71593E-05 1.66514E-25-3.42871E-05-6.22524E-14-2.86277E-13
 -1        44-5.12826E-04-9.55352E-06 2.02820E-25 5.51850E-05 1.78875E-14-3.47596E-13
 -1        45-6.47845E-04-2.38281E-05-1.36833E-26-5.05541E-05 8.45633E-14 1.20392E-13
 -1        46-4.41548E-04 2.69254E-05 2.67041E-27-1.40726E-04 5.55475E-14-1.48694E-14
 -1        47-3.90190E-04 6.21824E-05 1.02048E-26-3.61651E-05-6.87831E-15-1.07330E-13
 -1        48-3.57130E-04 3.02438E-05 1.00606E-26 4.26060E-05-6.41179E-14 6.41981E-14
 -1        49-3.71744E-04 3.16339E-05 1.25048E-26-4.34917E-05-1.62809E-13 1.42788E-15
 -1        50-2.17954E-04 1.74772E-04 3.81168E-25-1.95511E-04-2.73253E-13-3.96506E-13
 -1        51 5.01227E-04 4.24645E-04 4.30015E-25-2.83801E-04 3.18323E-13-3.81821E-13
 -1        52 5.71669E-04 3.72995E-04 3.27012E-26-2.19532E-05 1.61939E-13-6.77345E-14
 -1        53 2.69645E-04 2.04715E-04-3.69965E-27 7.65078E-05 5.47046E-14-4.78690E-14
 -1        54 2.45522E-04 8.94614E-05 3.78260E-26-2.68785E-05 9.14603E-15 1.57423E-13
 -1        55 1.85839E-04 8.18025E-05-1.54533E-26-1.14701E-04-4.78157E-14 7.96434E-14
 -1        56 2.32161E-04 1.02195E-04 1.76327E-25-3.20673E-05-9.39181E-14-3.14438E-13
 -1        57 8.26453E-05 5.95683E-05 1.88403E-25 5.51409E-05-8.48242E-14-2.95430E-13
 -1        58 8.60018E-05 1.38575E-05 2.66768E-25-2.98197E-05-1.02335E-14-3.74492E-13
 -1        59 4.90735E-05 4.59272E-05 3.03919E-26-1.12083E-04 9.81622E-14-1.34601E-13
 -1        60 9.62597E-05 8.20506E-05 9.77669E-27-2.27052E-05 1.38537E-13 2.27541E-15
 -1        61 2.76202E-06 3.58097E-05 2.00635E-25 6.77134E-05 6.17265E-14 3.30168E-13
 -1        62 1.82278E-05-1.32195E-05 7.26103E-26-1.86314E-05 3.13902E-14 1.97960E-13
 -1        63-1.14968E-05 2.82442E-05 2.53845E-25-1.08038E-04 8.59159E-14 3.54299E-13
 -1        64 3.24888E-05 9.68912E-05 5.10698E-25-3.01971E-05 7.91096E-14 5.02017E-13
 -1        65-5.55749E-05 1.65741E-04 4.39304E-25 2.90763E-05-1.22545E-14 4.72250E-13
 -1        66-1.01515E-04 4.36595E-04 4.30552E-25-1.05584E-04-1.67765E-13 4.63320E-13
 -1        67-2.45164E-04 1.02805E-03 4.86917E-26-1.32365E-04-2.52065E-13-2.87787E-14
 -1        68-3.84655E-04 1.11820E-03 2.47913E-25 3.63244E-04-1.13596E-13-3.55630E-13
 -1        69 4.04922E-04-1.07865E-03 1.63125E-25 2.12637E-03 4.37094E-14-2.98882E-13
 -1        70 5.01227E-04 4.24645E-04 4.30016E-25-2.83801E-04 3.18323E-13-3.81822E-13
 -1        71 5.71669E-04 3.72995E-04 3.27012E-26-2.19532E-05 1.61939E-13-6.77347E-14
 -1        72 2.69645E-04 2.04715E-04-3.69966E-27 7.65078E-05 5.47046E-14-4.78689E-14
 -1        73 2.45522E-04 8.94614E-05 3.78260E-26-2.68785E-05 9.14602E-15 1.57423E-13
 -1        74 1.85839E-04 8.18025E-05-1.54533E-26-1.14701E-04-4.78157E-14 7.96434E-14
 -1        75 2.32161E-04 1.02195E-04 1.76327E-25-3.20673E-05-9.39181E-14-3.14438E-13
 -1        76 8.26453E-05 5.95683E-05 1.88402E-25 5.51409E-05-8.48242E-14-2.95430E-13
 -1        77 8.60018E-05 1.38575E-05 2.66768E-25-2.98197E-05-1.02335E-14-3.74491E-13
 -1        78 4.90735E-05 4.59272E-05 3.03919E-26-1.12083E-04 9.81622E-14-1.34601E-13
 -1        79 9.62597E-05 8.20506E-05 9.77669E-27-2.27052E-05 1.38537E-13 2.27540E-15
 -1        80 2.76202E-06 3.58097E-05 2.00635E-25 6.77134E-05 6.17265E-14 3.30168E-13
 -1        81 1.82278E-05-1.32195E-05 7.26103E-26-1.86314E-05 3.13902E-14 1.97960E-13
 -1        82-1.14968E-05 2.82442E-05 2.53846E-25-1.08038E-04 8.59159E-14 3.54299E-13
 -1        83 3.24888E-05 9.68912E-05 5.10698E-25-3.01971E-05 7.91096E-14 5.02017E-13
 -1        84-5.55749E-05 1.65741E-04 4.39304E-25 2.90763E-05-1.22545E-14 4.72250E-13
 -1        85-1.01515E-04 4.36595E-04 4.30552E-25-1.05584E-04-1.67765E-13 4.63321E-13
 -1        86-2.45164E-04 1.02805E-03 4.86917E-26-1.32365E-04-2.52065E-13-2.87786E-14
 -1        87-3.84655E-04 1.11820E-03 2.47913E-25 3.63244E-04-1.13596E-13-3.55630E-13
 -1        88 4.04922E-04-1.07865E-03 1.63125E-25 2.12637E-03 4.37094E-14-2.98882E-13
 -1        89-3.63237E-04-7.10246E-06 1.49297E-25 2.16666E-03 1.01207E-14-2.89347E-13
 -1        90-4.32923E-04 9.04222E-05 3.63567E-25 5.22949E-04-6.68235E-15-4.47702E-13
 -1        91-3.38472E-04 3.08638E-05-9.27161E-26-1.88326E-04-1.94597E-14-2.42050E-14
 -1        92-3.10562E-04-8.13880E-06 4.38183E-25-1.50980E-04 2.40120E-15 4.96641E-13
 -1        93-3.25799E-04 1.27273E-05 5.91515E-25-1.31795E-05 4.02043E-14 5.43115E-13
 -1        94-3.81708E-04 3.40531E-05 4.08980E-25-3.82134E-05 3.43390E-14 4.55670E-13
 -1        95-3.05138E-04 7.36072E-06 1.55105E-25-9.05363E-05-8.52368E-16 2.86570E-13
 -1        96-2.77330E-04-1.51768E-05 6.82452E-26-1.92890E-05-2.99669E-15 1.89618E-13
 -1        97-2.89138E-04 1.08305E-05 1.49779E-25 4.24862E-05-3.15540E-14 2.80992E-13
 -1        98-3.25204E-04 3.39496E-05-2.28223E-26-2.83851E-05 3.29949E-15 8.48796E-14
 -1        99-2.47359E-04 1.35124E-05 1.31509E-25-9.39076E-05-2.47803E-14-2.86087E-13
 -1       100-2.12838E-04 1.20051E-06 2.47290E-25-3.23796E-05-7.37551E-14-3.44325E-13
 -1       101-2.15091E-04 3.17050E-05 2.15906E-25 1.98716E-05-7.46056E-14-3.25939E-13
 -1       102-2.07842E-04 5.86886E-05-3.26506E-28-4.53027E-05 3.00738E-15-1.19250E-13
 -1       103-1.27855E-04 5.81605E-05 1.35408E-26-9.71740E-05 9.80363E-14 4.61032E-14
 -1       104-7.23337E-05 8.11020E-05-4.38440E-27-3.14462E-05-1.23453E-14 3.05890E-14
 -1       105-4.37422E-05 1.36601E-04 5.10429E-27 2.10985E-05-5.25169E-14 4.34849E-14
 -1       106 9.99623E-05 2.22542E-04-1.79003E-26-4.42796E-05 1.68776E-14-4.46953E-14
 -1       107 1.41636E-04 4.74238E-04 1.20732E-25-1.75837E-04 3.09448E-14-3.15674E-13
 -1       108 1.41636E-04 4.74238E-04 1.20732E-25-1.75837E-04 3.09448E-14-3.15674E-13
 -1       109 9.99623E-05 2.22542E-04-1.79003E-26-4.42796E-05 1.68776E-14-4.46952E-14
 -1       110-4.37422E-05 1.36601E-04 5.10429E-27 2.10985E-05-5.25169E-14 4.34848E-14
 -1       111-7.23337E-05 8.11020E-05-4.38439E-27-3.14462E-05-1.23453E-14 3.05892E-14
 -1       112-1.27855E-04 5.81605E-05 1.35408E-26-9.71740E-05 9.80363E-14 4.61033E-14
 -1       113-2.07842E-04 5.86886E-05-3.26574E-28-4.53027E-05 3.00738E-15-1.19250E-13
 -1       114-2.15091E-04 3.17050E-05 2.15906E-25 1.98716E-05-7.46056E-14-3.25939E-13
 -1       115-2.12838E-04 1.20051E-06 2.47290E-25-3.23796E-05-7.37551E-14-3.44325E-13
 -1       116-2.47359E-04 1.35124E-05 1.31509E-25-9.39076E-05-2.47803E-14-2.86087E-13
 -1       117-3.25204E-04 3.39496E-05-2.28223E-26-2.83851E-05 3.29949E-15 8.48796E-14
 -1       118-2.89138E-04 1.08305E-05 1.49779E-25 4.24862E-05-3.15540E-14 2.80992E-13
 -1       119-2.77330E-04-1.51768E-05 6.82452E-26-1.92890E-05-2.99669E-15 1.89618E-13
 -1       120-3.05138E-04 7.36072E-06 1.55105E-25-9.05363E-05-8.52368E-16 2.86570E-13
 -1       121-3.81708E-04 3.40531E-05 4.08980E-25-3.82134E-05 3.43390E-14 4.55670E-13
 -1       122-3.25799E-04 1.27273E-05 5.91515E-25-1.31795E-05 4.02043E-14 5.43115E-13
 -1       123-3.10562E-04-8.13880E-06 4.38184E-25-1.50980E-04 2.40120E-15 4.96641E-13
 -1       124-3.38472E-04 3.08638E-05-9.27161E-26-1.88326E-04-1.94597E-14-2.42050E-14
 -1       125-4.32923E-04 9.04222E-05 3.63567E-25 5.22949E-04-6.68235E-15-4.47702E-13
 -1       126-3.63237E-04-7.10246E-06 1.49297E-25 2.16666E-03 1.01206E-14-2.89347E-13
 -3
    1PSTEP                         8           2           1          
  100CL  102 2.00000E-02         126                     1    2           1
 -4  ERROR       1    1
 -5  STR(%)      1    1    0    0
 -1         1 4.13990E+01
 -1         2 4.13990E+01
 -1         3 2.46446E+01
 -1         4 2.46446E+01
 -1         5 3.68361E+00
 -1         6 3.68361E+00
 -1         7 3.04751E+01
 -1         8 3.04751E+01
 -1         9 2.46446E+01
 -1        10 2.46446E+01
 -1        11 4.13990E+01
 -1        12 4.13990E+01
 -1        13 4.13990E+01
 -1        14 4.32934E+01
 -1        15 4.32934E+01
 -1        16 1.73489E+01
 -1        17 8.81308E+00
 -1        18 8.81308E+00
 -1        19 7.91144E+00
 -1        20 1.21968E+00
 -1        21 6.61210E+00
 -1        22 9.59242E+00
 -1        23 9.59242E+00
 -1        24 1.27311E+00
 -1        25 6.23714E+00
 -1        26 1.26692E+01
 -1        27 1.26692E+01
 -1        28 2.62110E+00
 -1        29 5.51328E+00
 -1        30 3.64469E+01
 -1        31 3.64469E+01
 -1        32 4.13990E+01
 -1        33 4.32934E+01
 -1        34 4.32934E+01
 -1        35 1.73489E+01
 -1        36 8.81308E+00
 -1        37 8.81308E+00
 -1        38 7.91144E+00
 -1        39 1.21968E+00
 -1        40 6.61210E+00
 -1        41 9.59242E+00
 -1        42 9.59242E+00
 -1        43 1.27311E+00
 -1        44 6.23714E+00
 -1        45 1.26692E+01
 -1        46 1.26692E+01
 -1        47 2.62110E+00
 -1        48 5.51328E+00
 -1        49 3.64469E+01
 -1        50 3.64469E+01
 -1        51 5.10076E+00
 -1        52 2.30116E+01
 -1        53 2.30116E+01
 -1        54 4.12708E+00
 -1        55 4.81549E+00
 -1        56 2.84825E+01
 -1        57 2.84825E+01
 -1        58 4.50591E+00
 -1        59 1.49682E+01
 -1        60 3.25023E+01
 -1        61 3.25023E+01
 -1        62 2.27588E+01
 -1        63 1.89052E+01
 -1        64 4.89510E+01
 -1        65 6.57182E+01
 -1        66 6.57182E+01
 -1        67 5.74777E+01
 -1        68 5.74777E+01
 -1        69 3.04751E+01
 -1        70 5.10076E+00
 -1        71 2.30116E+01
 -1        72 2.30116E+01
 -1        73 4.12708E+00
 -1        74 4.81549E+00
 -1        75 2.84825E+01
 -1        76 2.84825E+01
 -1        77 4.50591E+00
 -1        78 1.49682E+01
 -1        79 3.25023E+01
 -1        80 3.25023E+01
 -1        81 2.27588E+01
 -1        82 1.89052E+01
 -1        83 4.89510E+01
 -1        84 6.57182E+01
 -1        85 6.57182E+01
 -1        86 5.74777E+01
 -1        87 5.74777E+01
 -1        88 3.04751E+01
 -1        89 4.13990E+01
 -1        90 5.74777E+01
 -1        91 5.74777E+01
 -1        92 6.57182E+01
 -1        93 6.57182E+01
 -1        94 4.89510E+01
 -1        95 1.89052E+01
 -1        96 2.27588E+01
 -1        97 3.25023E+01
 -1        98 3.25023E+01
 -1        99 1.49682E+01
 -1       100 4.50591E+00
 -1       101 2.84825E+01
 -1       102 2.84825E+01
 -1       103 1.26692E+01
 -1       104 4.12708E+00
 -1       105 2.30116E+01
 -1       106 3.64469E+01
 -1       107 3.64469E+01
 -1       108 3.64469E+01
 -1       109 3.64469E+01
 -1       110 2.30116E+01
 -1       111 4.12708E+00
 -1       112 1.26692E+01
 -1       113 2.84825E+01
 -1       114 2.84825E+01
 -1       115 4.50591E+00
 -1       116 1.49682E+01
 -1       117 3.25023E+01
 -1       118 3.25023E+01
 -1       119 2.27588E+01
 -1       120 1.89052E+01
 -1       121 4.89510E+01
 -1       122 6.57182E+01
 -1       123 6.57182E+01
 -1       124 5.74777E+01
 -1       125 5.74777E+01
 -1       126 4.13990E+01
 -3
    1PSTEP                         9           3           1          
  100CL  103 3.00000E-02         126                     1    3           1
 -4  DISP        4    1
 -5  D1          1    2    1    0
 -5  D2          1    2    2    0
 -5  D3          1    2    3    0
 -5  ALL         1    2    0    0    1ALL
 -1         1 0.00000E+00 0.00000E+00 0.00000E+00
 -1         2 0.00000E+00 0.00000E+00 0.00000E+00
 -1         3 9.94728E-04 5.70471E-05 0.00000E+00
 -1         4 9.94728E-04 5.70471E-05 0.00000E+00
 -1         5 1.01415E-03 2.47975E-04 0.00000E+00
 -1         6 1.01415E-03 2.47975E-04 0.00000E+00
 -1         7 0.00000E+00 0.00000E+00 0.00000E+00
 -1         8 0.00000E+00 0.00000E+00 0.00000E+00
 -1         9 1.00465E-03 1.78294E-04 0.00000E+00
 -1        10 1.00465E-03 1.78294E-04 0.00000E+00
 -1        11 0.00000E+00 0.00000E+00 0.00000E+00
 -1        12 0.00000E+00 0.00000E+00 0.00000E+00
 -1        13 6.14466E-04 3.29289E-04 0.00000E+00
 -1        14 1.21593E-03 3.39860E-04 0.00000E+00
 -1        15 1.55323E-03 1.87558E-04 0.00000E+00
 -1        16 1.63595E-03 6.18845E-05 0.00000E+00
 -1        17 1.62403E-03 2.29946E-06 0.00000E+00
 -1        18 1.58559E-03-1.88170E-05 0.00000E+00
 -1        19 1.56402E-03-2.38849E-05 0.00000E+00
 -1        20 1.53783E-03-2.15952E-05 0.00000E+00
 -1        21 1.51471E-03-1.98089E-05 0.00000E+00
 -1        22 1.48294E-03-2.30176E-05 0.00000E+00
 -1        23 1.45976E-03-2.65082E-05 0.00000E+00
 -1        24 1.42473E-03-2.52332E-05 0.00000E+00
 -1        25 1.38929E-03-2.22862E-05 0.00000E+00
 -1        26 1.34633E-03-2.10107E-05 0.00000E+00
 -1        27 1.31191E-03-1.72109E-05 0.00000E+00
 -1        28 1.26903E-03-7.18797E-06 0.00000E+00
 -1        29 1.22628E-03 4.75081E-06 0.00000E+00
 -1        30 1.16891E-03 1.57215E-05 0.00000E+00
 -1        31 1.09349E-03 3.47125E-05 0.00000E+00
 -1        32 6.14466E-04 3.29289E-04 0.00000E+00
 -1        33 1.21593E-03 3.39860E-04 0.00000E+00
 -1        34 1.55323E-03 1.87558E-04 0.00000E+00
 -1        35 1.63595E-03 6.18845E-05 0.00000E+00
 -1        36 1.62403E-03 2.29946E-06 0.00000E+00
 -1        37 1.58559E-03-1.88170E-05 0.00000E+00
 -1        38 1.56402E-03-2.38849E-05 0.00000E+00
 -1        39 1.53783E-03-2.15952E-05 0.00000E+00
 -1        40 1.51471E-03-1.98089E-05 0.00000E+00
 -1        41 1.48294E-03-2.30176E-05 0.00000E+00
 -1        42 1.45976E-03-2.65082E-05 0.00000E+00
 -1        43 1.42473E-03-2.52332E-05 0.00000E+00
 -1        44 1.38929E-03-2.22862E-05 0.00000E+00
 -1        45 1.34633E-03-2.10107E-05 0.00000E+00
 -1        46 1.31191E-03-1.72109E-05 0.00000E+00
 -1        47 1.26903E-03-7.18797E-06 0.00000E+00
 -1        48 1.22628E-03 4.75081E-06 0.00000E+00
 -1        49 1.16891E-03 1.57215E-05 0.00000E+00
 -1        50 1.09349E-03 3.47125E-05 0.00000E+00
 -1        51 1.11282E-03 2.15121E-04 0.00000E+00
 -1        52 1.19612E-03 1.65586E-04 0.00000E+00
 -1        53 1.25102E-03 1.22978E-04 0.00000E+00
 -1        54 1.29597E-03 9.67096E-05 0.00000E+00
 -1        55 1.34274E-03 8.07301E-05 0.00000E+00
 -1        56 1.38366E-03 6.70159E-05 0.00000E+00
 -1        57 1.41830E-03 5.62769E-05 0.00000E+00
 -1        58 1.45220E-03 5.06391E-05 0.00000E+00
 -1        59 1.48851E-03 4.56797E-05 0.00000E+00
 -1        60 1.51667E-03 3.77391E-05 0.00000E+00
 -1        61 1.54181E-03 3.10934E-05 0.00000E+00
 -1        62 1.56310E-03 2.98558E-05 0.00000E+00
 -1        63 1.59035E-03 2.92807E-05 0.00000E+00
 -1        64 1.61646E-03 2.13163E-05 0.00000E+00
 -1        65 1.64888E-03-3.18853E-06 0.00000E+00
 -1        66 1.65870E-03-6.70293E-05 0.00000E+00
 -1        67 1.57556E-03-1.96959E-04 0.00000E+00
 -1        68 1.24329E-03-3.50550E-04 0.00000E+00
 -1        69 6.40027E-04-3.38086E-04 0.00000E+00
 -1        70 1.11282E-03 2.15121E-04 0.00000E+00
 -1        71 1.19612E-03 1.65586E-04 0.00000E+00
 -1        72 1.25102E-03 1.22978E-04 0.00000E+00
 -1        73 1.29597E-03 9.67096E-05 0.00000E+00
 -1        74 1.34274E-03 8.07301E-05 0.00000E+00
 -1        75 1.38366E-03 6.70159E-05 0.00000E+00
 -1        76 1.41830E-03 5.62769E-05 0.00000E+00
 -1        77 1.45220E-03 5.06391E-05 0.00000E+00
 -1        78 1.48851E-03 4.56797E-05 0.00000E+00
 -1        79 1.51667E-03 3.77391E-05 0.00000E+00
 -1        80 1.54181E-03 3.10934E-05 0.00000E+00
 -1        81 1.56310E-03 2.98558E-05 0.00000E+00
 -1        82 1.59035E-03 2.92807E-05 0.00000E+00
 -1        83 1.61646E-03 2.13163E-05 0.00000E+00
 -1        84 1.64888E-03-3.18853E-06 0.00000E+00
 -1        85 1.65870E-03-6.70293E-05 0.00000E+00
 -1        86 1.57556E-03-1.96959E-04 0.00000E+00
 -1        87 1.24329E-03-3.50550E-04 0.00000E+00
 -1        88 6.40027E-04-3.38086E-04 0.00000E+00
 -1        89 5.79113E-04 5.22240E-07 0.00000E+00
 -1        90 1.26582E-03-5.91920E-06 0.00000E+00
 -1        91 1.60417E-03-5.58442E-06 0.00000E+00
 -1        92 1.67357E-03-2.23676E-06 0.00000E+00
 -1        93 1.65116E-03 6.93906E-07 0.00000E+00
 -1        94 1.61281E-03 1.49053E-06 0.00000E+00
 -1        95 1.58375E-03 2.01499E-06 0.00000E+00
 -1        96 1.55560E-03 4.31458E-06 0.00000E+00
 -1        97 1.53460E-03 6.82086E-06 0.00000E+00
 -1        98 1.50847E-03 7.65191E-06 0.00000E+00
 -1        99 1.47956E-03 8.88414E-06 0.00000E+00
 -1       100 1.44240E-03 1.29151E-05 0.00000E+00
 -1       101 1.40834E-03 1.84082E-05 0.00000E+00
 -1       102 1.36986E-03 2.34086E-05 0.00000E+00
 -1       103 1.32953E-03 3.07733E-05 0.00000E+00
 -1       104 1.28398E-03 4.45255E-05 0.00000E+00
 -1       105 1.24150E-03 6.46749E-05 0.00000E+00
 -1       106 1.18487E-03 9.16557E-05 0.00000E+00
 -1       107 1.10243E-03 1.29808E-04 0.00000E+00
 -1       108 1.10243E-03 1.29808E-04 0.00000E+00
 -1       109 1.18487E-03 9.16557E-05 0.00000E+00
 -1       110 1.24150E-03 6.46749E-05 0.00000E+00
 -1       111 1.28398E-03 4.45255E-05 0.00000E+00
 -1       112 1.32953E-03 3.07733E-05 0.00000E+00
 -1       113 1.36986E-03 2.34086E-05 0.00000E+00
 -1       114 1.40834E-03 1.84082E-05 0.00000E+00
 -1       115 1.44240E-03 1.29151E-05 0.00000E+00
 -1       116 1.47956E-03 8.88414E-06 0.00000E+00
 -1       117 1.50847E-03 7.65191E-06 0.00000E+00
 -1       118 1.53460E-03 6.82086E-06 0.00000E+00
 -1       119 1.55560E-03 4.31458E-06 0.00000E+00
 -1       120 1.58375E-03 2.01499E-06 0.00000E+00
 -1       121 1.61281E-03 1.49053E-06 0.00000E+00
 -1       122 1.65116E-03 6.93906E-07 0.00000E+00
 -1       123 1.67357E-03-2.23676E-06 0.00000E+00
 -1       124 1.60417E-03-5.58442E-06 0.00000E+00
 -1       125 1.26582E-03-5.91920E-06 0.00000E+00
 -1       126 5.79113E-04 5.22240E-07 0.00000E+00
 -3
    1PSTEP                        10           3           1          
  100CL  103 3.00000E-02         126                     1    3           1
 -4  STRESS      6    1
 -5  SXX         1    4    1    1
 -5  SYY         1    4    2    2
 -5  SZZ         1    4    3    3
 -5  SXY         1    4    1    2
 -5  SYZ         1    4    2    3
 -5  SZX         1    4    3    1
 -1         1 1.57760E+03 3.61320E+03 1.53210E+03 1.93395E+03-6.35039E-11-1.04900E-11
 -1         2 1.57760E+03 3.61320E+03 1.53210E+03 1.93395E+03-6.35039E-11-1.04900E-11
 -1         3 2.11619E+02 2.88426E+02 1.49911E+02 6.92281E+01-9.43032E-08-2.41516E-07
 -1         4 2.11619E+02 2.88426E+02 1.49911E+02 6.92281E+01-9.43032E-08-2.41516E-07
 -1         5 2.55247E+02 3.98973E+02 1.96055E+02-8.95493E+01 6.24347E-08-1.78047E-07
 -1         6 2.55247E+02 3.98973E+02 1.96055E+02-8.95493E+01 6.24347E-08-1.78047E-07
 -1         7-1.49795E+03-3.56956E+03-1.54663E+03 1.92480E+03-9.34156E-11 3.69631E-11
 -1         8-1.49795E+03-3.56956E+03-1.54663E+03 1.92480E+03-9.34156E-11 3.69631E-11
 -1         9 3.29736E+02 5.69153E+02 2.69285E+02-7.40185E+00 4.51603E-09-2.06020E-07
 -1        10 3.29736E+02 5.69153E+02 2.69285E+02-7.40185E+00 4.51604E-09-2.06019E-07
 -1        11 5.78226E+01 3.25787E+01 1.78878E+01 1.78259E+03-8.45231E-11 8.46910E-12
 -1        12 5.78226E+01 3.25787E+01 1.78878E+01 1.78259E+03-8.45231E-11 8.46910E-12
 -1        13 4.50807E+02 1.71418E+03 6.41603E+02 8.72030E+02 5.10877E-09-5.86894E-08
 -1        14 2.43699E+02-5.04010E+02-8.03155E+01 3.79256E+02 4.55273E-08-3.17613E-08
 -1        15-8.31056E+01-1.24850E+03-4.01586E+02 4.89882E+01 7.59618E-08 7.48852E-09
 -1        16-2.13150E+01-8.20473E+02-2.53406E+02-8.87262E+01 7.11520E-08 8.20238E-08
 -1        17 1.06368E+02-3.08649E+02-6.08869E+01-8.23287E+01 3.23941E-08 1.96596E-07
 -1        18 2.33066E+02-1.52162E+01 6.52700E+01-2.97846E+01-1.07190E-08 1.87916E-07
 -1        19 2.06334E+02 7.62107E+01 8.47149E+01 6.25230E+00-3.03427E-08 1.29810E-07
 -1        20 2.00975E+02 1.04048E+02 9.14615E+01 3.88474E+00-4.60440E-08 1.11208E-07
 -1        21 2.11249E+02 8.42760E+01 8.86071E+01-2.47793E+00-6.71605E-08 4.57481E-08
 -1        22 2.59779E+02 8.18595E+01 1.02416E+02 9.89727E+00-6.70898E-08-3.69299E-08
 -1        23 2.08467E+02 7.96474E+01 8.63832E+01 1.94068E+01-5.74589E-08-8.04947E-09
 -1        24 2.00358E+02 1.04494E+02 9.14104E+01 9.01605E+00-2.42758E-08-1.45511E-07
 -1        25 2.15262E+02 1.10892E+02 9.77940E+01 4.64432E+00 1.68903E-08-6.15521E-08
 -1        26 2.65519E+02 1.36173E+02 1.20427E+02 1.77012E+01 3.00994E-08-1.22104E-07
 -1        27 2.22041E+02 1.56076E+02 1.13371E+02 2.87842E+01 2.26478E-08-1.95707E-08
 -1        28 2.12066E+02 1.87639E+02 1.19847E+02 2.74337E+01-8.54718E-09 5.55602E-08
 -1        29 2.17333E+02 1.94136E+02 1.23373E+02 3.04100E+01-4.17830E-08-5.92757E-08
 -1        30 2.41864E+02 2.35856E+02 1.43228E+02 2.94122E+01-7.70098E-08-9.74594E-08
 -1        31 1.92893E+02 2.65191E+02 1.37346E+02 2.46127E+01-8.87472E-08-1.67399E-07
 -1        32 4.50807E+02 1.71418E+03 6.41603E+02 8.72030E+02 5.10877E-09-5.86894E-08
 -1        33 2.43699E+02-5.04010E+02-8.03155E+01 3.79256E+02 4.55273E-08-3.17613E-08
 -1        34-8.31056E+01-1.24850E+03-4.01586E+02 4.89882E+01 7.59618E-08 7.48848E-09
 -1        35-2.13150E+01-8.20473E+02-2.53406E+02-8.87262E+01 7.11520E-08 8.20239E-08
 -1        36 1.06368E+02-3.08649E+02-6.08869E+01-8.23287E+01 3.23941E-08 1.96596E-07
 -1        37 2.33066E+02-1.52162E+01 6.52700E+01-2.97846E+01-1.07190E-08 1.87916E-07
 -1        38 2.06334E+02 7.62107E+01 8.47149E+01 6.25230E+00-3.03427E-08 1.29810E-07
 -1        39 2.00975E+02 1.04048E+02 9.14615E+01 3.88474E+00-4.60440E-08 1.11208E-07
 -1        40 2.11249E+02 8.42760E+01 8.86071E+01-2.47793E+00-6.71605E-08 4.57481E-08
 -1        41 2.59779E+02 8.18595E+01 1.02416E+02 9.89727E+00-6.70898E-08-3.69299E-08
 -1        42 2.08467E+02 7.96474E+01 8.63832E+01 1.94068E+01-5.74589E-08-8.04944E-09
 -1        43 2.00358E+02 1.04494E+02 9.14104E+01 9.01605E+00-2.42758E-08-1.45511E-07
 -1        44 2.15262E+02 1.10892E+02 9.77940E+01 4.64432E+00 1.68903E-08-6.15521E-08
 -1        45 2.65519E+02 1.36173E+02 1.20427E+02 1.77012E+01 3.00994E-08-1.22104E-07
 -1        46 2.22041E+02 1.56076E+02 1.13371E+02 2.87842E+01 2.26478E-08-1.95707E-08
 -1        47 2.12066E+02 1.87639E+02 1.19847E+02 2.74337E+01-8.54718E-09 5.55602E-08
 -1        48 2.17333E+02 1.94136E+02 1.23373E+02 3.04100E+01-4.17830E-08-5.92758E-08
 -1        49 2.41864E+02 2.35856E+02 1.43228E+02 2.94122E+01-7.70098E-08-9.74594E-08
 -1        50 1.92893E+02 2.65191E+02 1.37346E+02 2.46127E+01-8.87472E-08-1.67399E-07
 -1        51 3.03155E+02 4.93245E+02 2.38631E+02-1.76620E+01 8.42672E-08-1.78460E-07
 -1        52 3.34482E+02 5.49507E+02 2.64843E+02 1.47513E+01 8.45370E-08-4.71529E-08
 -1        53 2.61803E+02 4.15625E+02 2.03019E+02 2.57513E+01 4.62583E-08 2.65514E-09
 -1        54 2.27016E+02 2.83347E+02 1.53000E+02 1.94799E+01 5.51911E-09-2.84668E-08
 -1        55 2.11075E+02 2.21227E+02 1.29616E+02 1.88450E+01-2.83147E-08-6.56828E-09
 -1        56 2.05280E+02 1.95631E+02 1.20210E+02 1.79533E+01-4.46121E-08-1.25019E-08
 -1        57 1.45214E+02 1.34345E+02 8.38362E+01 1.10874E+01-3.17625E-08-1.09486E-07
 -1        58 1.30125E+02 1.02461E+02 6.97538E+01 8.07339E+00 6.80263E-09-1.03246E-07
 -1        59 1.26307E+02 1.10948E+02 7.11532E+01 1.40473E+01 3.73456E-08-9.46020E-08
 -1        60 1.22112E+02 1.16526E+02 7.15697E+01 1.05950E+01 4.92439E-08 9.12083E-09
 -1        61 9.58367E+01 7.57706E+01 5.14697E+01 3.25274E+00 4.96772E-08 2.68530E-08
 -1        62 8.50572E+01 4.44676E+01 3.88490E+01 3.92399E+00 4.06810E-08 8.79935E-08
 -1        63 9.08032E+01 7.65148E+01 5.01834E+01 1.81463E+00 3.09976E-08 1.39959E-07
 -1        64 1.14311E+02 1.91831E+02 9.17968E+01-2.91161E+01 1.70292E-08 1.49903E-07
 -1        65 1.79275E+02 4.65827E+02 1.93273E+02-7.71270E+01-2.98662E-08 1.83704E-07
 -1        66 2.87367E+02 9.78244E+02 3.78628E+02-8.63818E+01-7.46079E-08 9.89772E-08
 -1        67 3.54746E+02 1.40760E+03 5.26379E+02 5.29817E+01-7.88169E-08 4.04077E-08
 -1        68 1.15521E+02 6.84774E+02 2.37836E+02 3.79972E+02-4.69832E-08-4.83269E-08
 -1        69-1.02079E+02-1.55657E+03-5.05409E+02 8.58284E+02-5.72923E-09-8.26619E-08
 -1        70 3.03155E+02 4.93245E+02 2.38631E+02-1.76620E+01 8.42672E-08-1.78460E-07
 -1        71 3.34482E+02 5.49508E+02 2.64843E+02 1.47513E+01 8.45370E-08-4.71529E-08
 -1        72 2.61803E+02 4.15625E+02 2.03019E+02 2.57513E+01 4.62583E-08 2.65517E-09
 -1        73 2.27016E+02 2.83347E+02 1.53000E+02 1.94799E+01 5.51911E-09-2.84669E-08
 -1        74 2.11075E+02 2.21227E+02 1.29616E+02 1.88450E+01-2.83147E-08-6.56834E-09
 -1        75 2.05280E+02 1.95631E+02 1.20210E+02 1.79533E+01-4.46121E-08-1.25019E-08
 -1        76 1.45214E+02 1.34345E+02 8.38362E+01 1.10874E+01-3.17625E-08-1.09487E-07
 -1        77 1.30125E+02 1.02461E+02 6.97538E+01 8.07339E+00 6.80263E-09-1.03246E-07
 -1        78 1.26307E+02 1.10948E+02 7.11532E+01 1.40473E+01 3.73456E-08-9.46021E-08
 -1        79 1.22112E+02 1.16526E+02 7.15697E+01 1.05950E+01 4.92439E-08 9.12086E-09
 -1        80 9.58367E+01 7.57706E+01 5.14697E+01 3.25274E+00 4.96772E-08 2.68529E-08
 -1        81 8.50572E+01 4.44676E+01 3.88490E+01 3.92399E+00 4.06810E-08 8.79935E-08
 -1        82 9.08032E+01 7.65148E+01 5.01834E+01 1.81463E+00 3.09976E-08 1.39959E-07
 -1        83 1.14311E+02 1.91831E+02 9.17968E+01-2.91161E+01 1.70292E-08 1.49903E-07
 -1        84 1.79275E+02 4.65827E+02 1.93273E+02-7.71270E+01-2.98662E-08 1.83704E-07
 -1        85 2.87367E+02 9.78244E+02 3.78628E+02-8.63818E+01-7.46078E-08 9.89774E-08
 -1        86 3.54746E+02 1.40760E+03 5.26379E+02 5.29817E+01-7.88169E-08 4.04077E-08
 -1        87 1.15521E+02 6.84774E+02 2.37836E+02 3.79972E+02-4.69832E-08-4.83269E-08
 -1        88-1.02079E+02-1.55657E+03-5.05409E+02 8.58284E+02-5.72923E-09-8.26619E-08
 -1        89 1.78116E+02 5.86738E+01 6.89690E+01 9.21039E+02-7.66099E-10-7.60439E-08
 -1        90 1.73985E+02 5.91364E+01 6.80069E+01 5.14761E+02 7.51604E-09-5.16887E-08
 -1        91 1.38294E+02 7.74877E+01 6.43888E+01 3.56311E+01 5.31951E-09 2.18667E-08
 -1        92 1.37807E+02 8.62263E+01 6.72424E+01-1.26148E+02-4.91473E-09 1.04426E-07
 -1        93 1.42679E+02 7.73379E+01 6.59730E+01-1.01996E+02-7.27836E-09 2.03106E-07
 -1        94 1.69510E+02 7.84047E+01 7.43252E+01-4.19794E+01 3.23304E-09 1.78447E-07
 -1        95 1.48456E+02 7.60574E+01 6.73244E+01-6.20216E+00 3.30529E-09 1.36710E-07
 -1        96 1.47313E+02 8.42821E+01 6.94498E+01 3.55956E+00-4.34528E-09 1.11250E-07
 -1        97 1.53778E+02 8.05887E+01 7.02783E+01 5.81851E+00 2.15473E-10 4.35834E-08
 -1        98 1.86605E+02 8.90548E+01 8.26502E+01 8.83288E+00-1.69168E-08-1.47376E-08
 -1        99 1.67216E+02 9.48687E+01 7.85892E+01 9.45519E+00-1.14323E-08-5.64376E-08
 -1       100 1.70122E+02 1.14864E+02 8.54589E+01 7.18457E+00-4.02515E-09-1.30884E-07
 -1       101 1.80680E+02 1.23655E+02 9.12584E+01 9.29207E+00 2.93989E-09-9.74174E-08
 -1       102 2.29872E+02 1.52973E+02 1.14787E+02 1.42260E+01-3.94845E-11-5.92629E-08
 -1       103 2.15090E+02 1.85196E+02 1.20020E+02 1.85956E+01-2.60029E-08-2.96103E-09
 -1       104 2.23682E+02 2.45166E+02 1.40565E+02 2.44510E+01 4.77634E-09 2.16295E-08
 -1       105 2.42422E+02 3.11497E+02 1.66048E+02 2.94340E+01 1.87344E-08-8.08840E-09
 -1       106 2.97615E+02 4.14628E+02 2.13457E+02 1.65540E+01-3.66866E-09-6.46990E-08
 -1       107 3.05171E+02 5.12900E+02 2.45122E+02 8.91509E-02 1.86876E-09-1.74550E-07
 -1       108 3.05171E+02 5.12900E+02 2.45122E+02 8.91510E-02 1.86875E-09-1.74550E-07
 -1       109 2.97615E+02 4.14628E+02 2.13457E+02 1.65540E+01-3.66867E-09-6.46990E-08
 -1       110 2.42422E+02 3.11497E+02 1.66048E+02 2.94340E+01 1.87344E-08-8.08846E-09
 -1       111 2.23682E+02 2.45166E+02 1.40565E+02 2.44510E+01 4.77634E-09 2.16295E-08
 -1       112 2.15090E+02 1.85196E+02 1.20020E+02 1.85956E+01-2.60029E-08-2.96104E-09
 -1       113 2.29872E+02 1.52973E+02 1.14787E+02 1.42260E+01-3.94856E-11-5.92629E-08
 -1       114 1.80680E+02 1.23655E+02 9.12584E+01 9.29207E+00 2.93989E-09-9.74174E-08
 -1       115 1.70122E+02 1.14864E+02 8.54589E+01 7.18457E+00-4.02515E-09-1.30884E-07
 -1       116 1.67216E+02 9.48687E+01 7.85892E+01 9.45519E+00-1.14323E-08-5.64376E-08
 -1       117 1.86605E+02 8.90548E+01 8.26502E+01 8.83288E+00-1.69168E-08-1.47376E-08
 -1       118 1.53778E+02 8.05887E+01 7.02783E+01 5.81851E+00 2.15473E-10 4.35834E-08
 -1       119 1.47313E+02 8.42821E+01 6.94498E+01 3.55956E+00-4.34528E-09 1.11250E-07
 -1       120 1.48456E+02 7.60574E+01 6.73244E+01-6.20216E+00 3.30529E-09 1.36710E-07
 -1       121 1.69510E+02 7.84047E+01 7.43252E+01-4.19794E+01 3.23304E-09 1.78447E-07
 -1       122 1.42679E+02 7.73379E+01 6.59730E+01-1.01996E+02-7.27836E-09 2.03106E-07
 -1       123 1.37807E+02 8.62263E+01 6.72424E+01-1.26148E+02-4.91474E-09 1.04426E-07
 -1       124 1.38294E+02 7.74877E+01 6.43888E+01 3.56311E+01 5.31951E-09 2.18668E-08
 -1       125 1.73985E+02 5.91364E+01 6.80069E+01 5.14761E+02 7.51603E-09-5.16887E-08
 -1       126 1.78116E+02 5.86738E+01 6.89690E+01 9.21039E+02-7.66099E-10-7.60439E-08
 -3
    1PSTEP                        11           3           1          
  100CL  103 3.00000E-02         126                     1    3           1
 -4  TOSTRAIN    6    1
 -5  EXX         1    4    1    1
 -5  EYY         1    4    2    2
 -5  EZZ         1    4    3    3
 -5  EXY         1    4    1    2
 -5  EYZ         1    4    2    3
 -5  EZX         1    4    3    1
 -1         1-3.63287E-06 6.67918E-03-1.20399E-26 6.14447E-03-3.36824E-20 6.81433E-19
 -1         2-3.63287E-06 6.67918E-03-1.20399E-26 6.14447E-03-3.36824E-20 6.81433E-19
 -1         3 2.01296E-04 4.48693E-04 1.36004E-24 2.25179E-04-3.04326E-13-7.85114E-13
 -1         4 2.01296E-04 4.48693E-04 1.36004E-24 2.25179E-04-3.04326E-13-7.85114E-13
 -1         5 1.91074E-04 6.59202E-04 7.34906E-25-2.89629E-04 2.03484E-13-5.77897E-13
 -1         6 1.91074E-04 6.59202E-04 7.34907E-25-2.89629E-04 2.03484E-13-5.77898E-13
 -1         7-3.96634E-06-6.66072E-03-2.40429E-26 6.40009E-03 1.27539E-19 3.95369E-17
 -1         8-3.96634E-06-6.66072E-03-2.40429E-26 6.40009E-03 1.27539E-19 3.95369E-17
 -1         9 1.96185E-04 9.72047E-04 8.66302E-25-2.24872E-05 1.59423E-14-6.69011E-13
 -1        10 1.96185E-04 9.72047E-04 8.66301E-25-2.24872E-05 1.59423E-14-6.69010E-13
 -1        11-3.79961E-06 7.37223E-05-2.02106E-26 5.79094E-03 5.37965E-20 1.35599E-17
 -1        12-3.79961E-06 7.37223E-05-2.02106E-26 5.79094E-03 5.37965E-20 1.35599E-17
 -1        13-6.87134E-04 3.48136E-03 6.23894E-26 2.77637E-03 1.53956E-14-1.90741E-13
 -1        14 1.02169E-03-1.36791E-03 5.15282E-26 1.24554E-03 1.47472E-13-1.04527E-13
 -1        15 1.02597E-03-2.76440E-03 9.24158E-26 1.76189E-04 2.47793E-13 2.33014E-14
 -1        16 7.53117E-04-1.85026E-03 1.92558E-25-2.85745E-04 2.32117E-13 2.66361E-13
 -1        17 5.42734E-04-8.06510E-04 8.03947E-25-2.67961E-04 1.05412E-13 6.38721E-13
 -1        18 5.44530E-04-2.61606E-04 7.36649E-25-9.71890E-05-3.50883E-14 6.10289E-13
 -1        19 3.94901E-04-2.76660E-05 3.63182E-25 2.00921E-05-9.88165E-14 4.21594E-13
 -1        20 3.55609E-04 4.08808E-05 2.90316E-25 1.24542E-05-1.49794E-13 3.61152E-13
 -1        21 3.98181E-04-1.40691E-05 1.03512E-25-8.27314E-06-2.18312E-13 1.48472E-13
 -1        22 5.10830E-04-6.68361E-05 1.01295E-25 3.17946E-05-2.17932E-13-1.20059E-13
 -1        23 3.96447E-04-2.19795E-05 2.14371E-26 6.27492E-05-1.86691E-13-2.62561E-14
 -1        24 3.53802E-04 4.24661E-05 4.08648E-25 2.90446E-05-7.85167E-14-4.72701E-13
 -1        25 3.81420E-04 4.25329E-05 6.26070E-26 1.48075E-05 5.50417E-14-1.99885E-13
 -1        26 4.71069E-04 5.10535E-05 2.94678E-25 5.71008E-05 9.81441E-14-3.96479E-13
 -1        27 3.52984E-04 1.38533E-04-1.79813E-26 9.32538E-05 7.36390E-14-6.35137E-14
 -1        28 2.99608E-04 2.19995E-04 2.98753E-26 8.89679E-05-2.79537E-14 1.80443E-13
 -1        29 3.05277E-04 2.29614E-04 6.18772E-26 9.86169E-05-1.35493E-13-1.92669E-13
 -1        30 3.20489E-04 3.00534E-04 2.89632E-25 9.54245E-05-2.49638E-13-3.16871E-13
 -1        31 1.80640E-04 4.14844E-04 7.10539E-25 8.03004E-05-2.87173E-13-5.44287E-13
 -1        32-6.87134E-04 3.48136E-03 6.23894E-26 2.77637E-03 1.53956E-14-1.90741E-13
 -1        33 1.02169E-03-1.36791E-03 5.15282E-26 1.24554E-03 1.47472E-13-1.04527E-13
 -1        34 1.02597E-03-2.76440E-03 9.24157E-26 1.76189E-04 2.47793E-13 2.33013E-14
 -1        35 7.53117E-04-1.85026E-03 1.92558E-25-2.85745E-04 2.32117E-13 2.66361E-13
 -1        36 5.42734E-04-8.06510E-04 8.03947E-25-2.67961E-04 1.05412E-13 6.38721E-13
 -1        37 5.44530E-04-2.61606E-04 7.36649E-25-9.71890E-05-3.50883E-14 6.10288E-13
 -1        38 3.94901E-04-2.76660E-05 3.63183E-25 2.00921E-05-9.88165E-14 4.21595E-13
 -1        39 3.55609E-04 4.08808E-05 2.90316E-25 1.24542E-05-1.49794E-13 3.61152E-13
 -1        40 3.98181E-04-1.40691E-05 1.03512E-25-8.27314E-06-2.18312E-13 1.48472E-13
 -1        41 5.10830E-04-6.68361E-05 1.01295E-25 3.17946E-05-2.17932E-13-1.20059E-13
 -1        42 3.96447E-04-2.19795E-05 2.14370E-26 6.27492E-05-1.86691E-13-2.62560E-14
 -1        43 3.53802E-04 4.24661E-05 4.08648E-25 2.90446E-05-7.85167E-14-4.72701E-13
 -1        44 3.81420E-04 4.25329E-05 6.26072E-26 1.48075E-05 5.50417E-14-1.99885E-13
 -1        45 4.71069E-04 5.10535E-05 2.94678E-25 5.71008E-05 9.81441E-14-3.96479E-13
 -1        46 3.52984E-04 1.38533E-04-1.79814E-26 9.32538E-05 7.36390E-14-6.35137E-14
 -1        47 2.99608E-04 2.19995E-04 2.98753E-26 8.89679E-05-2.79537E-14 1.80443E-13
 -1        48 3.05277E-04 2.29614E-04 6.18773E-26 9.86169E-05-1.35493E-13-1.92669E-13
 -1        49 3.20489E-04 3.00534E-04 2.89632E-25 9.54245E-05-2.49638E-13-3.16871E-13
 -1        50 1.80640E-04 4.14844E-04 7.10539E-25 8.03004E-05-2.87173E-13-5.44287E-13
 -1        51 2.09279E-04 8.25873E-04 7.66402E-25-5.62117E-05 2.74479E-13-5.79075E-13
 -1        52 2.26149E-04 9.22816E-04 1.32845E-25 4.88371E-05 2.74568E-13-1.52743E-13
 -1        53 1.91052E-04 6.89488E-04 3.29767E-26 8.40773E-05 1.50162E-13 8.77290E-15
 -1        54 2.40473E-04 4.22977E-04 3.37371E-27 6.33785E-05 1.80205E-14-9.24494E-14
 -1        55 2.64629E-04 2.97356E-04 1.62690E-26 6.11927E-05-9.19487E-14-2.14158E-14
 -1        56 2.76338E-04 2.44840E-04 1.55499E-26 5.82522E-05-1.44882E-13-4.07152E-14
 -1        57 1.99412E-04 1.64011E-04 2.52059E-25 3.59792E-05-1.02922E-13-3.55764E-13
 -1        58 1.96137E-04 1.06220E-04 2.21141E-25 2.61531E-05 2.23558E-14-3.35417E-13
 -1        59 1.79209E-04 1.29216E-04 1.86806E-25 4.55806E-05 1.21564E-13-3.07277E-13
 -1        60 1.64218E-04 1.46011E-04 1.75962E-26 3.43987E-05 1.59979E-13 2.97192E-14
 -1        61 1.44144E-04 7.89432E-05 5.10429E-26 1.05389E-05 1.61379E-13 8.73250E-14
 -1        62 1.50128E-04 1.82457E-05 1.78036E-25 1.26811E-05 1.32053E-13 2.85976E-13
 -1        63 1.31972E-04 8.55398E-05 4.26281E-25 5.87021E-06 1.00476E-13 4.54813E-13
 -1        64 7.30367E-05 3.24913E-04 4.71425E-25-9.43727E-05 5.51226E-14 4.87082E-13
 -1        65-4.57196E-05 8.83943E-04 7.07079E-25-2.50028E-04-9.68830E-14 5.96773E-13
 -1        66-2.96941E-04 1.94012E-03 2.84850E-25-2.82645E-04-2.41430E-13 3.21686E-13
 -1        67-5.65346E-04 2.85025E-03 1.17296E-25 1.56648E-04-2.54713E-13 1.32319E-13
 -1        68-4.27186E-04 1.46053E-03 6.51612E-26 1.22430E-03-1.53455E-13-1.55614E-13
 -1        69 1.23985E-03-3.41871E-03 1.27874E-25 2.84969E-03-2.03503E-14-2.68413E-13
 -1        70 2.09279E-04 8.25873E-04 7.66402E-25-5.62117E-05 2.74479E-13-5.79075E-13
 -1        71 2.26149E-04 9.22816E-04 1.32845E-25 4.88371E-05 2.74568E-13-1.52743E-13
 -1        72 1.91052E-04 6.89488E-04 3.29767E-26 8.40773E-05 1.50162E-13 8.77300E-15
 -1        73 2.40473E-04 4.22977E-04 3.37377E-27 6.33785E-05 1.80205E-14-9.24497E-14
 -1        74 2.64629E-04 2.97356E-04 1.62691E-26 6.11927E-05-9.19488E-14-2.14160E-14
 -1        75 2.76338E-04 2.44840E-04 1.55498E-26 5.82522E-05-1.44882E-13-4.07152E-14
 -1        76 1.99412E-04 1.64011E-04 2.52059E-25 3.59792E-05-1.02922E-13-3.55764E-13
 -1        77 1.96137E-04 1.06220E-04 2.21140E-25 2.61531E-05 2.23558E-14-3.35416E-13
 -1        78 1.79209E-04 1.29216E-04 1.86806E-25 4.55806E-05 1.21564E-13-3.07277E-13
 -1        79 1.64218E-04 1.46011E-04 1.75962E-26 3.43987E-05 1.59979E-13 2.97193E-14
 -1        80 1.44144E-04 7.89432E-05 5.10428E-26 1.05389E-05 1.61379E-13 8.73246E-14
 -1        81 1.50128E-04 1.82457E-05 1.78036E-25 1.26811E-05 1.32053E-13 2.85976E-13
 -1        82 1.31972E-04 8.55398E-05 4.26281E-25 5.87021E-06 1.00476E-13 4.54813E-13
 -1        83 7.30367E-05 3.24913E-04 4.71424E-25-9.43727E-05 5.51226E-14 4.87082E-13
 -1        84-4.57196E-05 8.83943E-04 7.07080E-25-2.50028E-04-9.68830E-14 5.96773E-13
 -1        85-2.96941E-04 1.94012E-03 2.84851E-25-2.82645E-04-2.41430E-13 3.21686E-13
 -1        86-5.65346E-04 2.85025E-03 1.17296E-25 1.56648E-04-2.54713E-13 1.32319E-13
 -1        87-4.27186E-04 1.46053E-03 6.51612E-26 1.22430E-03-1.53455E-13-1.55614E-13
 -1        88 1.23985E-03-3.41871E-03 1.27874E-25 2.84969E-03-2.03503E-14-2.68413E-13
 -1        89 2.76359E-04 1.94863E-05 1.10525E-25 2.99390E-03-3.98770E-15-2.46985E-13
 -1        90 2.97254E-04-2.97016E-06 3.95193E-26 1.67475E-03 2.32695E-14-1.68152E-13
 -1        91 2.30310E-04 4.80876E-05-3.25914E-26 1.16547E-04 1.75001E-14 7.09805E-14
 -1        92 2.28088E-04 6.29740E-05 1.82324E-25-4.09545E-04-1.55544E-14 3.39270E-13
 -1        93 2.48507E-04 3.73949E-05 8.49858E-25-3.31313E-04-2.36057E-14 6.59821E-13
 -1        94 3.08783E-04 1.34314E-05 6.66260E-25-1.36477E-04 1.02717E-14 5.79685E-13
 -1        95 2.63437E-04 2.84023E-05 3.87222E-25-2.02704E-05 1.05043E-14 4.44131E-13
 -1        96 2.52869E-04 4.81815E-05 2.44884E-25 1.14560E-05-1.43055E-14 3.61410E-13
 -1        97 2.71162E-04 3.34843E-05 1.32135E-26 1.87743E-05 6.28708E-16 1.41586E-13
 -1        98 3.37524E-04 2.07821E-05-1.12287E-26 2.84966E-05-5.49374E-14-4.79024E-14
 -1        99 2.87828E-04 5.28517E-05 4.52624E-26 3.05460E-05-3.70134E-14-1.83363E-13
 -1       100 2.74970E-04 9.54953E-05 3.49771E-25 2.31948E-05-1.27555E-14-4.25186E-13
 -1       101 2.90416E-04 1.05200E-04 1.93813E-25 3.00271E-05 9.80036E-15-3.16445E-13
 -1       102 3.73704E-04 1.23963E-04 5.18295E-26 4.59691E-05 4.07287E-17-1.92484E-13
 -1       103 3.08807E-04 2.11554E-04 2.53632E-27 6.02732E-05-8.44597E-14-9.69101E-15
 -1       104 2.70040E-04 3.39449E-04 2.26440E-27 7.94068E-05 1.54399E-14 7.02679E-14
 -1       105 2.48165E-04 4.71893E-04-9.54154E-27 9.57486E-05 6.08696E-14-2.62093E-14
 -1       106 2.73319E-04 6.52516E-04 3.62165E-26 5.42669E-05-1.15892E-14-2.10129E-13
 -1       107 1.94959E-04 8.68353E-04 5.93960E-25 1.52667E-06 7.09196E-15-5.66863E-13
 -1       108 1.94959E-04 8.68353E-04 5.93960E-25 1.52668E-06 7.09194E-15-5.66862E-13
 -1       109 2.73319E-04 6.52516E-04 3.62166E-26 5.42669E-05-1.15892E-14-2.10129E-13
 -1       110 2.48165E-04 4.71893E-04-9.54149E-27 9.57486E-05 6.08696E-14-2.62094E-14
 -1       111 2.70040E-04 3.39449E-04 2.26435E-27 7.94068E-05 1.54399E-14 7.02678E-14
 -1       112 3.08807E-04 2.11554E-04 2.53634E-27 6.02732E-05-8.44597E-14-9.69104E-15
 -1       113 3.73704E-04 1.23963E-04 5.18296E-26 4.59691E-05 4.07251E-17-1.92484E-13
 -1       114 2.90416E-04 1.05200E-04 1.93813E-25 3.00271E-05 9.80036E-15-3.16445E-13
 -1       115 2.74970E-04 9.54953E-05 3.49771E-25 2.31948E-05-1.27555E-14-4.25186E-13
 -1       116 2.87828E-04 5.28517E-05 4.52624E-26 3.05460E-05-3.70134E-14-1.83363E-13
 -1       117 3.37524E-04 2.07821E-05-1.12287E-26 2.84966E-05-5.49374E-14-4.79024E-14
 -1       118 2.71162E-04 3.34843E-05 1.32135E-26 1.87743E-05 6.28708E-16 1.41586E-13
 -1       119 2.52869E-04 4.81815E-05 2.44884E-25 1.14560E-05-1.43055E-14 3.61410E-13
 -1       120 2.63437E-04 2.84023E-05 3.87222E-25-2.02704E-05 1.05043E-14 4.44131E-13
 -1       121 3.08783E-04 1.34314E-05 6.66261E-25-1.36477E-04 1.02717E-14 5.79685E-13
 -1       122 2.48507E-04 3.73949E-05 8.49859E-25-3.31313E-04-2.36057E-14 6.59822E-13
 -1       123 2.28088E-04 6.29740E-05 1.82324E-25-4.09545E-04-1.55544E-14 3.39269E-13
 -1       124 2.30310E-04 4.80876E-05-3.25912E-26 1.16547E-04 1.75001E-14 7.09808E-14
 -1       125 2.97254E-04-2.97016E-06 3.95193E-26 1.67475E-03 2.32695E-14-1.68152E-13
 -1       126 2.76359E-04 1.94863E-05 1.10525E-25 2.99390E-03-3.98770E-15-2.46985E-13
 -3
    1PSTEP                        12           3           1          
  100CL  103 3.00000E-02         126                     1    3           1
 -4  ERROR       1    1
 -5  STR(%)      1    1    0    0
 -1         1 4.57033E+01
 -1         2 4.57033E+01
 -1         3 2.07987E+01
 -1         4 2.07987E+01
 -1         5 7.61615E+00
 -1         6 7.61615E+00
 -1         7 4.98124E+01
 -1         8 4.98124E+01
 -1         9 2.07987E+01
 -1        10 2.07987E+01
 -1        11 4.98124E+01
 -1        12 4.98124E+01
 -1        13 4.57033E+01
 -1        14 6.89518E+01
 -1        15 6.95295E+01
 -1        16 6.95295E+01
 -1        17 5.46030E+01
 -1        18 1.52944E+01
 -1        19 1.12464E+01
 -1        20 2.33295E+00
 -1        21 6.40122E+00
 -1        22 6.40122E+00
 -1        23 5.45498E+00
 -1        24 2.87094E+00
 -1        25 4.72290E+00
 -1        26 4.72290E+00
 -1        27 4.31630E+00
 -1        28 6.45669E+00
 -1        29 1.77433E+01
 -1        30 1.77433E+01
 -1        31 2.07987E+01
 -1        32 4.57033E+01
 -1        33 6.89518E+01
 -1        34 6.95295E+01
 -1        35 6.95295E+01
 -1        36 5.46030E+01
 -1        37 1.52944E+01
 -1        38 1.12464E+01
 -1        39 2.33295E+00
 -1        40 6.40122E+00
 -1        41 6.40122E+00
 -1        42 5.45498E+00
 -1        43 2.87094E+00
 -1        44 4.72290E+00
 -1        45 4.72290E+00
 -1        46 4.31630E+00
 -1        47 6.45669E+00
 -1        48 1.77433E+01
 -1        49 1.77433E+01
 -1        50 2.07987E+01
 -1        51 7.61615E+00
 -1        52 1.12327E+01
 -1        53 1.12327E+01
 -1        54 3.14984E+00
 -1        55 4.18983E+00
 -1        56 1.39901E+01
 -1        57 1.39901E+01
 -1        58 2.03814E+00
 -1        59 1.36891E+01
 -1        60 1.36891E+01
 -1        61 1.14628E+01
 -1        62 4.06008E+00
 -1        63 1.55881E+01
 -1        64 3.35259E+01
 -1        65 4.54492E+01
 -1        66 5.67320E+01
 -1        67 5.89936E+01
 -1        68 5.89936E+01
 -1        69 4.98124E+01
 -1        70 7.61615E+00
 -1        71 1.12327E+01
 -1        72 1.12327E+01
 -1        73 3.14984E+00
 -1        74 4.18983E+00
 -1        75 1.39901E+01
 -1        76 1.39901E+01
 -1        77 2.03814E+00
 -1        78 1.36891E+01
 -1        79 1.36891E+01
 -1        80 1.14628E+01
 -1        81 4.06008E+00
 -1        82 1.55881E+01
 -1        83 3.35259E+01
 -1        84 4.54492E+01
 -1        85 5.67320E+01
 -1        86 5.89936E+01
 -1        87 5.89936E+01
 -1        88 4.98124E+01
 -1        89 4.98124E+01
 -1        90 6.89518E+01
 -1        91 6.95295E+01
 -1        92 6.95295E+01
 -1        93 5.46030E+01
 -1        94 3.35259E+01
 -1        95 1.55881E+01
 -1        96 4.06008E+00
 -1        97 1.14628E+01
 -1        98 1.36891E+01
 -1        99 1.36891E+01
 -1       100 2.87094E+00
 -1       101 1.39901E+01
 -1       102 1.39901E+01
 -1       103 4.31630E+00
 -1       104 6.45669E+00
 -1       105 1.77433E+01
 -1       106 1.77433E+01
 -1       107 2.07987E+01
 -1       108 2.07987E+01
 -1       109 1.77433E+01
 -1       110 1.77433E+01
 -1       111 6.45669E+00
 -1       112 4.31630E+00
 -1       113 1.39901E+01
 -1       114 1.39901E+01
 -1       115 2.87094E+00
 -1       116 1.36891E+01
 -1       117 1.36891E+01
 -1       118 1.14628E+01
 -1       119 4.06008E+00
 -1       120 1.55881E+01
 -1       121 3.35259E+01
 -1       122 5.46030E+01
 -1       123 6.95295E+01
 -1       124 6.95295E+01
 -1       125 6.89518E+01
 -1       126 4.98124E+01
 -3
    1PSTEP                        13           4           1          
  100CL  104 4.00000E-02         126                     1    4           1
 -4  DISP        4    1
 -5  D1          1    2    1    0
 -5  D2          1    2    2    0
 -5  D3          1    2    3    0
 -5  ALL         1    2    0    0    1ALL
 -1         1 0.00000E+00 0.00000E+00 0.00000E+00
 -1         2 0.00000E+00 0.00000E+00 0.00000E+00
 -1         3 1.74900E-03 1.55804E-04 0.00000E+00
 -1         4 1.74900E-03 1.55804E-04 0.00000E+00
 -1         5 1.72934E-03 3.68453E-04 0.00000E+00
 -1         6 1.72934E-03 3.68453E-04 0.00000E+00
 -1         7 0.00000E+00 0.00000E+00 0.00000E+00
 -1         8 0.00000E+00 0.00000E+00 0.00000E+00
 -1         9 1.73116E-03 2.81406E-04 0.00000E+00
 -1        10 1.73116E-03 2.81406E-04 0.00000E+00
 -1        11 0.00000E+00 0.00000E+00 0.00000E+00
 -1        12 0.00000E+00 0.00000E+00 0.00000E+00
 -1        13 6.33046E-04 4.47159E-04 0.00000E+00
 -1        14 1.46265E-03 6.14818E-04 0.00000E+00
 -1        15 2.22243E-03 4.84592E-04 0.00000E+00
 -1        16 2.60167E-03 2.38691E-04 0.00000E+00
 -1        17 2.65952E-03 5.43744E-05 0.00000E+00
 -1        18 2.60804E-03-2.07967E-05 0.00000E+00
 -1        19 2.53862E-03-3.41376E-05 0.00000E+00
 -1        20 2.49576E-03-3.47529E-05 0.00000E+00
 -1        21 2.44797E-03-3.27468E-05 0.00000E+00
 -1        22 2.41315E-03-2.40768E-05 0.00000E+00
 -1        23 2.37103E-03-1.64605E-05 0.00000E+00
 -1        24 2.33516E-03-1.52226E-05 0.00000E+00
 -1        25 2.28240E-03-9.59190E-06 0.00000E+00
 -1        26 2.23816E-03 8.44248E-06 0.00000E+00
 -1        27 2.18903E-03 3.00410E-05 0.00000E+00
 -1        28 2.14442E-03 4.72142E-05 0.00000E+00
 -1        29 2.07424E-03 6.69183E-05 0.00000E+00
 -1        30 1.98322E-03 9.64995E-05 0.00000E+00
 -1        31 1.87071E-03 1.28609E-04 0.00000E+00
 -1        32 6.33046E-04 4.47159E-04 0.00000E+00
 -1        33 1.46265E-03 6.14818E-04 0.00000E+00
 -1        34 2.22243E-03 4.84592E-04 0.00000E+00
 -1        35 2.60167E-03 2.38691E-04 0.00000E+00
 -1        36 2.65952E-03 5.43744E-05 0.00000E+00
 -1        37 2.60804E-03-2.07967E-05 0.00000E+00
 -1        38 2.53862E-03-3.41376E-05 0.00000E+00
 -1        39 2.49576E-03-3.47529E-05 0.00000E+00
 -1        40 2.44797E-03-3.27468E-05 0.00000E+00
 -1        41 2.41315E-03-2.40768E-05 0.00000E+00
 -1        42 2.37103E-03-1.64605E-05 0.00000E+00
 -1        43 2.33516E-03-1.52226E-05 0.00000E+00
 -1        44 2.28240E-03-9.59190E-06 0.00000E+00
 -1        45 2.23816E-03 8.44248E-06 0.00000E+00
 -1        46 2.18903E-03 3.00410E-05 0.00000E+00
 -1        47 2.14442E-03 4.72142E-05 0.00000E+00
 -1        48 2.07424E-03 6.69183E-05 0.00000E+00
 -1        49 1.98322E-03 9.64995E-05 0.00000E+00
 -1        50 1.87071E-03 1.28609E-04 0.00000E+00
 -1        51 1.83565E-03 3.42855E-04 0.00000E+00
 -1        52 1.93582E-03 2.98243E-04 0.00000E+00
 -1        53 2.02886E-03 2.43368E-04 0.00000E+00
 -1        54 2.10554E-03 1.85859E-04 0.00000E+00
 -1        55 2.15690E-03 1.41254E-04 0.00000E+00
 -1        56 2.20660E-03 1.17192E-04 0.00000E+00
 -1        57 2.25601E-03 1.02011E-04 0.00000E+00
 -1        58 2.31086E-03 8.29129E-05 0.00000E+00
 -1        59 2.34879E-03 6.59769E-05 0.00000E+00
 -1        60 2.38753E-03 6.08503E-05 0.00000E+00
 -1        61 2.42669E-03 5.97859E-05 0.00000E+00
 -1        62 2.47418E-03 5.30104E-05 0.00000E+00
 -1        63 2.51754E-03 4.44535E-05 0.00000E+00
 -1        64 2.58212E-03 2.43114E-05 0.00000E+00
 -1        65 2.63762E-03-5.76896E-05 0.00000E+00
 -1        66 2.57725E-03-2.48723E-04 0.00000E+00
 -1        67 2.19557E-03-4.97144E-04 0.00000E+00
 -1        68 1.42963E-03-6.22805E-04 0.00000E+00
 -1        69 5.99280E-04-4.48562E-04 0.00000E+00
 -1        70 1.83565E-03 3.42855E-04 0.00000E+00
 -1        71 1.93582E-03 2.98243E-04 0.00000E+00
 -1        72 2.02886E-03 2.43368E-04 0.00000E+00
 -1        73 2.10554E-03 1.85859E-04 0.00000E+00
 -1        74 2.15690E-03 1.41254E-04 0.00000E+00
 -1        75 2.20660E-03 1.17192E-04 0.00000E+00
 -1        76 2.25601E-03 1.02011E-04 0.00000E+00
 -1        77 2.31086E-03 8.29129E-05 0.00000E+00
 -1        78 2.34879E-03 6.59769E-05 0.00000E+00
 -1        79 2.38753E-03 6.08503E-05 0.00000E+00
 -1        80 2.42669E-03 5.97859E-05 0.00000E+00
 -1        81 2.47418E-03 5.30104E-05 0.00000E+00
 -1        82 2.51754E-03 4.44535E-05 0.00000E+00
 -1        83 2.58212E-03 2.43114E-05 0.00000E+00
 -1        84 2.63762E-03-5.76896E-05 0.00000E+00
 -1        85 2.57725E-03-2.48723E-04 0.00000E+00
 -1        86 2.19557E-03-4.97144E-04 0.00000E+00
 -1        87 1.42963E-03-6.22805E-04 0.00000E+00
 -1        88 5.99280E-04-4.48562E-04 0.00000E+00
 -1        89 5.00077E-04-7.44731E-07 0.00000E+00
 -1        90 1.42555E-03-3.20350E-06 0.00000E+00
 -1        91 2.23788E-03-7.07076E-06 0.00000E+00
 -1        92 2.62367E-03-5.25885E-06 0.00000E+00
 -1        93 2.65945E-03-1.78399E-06 0.00000E+00
 -1        94 2.57874E-03 1.84307E-06 0.00000E+00
 -1        95 2.51277E-03 5.49874E-06 0.00000E+00
 -1        96 2.46992E-03 9.09349E-06 0.00000E+00
 -1        97 2.42078E-03 1.31465E-05 0.00000E+00
 -1        98 2.37614E-03 1.81984E-05 0.00000E+00
 -1        99 2.34510E-03 2.46904E-05 0.00000E+00
 -1       100 2.31006E-03 3.32802E-05 0.00000E+00
 -1       101 2.25445E-03 4.53103E-05 0.00000E+00
 -1       102 2.20022E-03 6.18807E-05 0.00000E+00
 -1       103 2.16013E-03 8.43509E-05 0.00000E+00
 -1       104 2.11539E-03 1.14523E-04 0.00000E+00
 -1       105 2.04136E-03 1.53625E-04 0.00000E+00
 -1       106 1.94372E-03 1.98538E-04 0.00000E+00
 -1       107 1.84249E-03 2.40966E-04 0.00000E+00
 -1       108 1.84249E-03 2.40966E-04 0.00000E+00
 -1       109 1.94372E-03 1.98538E-04 0.00000E+00
 -1       110 2.04136E-03 1.53625E-04 0.00000E+00
 -1       111 2.11539E-03 1.14523E-04 0.00000E+00
 -1       112 2.16013E-03 8.43509E-05 0.00000E+00
 -1       113 2.20022E-03 6.18807E-05 0.00000E+00
 -1       114 2.25445E-03 4.53103E-05 0.00000E+00
 -1       115 2.31006E-03 3.32802E-05 0.00000E+00
 -1       116 2.34510E-03 2.46904E-05 0.00000E+00
 -1       117 2.37614E-03 1.81984E-05 0.00000E+00
 -1       118 2.42078E-03 1.31465E-05 0.00000E+00
 -1       119 2.46992E-03 9.09349E-06 0.00000E+00
 -1       120 2.51277E-03 5.49874E-06 0.00000E+00
 -1       121 2.57874E-03 1.84307E-06 0.00000E+00
 -1       122 2.65945E-03-1.78399E-06 0.00000E+00
 -1       123 2.62367E-03-5.25885E-06 0.00000E+00
 -1       124 2.23788E-03-7.07076E-06 0.00000E+00
 -1       125 1.42555E-03-3.20350E-06 0.00000E+00
 -1       126 5.00077E-04-7.44731E-07 0.00000E+00
 -3
    1PSTEP                        14           4           1          
  100CL  104 4.00000E-02         126                     1    4           1
 -4  STRESS      6    1
 -5  SXX         1    4    1    1
 -5  SYY         1    4    2    2
 -5  SZZ         1    4    3    3
 -5  SXY         1    4    1    2
 -5  SYZ         1    4    2    3
 -5  SZX         1    4    3    1
 -1         1 2.11911E+03 4.90697E+03 2.07294E+03 2.00521E+03 9.69546E-11 1.04934E-10
 -1         2 2.11911E+03 4.90697E+03 2.07294E+03 2.00521E+03 9.69546E-11 1.04934E-10
 -1         3-6.41875E+01 2.13162E+02 4.46160E+01 1.16194E+01 1.70539E-08-7.34874E-08
 -1         4-6.41875E+01 2.13162E+02 4.46160E+01 1.16194E+01 1.70539E-08-7.34873E-08
 -1         5 1.00113E+02 2.68822E+02 1.10593E+02-5.95181E+01-9.73198E-09-1.37541E-07
 -1         6 1.00113E+02 2.68822E+02 1.10593E+02-5.95181E+01-9.73198E-09-1.37541E-07
 -1         7-2.02185E+03-4.74381E+03-2.06287E+03 1.78983E+03 1.00500E-10-8.53236E-11
 -1         8-2.02185E+03-4.74381E+03-2.06287E+03 1.78983E+03 1.00500E-10-8.53236E-11
 -1         9 8.26924E+01 3.92531E+02 1.42370E+02-1.58156E+01-1.96764E-08-1.17902E-07
 -1        10 8.26924E+01 3.92531E+02 1.42370E+02-1.58156E+01-1.96764E-08-1.17902E-07
 -1        11 3.56979E+01 2.30790E+00 8.10562E+00 1.53823E+03 8.39980E-11 1.43298E-11
 -1        12 3.56979E+01 2.30790E+00 8.10562E+00 1.53823E+03 8.39980E-11 1.43298E-11
 -1        13 6.30372E+01 2.78113E+03 8.40762E+02 8.93176E+02 2.58375E-08 6.24410E-08
 -1        14-2.26700E+02 1.08164E+02-3.89773E+01 5.47190E+02 7.37601E-09 6.92414E-08
 -1        15-6.50725E+02-1.89919E+03-7.69973E+02 2.32656E+02-1.29363E-08 3.00986E-08
 -1        16-7.45535E+02-2.19177E+03-8.86414E+02-8.15642E+01 1.85540E-09 3.67229E-08
 -1        17-5.99922E+02-1.39201E+03-5.99762E+02-1.62364E+02 2.44427E-08 1.72659E-08
 -1        18-5.19358E+02-6.11031E+02-3.39702E+02-1.15748E+02 1.33151E-08 7.07305E-08
 -1        19-3.10001E+02-1.94165E+02-1.51379E+02-5.07142E+01-2.31323E-08 1.01539E-07
 -1        20-2.74496E+02-1.11481E+02-1.15877E+02-4.62385E+00-5.09012E-08 6.22626E-08
 -1        21-2.67667E+02-6.77128E+01-1.00699E+02 1.40102E+01-4.42471E-08-2.77922E-08
 -1        22-3.60194E+02-8.28312E+01-1.33057E+02 1.15703E+01-1.68023E-08-3.42058E-08
 -1        23-2.58302E+02-7.17404E+01-9.90886E+01 6.54818E+00 2.77128E-09-6.47265E-08
 -1        24-2.53892E+02-7.85193E+01-9.97990E+01 1.27831E+01 4.46037E-09 3.34024E-08
 -1        25-2.45709E+02-1.07818E+00-7.41233E+01 1.95691E+01-5.27159E-09-7.06889E-08
 -1        26-3.16202E+02 3.88671E+01-8.33534E+01 2.05792E+01-4.96905E-09 5.84703E-09
 -1        27-2.21002E+02 7.59747E+01-4.36018E+01 2.27181E+01-7.40649E-09-2.30311E-08
 -1        28-2.26590E+02 6.53660E+01-4.84627E+01 3.02974E+01-1.53338E-08-3.84127E-08
 -1        29-2.38869E+02 1.14974E+02-3.72959E+01 1.84810E+01-2.78203E-08-2.02048E-08
 -1        30-2.80768E+02 1.51864E+02-3.88577E+01 4.03056E-01-1.48174E-08-9.72384E-08
 -1        31-1.64688E+02 1.91408E+02 7.89676E+00-1.50432E+01 2.69579E-09-1.05515E-07
 -1        32 6.30372E+01 2.78113E+03 8.40762E+02 8.93176E+02 2.58375E-08 6.24410E-08
 -1        33-2.26700E+02 1.08164E+02-3.89773E+01 5.47190E+02 7.37601E-09 6.92414E-08
 -1        34-6.50725E+02-1.89919E+03-7.69973E+02 2.32656E+02-1.29363E-08 3.00986E-08
 -1        35-7.45535E+02-2.19177E+03-8.86414E+02-8.15642E+01 1.85540E-09 3.67230E-08
 -1        36-5.99922E+02-1.39201E+03-5.99762E+02-1.62364E+02 2.44427E-08 1.72658E-08
 -1        37-5.19358E+02-6.11031E+02-3.39702E+02-1.15748E+02 1.33151E-08 7.07305E-08
 -1        38-3.10001E+02-1.94165E+02-1.51379E+02-5.07142E+01-2.31323E-08 1.01539E-07
 -1        39-2.74496E+02-1.11481E+02-1.15877E+02-4.62385E+00-5.09012E-08 6.22626E-08
 -1        40-2.67667E+02-6.77128E+01-1.00699E+02 1.40102E+01-4.42471E-08-2.77922E-08
 -1        41-3.60194E+02-8.28312E+01-1.33057E+02 1.15703E+01-1.68023E-08-3.42058E-08
 -1        42-2.58302E+02-7.17404E+01-9.90886E+01 6.54818E+00 2.77128E-09-6.47264E-08
 -1        43-2.53892E+02-7.85193E+01-9.97990E+01 1.27831E+01 4.46037E-09 3.34023E-08
 -1        44-2.45709E+02-1.07818E+00-7.41233E+01 1.95691E+01-5.27159E-09-7.06890E-08
 -1        45-3.16202E+02 3.88671E+01-8.33534E+01 2.05792E+01-4.96905E-09 5.84708E-09
 -1        46-2.21002E+02 7.59747E+01-4.36018E+01 2.27181E+01-7.40649E-09-2.30310E-08
 -1        47-2.26590E+02 6.53660E+01-4.84627E+01 3.02974E+01-1.53338E-08-3.84127E-08
 -1        48-2.38869E+02 1.14974E+02-3.72959E+01 1.84810E+01-2.78203E-08-2.02048E-08
 -1        49-2.80768E+02 1.51864E+02-3.88577E+01 4.03056E-01-1.48174E-08-9.72383E-08
 -1        50-1.64688E+02 1.91408E+02 7.89676E+00-1.50432E+01 2.69579E-09-1.05515E-07
 -1        51 8.99441E+01 3.48514E+02 1.31389E+02-4.42386E+00-1.14218E-08-8.56417E-08
 -1        52 1.45881E+02 5.01555E+02 1.93943E+02 9.21054E+00 1.17787E-08-1.14473E-07
 -1        53 1.25938E+02 5.49756E+02 2.02359E+02 1.46891E+01 3.05236E-08-7.75542E-08
 -1        54 1.30269E+02 5.06028E+02 1.90589E+02 2.22986E+01 1.19798E-08 9.82349E-09
 -1        55 1.24041E+02 3.55707E+02 1.43772E+02 1.95334E+01-1.09027E-08-3.69262E-08
 -1        56 1.59551E+02 2.41263E+02 1.20173E+02 1.77028E+01 3.16069E-11-5.83280E-08
 -1        57 9.63555E+01 1.92349E+02 8.65694E+01 1.40263E+01 1.19535E-08-2.42519E-09
 -1        58 9.20859E+01 1.98178E+02 8.70340E+01 9.93188E+00 8.68521E-09-2.17012E-08
 -1        59 9.08887E+01 1.36124E+02 6.80788E+01 9.06748E+00 6.52328E-10-2.88259E-09
 -1        60 1.37182E+02 8.61432E+01 6.69761E+01 1.14159E+01 7.36681E-09-5.11649E-08
 -1        61 8.21354E+01 6.98519E+01 4.55857E+01 1.02098E+01 3.66470E-08-1.84388E-08
 -1        62 8.15072E+01 1.02508E+02 5.51911E+01-4.64089E+00 4.23402E-08 6.06267E-08
 -1        63 1.17978E+02 1.76915E+02 8.84180E+01-4.62959E+01 1.08289E-08 9.67813E-08
 -1        64 2.72395E+02 5.66772E+02 2.51313E+02-1.16137E+02-2.64803E-08 1.06136E-07
 -1        65 3.95119E+02 1.37590E+03 5.29141E+02-1.64923E+02-4.21035E-08 3.07142E-08
 -1        66 5.25808E+02 2.17664E+03 8.05557E+02-6.50436E+01-1.09664E-08 2.00184E-08
 -1        67 4.59899E+02 1.87485E+03 6.95401E+02 2.65304E+02 1.78568E-08 3.96489E-08
 -1        68 1.85734E+01-1.64481E+02-4.71199E+01 5.46344E+02-1.18287E-09 8.45855E-08
 -1        69-2.97919E+02-2.81390E+03-9.45787E+02 8.01289E+02-2.00649E-08 6.40287E-08
 -1        70 8.99441E+01 3.48514E+02 1.31389E+02-4.42386E+00-1.14218E-08-8.56416E-08
 -1        71 1.45881E+02 5.01555E+02 1.93943E+02 9.21054E+00 1.17787E-08-1.14473E-07
 -1        72 1.25938E+02 5.49756E+02 2.02359E+02 1.46891E+01 3.05236E-08-7.75542E-08
 -1        73 1.30269E+02 5.06028E+02 1.90589E+02 2.22986E+01 1.19798E-08 9.82349E-09
 -1        74 1.24041E+02 3.55707E+02 1.43772E+02 1.95334E+01-1.09027E-08-3.69262E-08
 -1        75 1.59551E+02 2.41263E+02 1.20173E+02 1.77028E+01 3.16071E-11-5.83281E-08
 -1        76 9.63555E+01 1.92349E+02 8.65694E+01 1.40263E+01 1.19535E-08-2.42515E-09
 -1        77 9.20859E+01 1.98178E+02 8.70340E+01 9.93188E+00 8.68521E-09-2.17012E-08
 -1        78 9.08887E+01 1.36124E+02 6.80788E+01 9.06748E+00 6.52320E-10-2.88257E-09
 -1        79 1.37182E+02 8.61432E+01 6.69761E+01 1.14159E+01 7.36681E-09-5.11652E-08
 -1        80 8.21354E+01 6.98519E+01 4.55857E+01 1.02098E+01 3.66470E-08-1.84388E-08
 -1        81 8.15072E+01 1.02508E+02 5.51911E+01-4.64089E+00 4.23402E-08 6.06267E-08
 -1        82 1.17978E+02 1.76915E+02 8.84180E+01-4.62959E+01 1.08289E-08 9.67813E-08
 -1        83 2.72395E+02 5.66772E+02 2.51313E+02-1.16137E+02-2.64803E-08 1.06136E-07
 -1        84 3.95119E+02 1.37590E+03 5.29141E+02-1.64923E+02-4.21035E-08 3.07141E-08
 -1        85 5.25808E+02 2.17664E+03 8.05557E+02-6.50436E+01-1.09664E-08 2.00188E-08
 -1        86 4.59899E+02 1.87485E+03 6.95401E+02 2.65304E+02 1.78568E-08 3.96488E-08
 -1        87 1.85734E+01-1.64481E+02-4.71199E+01 5.46344E+02-1.18287E-09 8.45855E-08
 -1        88-2.97919E+02-2.81390E+03-9.45787E+02 8.01289E+02-2.00649E-08 6.40287E-08
 -1        89-1.10959E+02-5.10932E+01-5.11385E+01 8.14797E+02 5.02650E-09 5.62650E-08
 -1        90-8.95483E+01-3.19239E+01-3.81453E+01 7.69618E+02 5.02023E-09 8.92566E-08
 -1        91-9.13922E+01-2.81531E+01-3.69878E+01 3.33045E+02-2.13878E-09 3.85255E-08
 -1        92-1.06583E+02-2.00720E+01-3.79912E+01-1.01075E+02-3.33251E-09 6.66065E-09
 -1        93-1.00570E+02-1.29020E+01-3.38312E+01-2.41400E+02-4.30200E-09 2.69766E-08
 -1        94-1.21898E+02-2.04075E+01-4.27417E+01-1.56212E+02-1.14724E-08 9.30247E-08
 -1        95-9.62745E+01-9.31142E+00-3.17269E+01-4.65188E+01-9.99883E-09 1.07030E-07
 -1        96-9.81278E+01-8.32613E+00-3.19779E+01-6.54411E+00-3.72743E-09 5.62805E-08
 -1        97-9.30813E+01 2.55825E-01-2.78940E+01-1.96079E+00-4.96419E-09-2.96654E-08
 -1        98-1.10809E+02 3.29177E+00-3.23481E+01 1.41812E+01 1.71941E-09-4.69710E-08
 -1        99-8.46081E+01 3.01434E+01-1.63823E+01 2.51092E+01-1.27069E-09-3.01144E-08
 -1       100-8.28024E+01 5.53467E+01-8.28052E+00 1.14414E+01 9.64533E-09 4.01731E-10
 -1       101-7.54804E+01 9.36488E+01 5.39520E+00 2.63210E+00 6.22696E-09-2.68252E-08
 -1       102-7.92437E+01 1.37923E+02 1.74903E+01 2.21139E+01-1.40334E-08-4.06340E-08
 -1       103-5.10034E+01 2.09992E+02 4.75948E+01 4.04814E+01-2.70780E-09-2.87616E-08
 -1       104-4.86473E+01 2.84435E+02 7.05884E+01 3.03725E+01-8.87094E-09-2.25713E-08
 -1       105-4.90338E+01 3.49502E+02 8.99388E+01 7.01715E+00-3.44761E-09-5.18563E-08
 -1       106-5.18471E+01 3.63150E+02 9.31575E+01 4.01156E+00 5.33749E-09-1.16591E-07
 -1       107 4.32483E+00 3.67667E+02 1.11404E+02 2.18570E+00-1.33982E-08-9.64239E-08
 -1       108 4.32483E+00 3.67667E+02 1.11404E+02 2.18570E+00-1.33982E-08-9.64238E-08
 -1       109-5.18471E+01 3.63150E+02 9.31575E+01 4.01156E+00 5.33750E-09-1.16592E-07
 -1       110-4.90338E+01 3.49502E+02 8.99388E+01 7.01715E+00-3.44761E-09-5.18563E-08
 -1       111-4.86473E+01 2.84435E+02 7.05884E+01 3.03725E+01-8.87094E-09-2.25713E-08
 -1       112-5.10034E+01 2.09992E+02 4.75948E+01 4.04814E+01-2.70780E-09-2.87616E-08
 -1       113-7.92437E+01 1.37923E+02 1.74903E+01 2.21139E+01-1.40334E-08-4.06340E-08
 -1       114-7.54804E+01 9.36488E+01 5.39520E+00 2.63210E+00 6.22696E-09-2.68253E-08
 -1       115-8.28024E+01 5.53467E+01-8.28052E+00 1.14414E+01 9.64533E-09 4.01884E-10
 -1       116-8.46081E+01 3.01434E+01-1.63823E+01 2.51092E+01-1.27069E-09-3.01146E-08
 -1       117-1.10809E+02 3.29177E+00-3.23481E+01 1.41812E+01 1.71941E-09-4.69710E-08
 -1       118-9.30813E+01 2.55826E-01-2.78940E+01-1.96079E+00-4.96419E-09-2.96653E-08
 -1       119-9.81278E+01-8.32613E+00-3.19779E+01-6.54411E+00-3.72743E-09 5.62805E-08
 -1       120-9.62745E+01-9.31142E+00-3.17269E+01-4.65188E+01-9.99883E-09 1.07030E-07
 -1       121-1.21898E+02-2.04075E+01-4.27417E+01-1.56212E+02-1.14724E-08 9.30248E-08
 -1       122-1.00570E+02-1.29020E+01-3.38312E+01-2.41400E+02-4.30200E-09 2.69767E-08
 -1       123-1.06583E+02-2.00720E+01-3.79912E+01-1.01075E+02-3.33250E-09 6.66044E-09
 -1       124-9.13922E+01-2.81531E+01-3.69878E+01 3.33045E+02-2.13878E-09 3.85255E-08
 -1       125-8.95483E+01-3.19239E+01-3.81453E+01 7.69618E+02 5.02024E-09 8.92566E-08
 -1       126-1.10959E+02-5.10932E+01-5.11385E+01 8.14797E+02 5.02651E-09 5.62650E-08
 -3
    1PSTEP                        15           4           1          
  100CL  104 4.00000E-02         126                     1    4           1
 -4  TOSTRAIN    6    1
 -5  EXX         1    4    1    1
 -5  EYY         1    4    2    2
 -5  EZZ         1    4    3    3
 -5  EXY         1    4    1    2
 -5  EYZ         1    4    2    3
 -5  EZX         1    4    3    1
 -1         1-7.23216E-06 9.05583E-03-1.56911E-26 6.33030E-03-7.70657E-19 2.08691E-16
 -1         2-7.23216E-06 9.05583E-03-1.56911E-26 6.33030E-03-7.70657E-19 2.08691E-16
 -1         3-3.53613E-04 5.46967E-04 1.06262E-25 4.00044E-05 5.59867E-14-2.38762E-13
 -1         4-3.53613E-04 5.46967E-04 1.06262E-25 4.00044E-05 5.59867E-14-2.38761E-13
 -1         5-3.48676E-05 5.14315E-04 3.90956E-25-1.92159E-04-3.08213E-14-4.46985E-13
 -1         6-3.48676E-05 5.14315E-04 3.90956E-25-1.92159E-04-3.08213E-14-4.46985E-13
 -1         7-7.04665E-06-8.86599E-03-1.55254E-26 5.99265E-03 2.29839E-19-1.72439E-16
 -1         8-7.04665E-06-8.86599E-03-1.55254E-26 5.99265E-03 2.29839E-19-1.72439E-16
 -1         9-1.94240E-04 8.11566E-04 2.94708E-25-4.90185E-05-6.30677E-14-3.83285E-13
 -1        10-1.94240E-04 8.11566E-04 2.94709E-25-4.90185E-05-6.30677E-14-3.83285E-13
 -1        11-7.13941E-06 2.79740E-05-1.08857E-26 5.00063E-03-2.00083E-19 2.99109E-17
 -1        12-7.13941E-06 2.79740E-05-1.08857E-26 5.00063E-03-2.00083E-19 2.99109E-17
 -1        13-2.61992E-03 6.27547E-03 8.59350E-26 2.78710E-03 8.50448E-14 2.01796E-13
 -1        14-6.66268E-04 5.04433E-04 9.74156E-26 1.75839E-03 2.67025E-14 2.24778E-13
 -1        15 3.56035E-04-3.68267E-03 1.88623E-26 7.98671E-04-4.12898E-14 9.84166E-14
 -1        16 4.50295E-04-4.27954E-03 2.44363E-26-2.42594E-04 6.62217E-15 1.19463E-13
 -1        17-1.48842E-06-2.59097E-03 9.68263E-27-5.28257E-04 7.97533E-14 5.61879E-14
 -1        18-5.85845E-04-8.83894E-04 9.72720E-26-3.77887E-04 4.32476E-14 2.30228E-13
 -1        19-5.16661E-04-1.38881E-04 2.21723E-25-1.64783E-04-7.54730E-14 3.30197E-13
 -1        20-5.16201E-04 1.43190E-05 1.10817E-25-1.45713E-05-1.65645E-13 2.02359E-13
 -1        21-5.43284E-04 1.07112E-04 3.66612E-26 4.61389E-05-1.43738E-13-9.05132E-14
 -1        22-7.39422E-04 1.63166E-04 2.62431E-26 3.83881E-05-5.45208E-14-1.11327E-13
 -1        23-5.18047E-04 8.88457E-05 6.74648E-26 2.17972E-05 9.18551E-15-2.10510E-13
 -1        24-5.01366E-04 6.90893E-05-1.30596E-26 4.21314E-05 1.43939E-14 1.08650E-13
 -1        25-5.58236E-04 2.37148E-04 7.38057E-26 6.44545E-05-1.68826E-14-2.29925E-13
 -1        26-7.57898E-04 3.96826E-04-1.54131E-26 6.81051E-05-1.61670E-14 1.89974E-14
 -1        27-5.77124E-04 3.88212E-04 1.08689E-26 7.48500E-05-2.39834E-14-7.49259E-14
 -1        28-5.79482E-04 3.69504E-04 3.46754E-26 9.97047E-05-4.96507E-14-1.24983E-13
 -1        29-6.55866E-04 4.94264E-04 8.50834E-27 6.20277E-05-9.02623E-14-6.58605E-14
 -1        30-7.87528E-04 6.19157E-04 1.91532E-25 4.18893E-06-4.74880E-14-3.16395E-13
 -1        31-5.61725E-04 5.95931E-04 2.33420E-25-4.62087E-05 9.52618E-15-3.43088E-13
 -1        32-2.61992E-03 6.27547E-03 8.59350E-26 2.78710E-03 8.50448E-14 2.01796E-13
 -1        33-6.66268E-04 5.04433E-04 9.74156E-26 1.75839E-03 2.67025E-14 2.24778E-13
 -1        34 3.56035E-04-3.68267E-03 1.88623E-26 7.98671E-04-4.12897E-14 9.84166E-14
 -1        35 4.50295E-04-4.27954E-03 2.44364E-26-2.42594E-04 6.62217E-15 1.19464E-13
 -1        36-1.48842E-06-2.59097E-03 9.68262E-27-5.28257E-04 7.97533E-14 5.61878E-14
 -1        37-5.85845E-04-8.83894E-04 9.72720E-26-3.77887E-04 4.32476E-14 2.30228E-13
 -1        38-5.16661E-04-1.38881E-04 2.21723E-25-1.64783E-04-7.54730E-14 3.30197E-13
 -1        39-5.16201E-04 1.43190E-05 1.10817E-25-1.45713E-05-1.65645E-13 2.02359E-13
 -1        40-5.43284E-04 1.07112E-04 3.66612E-26 4.61389E-05-1.43738E-13-9.05133E-14
 -1        41-7.39422E-04 1.63166E-04 2.62430E-26 3.83881E-05-5.45208E-14-1.11327E-13
 -1        42-5.18047E-04 8.88457E-05 6.74647E-26 2.17973E-05 9.18551E-15-2.10510E-13
 -1        43-5.01366E-04 6.90893E-05-1.30596E-26 4.21314E-05 1.43939E-14 1.08650E-13
 -1        44-5.58236E-04 2.37148E-04 7.38057E-26 6.44545E-05-1.68826E-14-2.29925E-13
 -1        45-7.57898E-04 3.96826E-04-1.54132E-26 6.81051E-05-1.61670E-14 1.89975E-14
 -1        46-5.77124E-04 3.88212E-04 1.08689E-26 7.48500E-05-2.39834E-14-7.49258E-14
 -1        47-5.79482E-04 3.69504E-04 3.46754E-26 9.97047E-05-4.96507E-14-1.24983E-13
 -1        48-6.55866E-04 4.94264E-04 8.50834E-27 6.20277E-05-9.02623E-14-6.58605E-14
 -1        49-7.87528E-04 6.19157E-04 1.91532E-25 4.18893E-06-4.74880E-14-3.16395E-13
 -1        50-5.61725E-04 5.95931E-04 2.33420E-25-4.62087E-05 9.52620E-15-3.43089E-13
 -1        51-1.34751E-04 7.04456E-04 1.50437E-25-1.26650E-05-3.65133E-14-2.78372E-13
 -1        52-1.56065E-04 9.97196E-04 2.74595E-25 3.21276E-05 3.89662E-14-3.71863E-13
 -1        53-2.48241E-04 1.12589E-03 1.24743E-25 5.00259E-05 9.94952E-14-2.51835E-13
 -1        54-1.95908E-04 1.02247E-03-1.72077E-26 7.40102E-05 3.88331E-14 3.19704E-14
 -1        55-6.39702E-05 6.87402E-04 2.59487E-26 6.41851E-05-3.52593E-14-1.20020E-13
 -1        56 1.28040E-04 3.92984E-04 6.39634E-26 5.77351E-05 3.12938E-16-1.89497E-13
 -1        57 3.18921E-05 3.43382E-04-4.30657E-27 4.58855E-05 3.88385E-14-7.84116E-15
 -1        58 1.64476E-05 3.60838E-04 9.76920E-27 3.25831E-05 2.82811E-14-7.04887E-14
 -1        59 7.41633E-05 2.20941E-04-6.34769E-27 2.95612E-05 2.12600E-15-9.36687E-15
 -1        60 2.28101E-04 6.22112E-05 4.93903E-26 3.69377E-05 2.40788E-14-1.66210E-13
 -1        61 1.18801E-04 7.87777E-05 1.50194E-26 3.31359E-05 1.19136E-13-5.98109E-14
 -1        62 8.54737E-05 1.53744E-04 9.30887E-26-1.50140E-05 1.37396E-13 1.97121E-13
 -1        63 9.56642E-05 2.87631E-04 1.92485E-25-1.50094E-04 3.49339E-14 3.14486E-13
 -1        64 6.76314E-05 1.02273E-03 2.38573E-25-3.75499E-04-8.60609E-14 3.44644E-13
 -1        65-4.36597E-04 2.73457E-03 3.99496E-26-5.36235E-04-1.36237E-13 9.97666E-14
 -1        66-9.17546E-04 4.41758E-03 6.67699E-27-2.37140E-04-3.51506E-14 6.51782E-14
 -1        67-7.99172E-04 3.82038E-03 3.25040E-26 8.14153E-04 5.89853E-14 1.28105E-13
 -1        68 1.57416E-04-3.54539E-04 1.45683E-25 1.78897E-03-4.94279E-16 2.74920E-13
 -1        69 2.02194E-03-6.10404E-03 8.41471E-26 2.71192E-03-6.39383E-14 2.09029E-13
 -1        70-1.34751E-04 7.04456E-04 1.50436E-25-1.26650E-05-3.65133E-14-2.78372E-13
 -1        71-1.56065E-04 9.97196E-04 2.74595E-25 3.21276E-05 3.89662E-14-3.71863E-13
 -1        72-2.48241E-04 1.12589E-03 1.24743E-25 5.00259E-05 9.94952E-14-2.51835E-13
 -1        73-1.95908E-04 1.02247E-03-1.72077E-26 7.40102E-05 3.88331E-14 3.19704E-14
 -1        74-6.39702E-05 6.87402E-04 2.59487E-26 6.41851E-05-3.52593E-14-1.20020E-13
 -1        75 1.28040E-04 3.92984E-04 6.39635E-26 5.77351E-05 3.12938E-16-1.89497E-13
 -1        76 3.18921E-05 3.43382E-04-4.30660E-27 4.58855E-05 3.88385E-14-7.84104E-15
 -1        77 1.64476E-05 3.60838E-04 9.76921E-27 3.25831E-05 2.82811E-14-7.04887E-14
 -1        78 7.41633E-05 2.20941E-04-6.34771E-27 2.95612E-05 2.12597E-15-9.36681E-15
 -1        79 2.28101E-04 6.22112E-05 4.93907E-26 3.69377E-05 2.40788E-14-1.66211E-13
 -1        80 1.18801E-04 7.87777E-05 1.50192E-26 3.31359E-05 1.19136E-13-5.98107E-14
 -1        81 8.54737E-05 1.53744E-04 9.30887E-26-1.50140E-05 1.37396E-13 1.97121E-13
 -1        82 9.56642E-05 2.87631E-04 1.92485E-25-1.50094E-04 3.49339E-14 3.14486E-13
 -1        83 6.76314E-05 1.02273E-03 2.38573E-25-3.75499E-04-8.60609E-14 3.44644E-13
 -1        84-4.36597E-04 2.73457E-03 3.99494E-26-5.36235E-04-1.36237E-13 9.97662E-14
 -1        85-9.17546E-04 4.41758E-03 6.67738E-27-2.37140E-04-3.51507E-14 6.51796E-14
 -1        86-7.99172E-04 3.82038E-03 3.25038E-26 8.14153E-04 5.89853E-14 1.28105E-13
 -1        87 1.57416E-04-3.54539E-04 1.45683E-25 1.78897E-03-4.94277E-16 2.74920E-13
 -1        88 2.02194E-03-6.10404E-03 8.41470E-26 2.71192E-03-6.39383E-14 2.09029E-13
 -1        89-2.98990E-04 7.44088E-05 5.81709E-26 2.64675E-03 1.79221E-14 1.82674E-13
 -1        90-2.54426E-04 8.74235E-05 1.61823E-25 2.49831E-03 1.98409E-14 2.89855E-13
 -1        91-2.21569E-04 5.89846E-05 2.45983E-26 1.08035E-03-5.75226E-15 1.25319E-13
 -1        92-2.33625E-04 6.62630E-05-2.55749E-27-3.29866E-04-1.07699E-14 2.16892E-14
 -1        93-2.19043E-04 7.10868E-05 3.69815E-27-7.84925E-04-1.39062E-14 8.76958E-14
 -1        94-2.59107E-04 7.37936E-05 1.75594E-25-5.07621E-04-3.74082E-14 3.02386E-13
 -1        95-2.10498E-04 7.31174E-05 2.38899E-25-1.50964E-04-3.27665E-14 3.47910E-13
 -1        96-2.15364E-04 7.69019E-05 4.22341E-26-2.10130E-05-1.22743E-14 1.82953E-13
 -1        97-2.12242E-04 9.14893E-05-1.63124E-28-6.09582E-06-1.60451E-14-9.64540E-14
 -1        98-2.55661E-04 1.15734E-04 4.54827E-26 4.63974E-05 5.71720E-15-1.52700E-13
 -1        99-2.21942E-04 1.51040E-04 1.49783E-26 8.18958E-05-4.04749E-15-9.78993E-14
 -1       100-2.42459E-04 2.06643E-04-1.79785E-27 3.76173E-05 3.13406E-14 1.33326E-15
 -1       101-2.63172E-04 2.86637E-04 1.16440E-26 9.15184E-06 2.03285E-14-8.71809E-14
 -1       102-3.14929E-04 3.90921E-04 3.45790E-26 7.25441E-05-4.54450E-14-1.32140E-13
 -1       103-3.20547E-04 5.26895E-04 1.74994E-26 1.32316E-04-8.69056E-15-9.35030E-14
 -1       104-3.87695E-04 6.93697E-04 8.93464E-27 1.00046E-04-2.87034E-14-7.34058E-14
 -1       105-4.52053E-04 8.41966E-04 4.32073E-26 2.50384E-05-1.08961E-14-1.68597E-13
 -1       106-4.71797E-04 8.75732E-04 2.78465E-25 1.57380E-05 1.80904E-14-3.78988E-13
 -1       107-3.48238E-04 8.31254E-04 1.98300E-25 9.65760E-06-4.28277E-14-3.13504E-13
 -1       108-3.48238E-04 8.31254E-04 1.98300E-25 9.65760E-06-4.28277E-14-3.13504E-13
 -1       109-4.71797E-04 8.75732E-04 2.78465E-25 1.57380E-05 1.80905E-14-3.78988E-13
 -1       110-4.52053E-04 8.41966E-04 4.32073E-26 2.50384E-05-1.08961E-14-1.68597E-13
 -1       111-3.87695E-04 6.93697E-04 8.93464E-27 1.00046E-04-2.87034E-14-7.34058E-14
 -1       112-3.20547E-04 5.26895E-04 1.74993E-26 1.32316E-04-8.69057E-15-9.35029E-14
 -1       113-3.14929E-04 3.90921E-04 3.45790E-26 7.25441E-05-4.54450E-14-1.32140E-13
 -1       114-2.63172E-04 2.86637E-04 1.16441E-26 9.15184E-06 2.03285E-14-8.71811E-14
 -1       115-2.42459E-04 2.06643E-04-1.79791E-27 3.76173E-05 3.13406E-14 1.33375E-15
 -1       116-2.21942E-04 1.51040E-04 1.49785E-26 8.18958E-05-4.04748E-15-9.79000E-14
 -1       117-2.55661E-04 1.15734E-04 4.54828E-26 4.63974E-05 5.71720E-15-1.52701E-13
 -1       118-2.12242E-04 9.14893E-05-1.63161E-28-6.09582E-06-1.60451E-14-9.64540E-14
 -1       119-2.15364E-04 7.69019E-05 4.22341E-26-2.10130E-05-1.22743E-14 1.82953E-13
 -1       120-2.10498E-04 7.31174E-05 2.38899E-25-1.50964E-04-3.27665E-14 3.47910E-13
 -1       121-2.59107E-04 7.37936E-05 1.75594E-25-5.07621E-04-3.74082E-14 3.02386E-13
 -1       122-2.19043E-04 7.10868E-05 3.69822E-27-7.84925E-04-1.39062E-14 8.76962E-14
 -1       123-2.33625E-04 6.62630E-05-2.55767E-27-3.29866E-04-1.07698E-14 2.16885E-14
 -1       124-2.21569E-04 5.89846E-05 2.45984E-26 1.08035E-03-5.75227E-15 1.25320E-13
 -1       125-2.54426E-04 8.74235E-05 1.61823E-25 2.49831E-03 1.98409E-14 2.89855E-13
 -1       126-2.98990E-04 7.44088E-05 5.81709E-26 2.64675E-03 1.79221E-14 1.82674E-13
 -3
    1PSTEP                        16           4           1          
  100CL  104 4.00000E-02         126                     1    4           1
 -4  ERROR       1    1
 -5  STR(%)      1    1    0    0
 -1         1 6.25656E+01
 -1         2 6.25656E+01
 -1         3 2.16638E+01
 -1         4 2.16638E+01
 -1         5 1.62766E+01
 -1         6 1.62766E+01
 -1         7 6.04623E+01
 -1         8 6.04623E+01
 -1         9 2.16638E+01
 -1        10 2.16638E+01
 -1        11 6.25656E+01
 -1        12 6.25656E+01
 -1        13 6.25656E+01
 -1        14 6.09643E+01
 -1        15 5.57036E+01
 -1        16 5.57036E+01
 -1        17 5.34518E+01
 -1        18 2.68554E+01
 -1        19 1.28116E+01
 -1        20 1.50580E+00
 -1        21 8.18359E+00
 -1        22 1.00391E+01
 -1        23 1.00391E+01
 -1        24 4.09458E+00
 -1        25 9.31397E+00
 -1        26 9.31397E+00
 -1        27 8.19275E+00
 -1        28 3.67925E+01
 -1        29 3.67925E+01
 -1        30 2.44806E+01
 -1        31 2.16638E+01
 -1        32 6.25656E+01
 -1        33 6.09643E+01
 -1        34 5.57036E+01
 -1        35 5.57036E+01
 -1        36 5.34518E+01
 -1        37 2.68554E+01
 -1        38 1.28116E+01
 -1        39 1.50580E+00
 -1        40 8.18359E+00
 -1        41 1.00391E+01
 -1        42 1.00391E+01
 -1        43 4.09458E+00
 -1        44 9.31397E+00
 -1        45 9.31397E+00
 -1        46 8.19275E+00
 -1        47 3.67925E+01
 -1        48 3.67925E+01
 -1        49 2.44806E+01
 -1        50 2.16638E+01
 -1        51 1.62766E+01
 -1        52 4.45303E+00
 -1        53 1.05887E+01
 -1        54 1.05887E+01
 -1        55 1.01894E+01
 -1        56 3.17488E+00
 -1        57 1.06891E+01
 -1        58 1.33493E+01
 -1        59 2.37239E+01
 -1        60 2.37239E+01
 -1        61 1.61439E+01
 -1        62 2.08263E+01
 -1        63 2.17547E+01
 -1        64 3.67957E+01
 -1        65 5.57878E+01
 -1        66 5.75359E+01
 -1        67 5.75359E+01
 -1        68 6.86652E+01
 -1        69 6.86652E+01
 -1        70 1.62766E+01
 -1        71 4.45303E+00
 -1        72 1.05887E+01
 -1        73 1.05887E+01
 -1        74 1.01894E+01
 -1        75 3.17488E+00
 -1        76 1.06891E+01
 -1        77 1.33493E+01
 -1        78 2.37239E+01
 -1        79 2.37239E+01
 -1        80 1.61439E+01
 -1        81 2.08263E+01
 -1        82 2.17547E+01
 -1        83 3.67957E+01
 -1        84 5.57878E+01
 -1        85 5.75359E+01
 -1        86 5.75359E+01
 -1        87 6.86652E+01
 -1        88 6.86652E+01
 -1        89 6.86652E+01
 -1        90 6.86652E+01
 -1        91 5.75359E+01
 -1        92 5.75359E+01
 -1        93 5.57878E+01
 -1        94 3.67957E+01
 -1        95 2.17547E+01
 -1        96 2.08263E+01
 -1        97 1.61439E+01
 -1        98 2.37239E+01
 -1        99 2.37239E+01
 -1       100 1.33493E+01
 -1       101 1.06891E+01
 -1       102 9.31397E+00
 -1       103 1.01894E+01
 -1       104 3.67925E+01
 -1       105 3.67925E+01
 -1       106 2.44806E+01
 -1       107 2.16638E+01
 -1       108 2.16638E+01
 -1       109 2.44806E+01
 -1       110 3.67925E+01
 -1       111 3.67925E+01
 -1       112 1.01894E+01
 -1       113 9.31397E+00
 -1       114 1.06891E+01
 -1       115 1.33493E+01
 -1       116 2.37239E+01
 -1       117 2.37239E+01
 -1       118 1.61439E+01
 -1       119 2.08263E+01
 -1       120 2.17547E+01
 -1       121 3.67957E+01
 -1       122 5.57878E+01
 -1       123 5.75359E+01
 -1       124 5.75359E+01
 -1       125 6.86652E+01
 -1       126 6.86652E+01
 -3
    1PSTEP                        17           5           1          
  100CL  105 5.00000E-02         126                     1    5           1
 -4  DISP        4    1
 -5  D1          1    2    1    0
 -5  D2          1    2    2    0
 -5  D3          1    2    3    0
 -5  ALL         1    2    0    0    1ALL
 -1         1 0.00000E+00 0.00000E+00 0.00000E+00
 -1         2 0.00000E+00 0.00000E+00 0.00000E+00
 -1         3 2.56673E-03 2.63396E-04 0.00000E+00
 -1         4 2.56673E-03 2.63396E-04 0.00000E+00
 -1         5 2.56716E-03 4.64575E-04 0.00000E+00
 -1         6 2.56716E-03 4.64575E-04 0.00000E+00
 -1         7 0.00000E+00 0.00000E+00 0.00000E+00
 -1         8 0.00000E+00 0.00000E+00 0.00000E+00
 -1         9 2.56586E-03 3.87597E-04 0.00000E+00
 -1        10 2.56586E-03 3.87597E-04 0.00000E+00
 -1        11 0.00000E+00 0.00000E+00 0.00000E+00
 -1        12 0.00000E+00 0.00000E+00 0.00000E+00
 -1        13 6.13790E-04 4.98439E-04 0.00000E+00
 -1        14 1.49407E-03 7.74851E-04 0.00000E+00
 -1        15 2.53636E-03 7.72873E-04 0.00000E+00
 -1        16 3.34975E-03 5.36591E-04 0.00000E+00
 -1        17 3.70950E-03 2.34885E-04 0.00000E+00
 -1        18 3.72199E-03 2.81304E-05 0.00000E+00
 -1        19 3.60454E-03-5.17241E-05 0.00000E+00
 -1        20 3.49059E-03-5.47371E-05 0.00000E+00
 -1        21 3.41683E-03-3.35826E-05 0.00000E+00
 -1        22 3.36304E-03-1.16759E-05 0.00000E+00
 -1        23 3.31295E-03 8.57092E-06 0.00000E+00
 -1        24 3.26382E-03 3.03196E-05 0.00000E+00
 -1        25 3.21949E-03 5.56203E-05 0.00000E+00
 -1        26 3.17225E-03 8.53987E-05 0.00000E+00
 -1        27 3.11771E-03 1.16692E-04 0.00000E+00
 -1        28 3.04708E-03 1.44372E-04 0.00000E+00
 -1        29 2.94897E-03 1.68648E-04 0.00000E+00
 -1        30 2.82317E-03 1.95894E-04 0.00000E+00
 -1        31 2.69029E-03 2.31028E-04 0.00000E+00
 -1        32 6.13790E-04 4.98439E-04 0.00000E+00
 -1        33 1.49407E-03 7.74851E-04 0.00000E+00
 -1        34 2.53636E-03 7.72873E-04 0.00000E+00
 -1        35 3.34975E-03 5.36591E-04 0.00000E+00
 -1        36 3.70950E-03 2.34885E-04 0.00000E+00
 -1        37 3.72199E-03 2.81304E-05 0.00000E+00
 -1        38 3.60454E-03-5.17241E-05 0.00000E+00
 -1        39 3.49059E-03-5.47371E-05 0.00000E+00
 -1        40 3.41683E-03-3.35826E-05 0.00000E+00
 -1        41 3.36304E-03-1.16759E-05 0.00000E+00
 -1        42 3.31295E-03 8.57092E-06 0.00000E+00
 -1        43 3.26382E-03 3.03196E-05 0.00000E+00
 -1        44 3.21949E-03 5.56203E-05 0.00000E+00
 -1        45 3.17225E-03 8.53987E-05 0.00000E+00
 -1        46 3.11771E-03 1.16692E-04 0.00000E+00
 -1        47 3.04708E-03 1.44372E-04 0.00000E+00
 -1        48 2.94897E-03 1.68648E-04 0.00000E+00
 -1        49 2.82317E-03 1.95894E-04 0.00000E+00
 -1        50 2.69029E-03 2.31028E-04 0.00000E+00
 -1        51 2.68490E-03 4.44798E-04 0.00000E+00
 -1        52 2.81308E-03 4.12061E-04 0.00000E+00
 -1        53 2.92219E-03 3.62805E-04 0.00000E+00
 -1        54 3.01548E-03 3.00736E-04 0.00000E+00
 -1        55 3.08429E-03 2.40282E-04 0.00000E+00
 -1        56 3.14285E-03 1.90390E-04 0.00000E+00
 -1        57 3.19190E-03 1.52210E-04 0.00000E+00
 -1        58 3.24340E-03 1.24705E-04 0.00000E+00
 -1        59 3.29339E-03 1.05707E-04 0.00000E+00
 -1        60 3.34568E-03 9.34819E-05 0.00000E+00
 -1        61 3.40032E-03 8.99558E-05 0.00000E+00
 -1        62 3.47787E-03 9.19610E-05 0.00000E+00
 -1        63 3.58962E-03 7.30759E-05 0.00000E+00
 -1        64 3.70691E-03-2.18215E-05 0.00000E+00
 -1        65 3.69299E-03-2.41469E-04 0.00000E+00
 -1        66 3.33064E-03-5.49853E-04 0.00000E+00
 -1        67 2.50808E-03-7.84685E-04 0.00000E+00
 -1        68 1.46066E-03-7.81548E-04 0.00000E+00
 -1        69 5.97264E-04-5.02602E-04 0.00000E+00
 -1        70 2.68490E-03 4.44798E-04 0.00000E+00
 -1        71 2.81308E-03 4.12061E-04 0.00000E+00
 -1        72 2.92219E-03 3.62805E-04 0.00000E+00
 -1        73 3.01548E-03 3.00736E-04 0.00000E+00
 -1        74 3.08429E-03 2.40282E-04 0.00000E+00
 -1        75 3.14285E-03 1.90390E-04 0.00000E+00
 -1        76 3.19190E-03 1.52210E-04 0.00000E+00
 -1        77 3.24340E-03 1.24705E-04 0.00000E+00
 -1        78 3.29339E-03 1.05707E-04 0.00000E+00
 -1        79 3.34568E-03 9.34819E-05 0.00000E+00
 -1        80 3.40032E-03 8.99558E-05 0.00000E+00
 -1        81 3.47787E-03 9.19610E-05 0.00000E+00
 -1        82 3.58962E-03 7.30759E-05 0.00000E+00
 -1        83 3.70691E-03-2.18215E-05 0.00000E+00
 -1        84 3.69299E-03-2.41469E-04 0.00000E+00
 -1        85 3.33064E-03-5.49853E-04 0.00000E+00
 -1        86 2.50808E-03-7.84685E-04 0.00000E+00
 -1        87 1.46066E-03-7.81548E-04 0.00000E+00
 -1        88 5.97264E-04-5.02602E-04 0.00000E+00
 -1        89 5.03593E-04-4.16532E-06 0.00000E+00
 -1        90 1.46244E-03-3.42122E-06 0.00000E+00
 -1        91 2.55749E-03-5.26861E-06 0.00000E+00
 -1        92 3.41205E-03-7.27590E-06 0.00000E+00
 -1        93 3.76749E-03-3.78037E-06 0.00000E+00
 -1        94 3.75603E-03 3.46425E-06 0.00000E+00
 -1        95 3.61234E-03 1.14307E-05 0.00000E+00
 -1        96 3.48929E-03 1.84935E-05 0.00000E+00
 -1        97 3.41244E-03 2.73412E-05 0.00000E+00
 -1        98 3.36132E-03 4.06040E-05 0.00000E+00
 -1        99 3.30780E-03 5.72119E-05 0.00000E+00
 -1       100 3.25825E-03 7.66795E-05 0.00000E+00
 -1       101 3.21070E-03 1.02602E-04 0.00000E+00
 -1       102 3.16370E-03 1.37335E-04 0.00000E+00
 -1       103 3.10598E-03 1.78878E-04 0.00000E+00
 -1       104 3.03710E-03 2.23986E-04 0.00000E+00
 -1       105 2.94029E-03 2.69131E-04 0.00000E+00
 -1       106 2.81932E-03 3.08623E-04 0.00000E+00
 -1       107 2.68594E-03 3.44873E-04 0.00000E+00
 -1       108 2.68594E-03 3.44873E-04 0.00000E+00
 -1       109 2.81932E-03 3.08623E-04 0.00000E+00
 -1       110 2.94029E-03 2.69131E-04 0.00000E+00
 -1       111 3.03710E-03 2.23986E-04 0.00000E+00
 -1       112 3.10598E-03 1.78878E-04 0.00000E+00
 -1       113 3.16370E-03 1.37335E-04 0.00000E+00
 -1       114 3.21070E-03 1.02602E-04 0.00000E+00
 -1       115 3.25825E-03 7.66795E-05 0.00000E+00
 -1       116 3.30780E-03 5.72119E-05 0.00000E+00
 -1       117 3.36132E-03 4.06040E-05 0.00000E+00
 -1       118 3.41244E-03 2.73412E-05 0.00000E+00
 -1       119 3.48929E-03 1.84935E-05 0.00000E+00
 -1       120 3.61234E-03 1.14307E-05 0.00000E+00
 -1       121 3.75603E-03 3.46425E-06 0.00000E+00
 -1       122 3.76749E-03-3.78037E-06 0.00000E+00
 -1       123 3.41205E-03-7.27590E-06 0.00000E+00
 -1       124 2.55749E-03-5.26861E-06 0.00000E+00
 -1       125 1.46244E-03-3.42122E-06 0.00000E+00
 -1       126 5.03593E-04-4.16532E-06 0.00000E+00
 -3
    1PSTEP                        18           5           1          
  100CL  105 5.00000E-02         126                     1    5           1
 -4  STRESS      6    1
 -5  SXX         1    4    1    1
 -5  SYY         1    4    2    2
 -5  SZZ         1    4    3    3
 -5  SXY         1    4    1    2
 -5  SYZ         1    4    2    3
 -5  SZX         1    4    3    1
 -1         1 2.34944E+03 5.46811E+03 2.30628E+03 1.95119E+03 1.65970E-10 8.37852E-11
 -1         2 2.34944E+03 5.46811E+03 2.30628E+03 1.95119E+03 1.65970E-10 8.37852E-11
 -1         3 1.42335E+02 3.47253E+02 1.46746E+02 1.71492E+00 5.11790E-08 3.02598E-08
 -1         4 1.42335E+02 3.47253E+02 1.46746E+02 1.71492E+00 5.11790E-08 3.02600E-08
 -1         5 1.07165E+02 2.20456E+02 9.81851E+01-1.25677E+02-4.78142E-08 6.58449E-08
 -1         6 1.07165E+02 2.20456E+02 9.81851E+01-1.25677E+02-4.78141E-08 6.58448E-08
 -1         7-2.27449E+03-5.31340E+03-2.31478E+03 1.77709E+03 1.78830E-10-8.77862E-11
 -1         8-2.27449E+03-5.31340E+03-2.31478E+03 1.77709E+03 1.78830E-10-8.77862E-11
 -1         9 2.01540E+02 4.63532E+02 1.99257E+02-6.04185E+01 6.49973E-09 4.72358E-08
 -1        10 2.01540E+02 4.63532E+02 1.99257E+02-6.04185E+01 6.49975E-09 4.72355E-08
 -1        11 2.02649E+01-3.82069E+01-7.51894E+00 1.54890E+03 1.81377E-10-1.18338E-12
 -1        12 2.02649E+01-3.82069E+01-7.51894E+00 1.54890E+03 1.81377E-10-1.18338E-12
 -1        13 6.78560E+02 3.76641E+03 1.31719E+03 7.79971E+02-3.25247E-09 1.00546E-07
 -1        14 4.21317E+02 1.45237E+03 5.56935E+02 5.74582E+02-4.63053E-08 9.18338E-08
 -1        15-1.99018E+02-1.07091E+03-3.84651E+02 4.53489E+02-6.65543E-08 3.68207E-08
 -1        16-5.11672E+02-2.53676E+03-9.22308E+02 1.19790E+02-6.41633E-08-5.48364E-08
 -1        17-5.38092E+02-2.44155E+03-9.00568E+02-1.65339E+02-3.00552E-08-1.05769E-07
 -1        18-2.93912E+02-1.37886E+03-5.04232E+02-2.36274E+02 1.00859E-08-8.56827E-08
 -1        19-1.05547E+02-4.08221E+02-1.54497E+02-1.60973E+02 1.20971E-08-5.04104E-08
 -1        20 2.91297E+01 9.27949E+01 3.65230E+01-6.34787E+01 1.27401E-08-3.04601E-08
 -1        21 5.26868E+01 2.12338E+02 7.94546E+01-8.87749E+00 2.92601E-08-2.66299E-08
 -1        22 7.91142E+01 2.19582E+02 8.95562E+01 9.71668E-01 4.94569E-08-3.22679E-08
 -1        23 4.18101E+01 2.02869E+02 7.33555E+01-3.06491E+00 5.49736E-08 2.70711E-08
 -1        24 4.88940E+01 2.28140E+02 8.30488E+01-1.22658E+00 2.24781E-08 5.02357E-08
 -1        25 3.28393E+01 2.56628E+02 8.67586E+01 3.58497E+00-2.36613E-08 1.10627E-07
 -1        26 4.92691E+01 2.90109E+02 1.01714E+02 3.10727E+00-4.08371E-08 3.18459E-08
 -1        27 1.04369E+01 2.64310E+02 8.23349E+01-1.39358E+00-3.58267E-08-3.64176E-08
 -1        28 1.36403E+01 2.34982E+02 7.45171E+01-1.48233E+01-1.81283E-08-7.56476E-08
 -1        29 2.72147E+01 2.39229E+02 7.98577E+01-3.55607E+01 1.20276E-08-9.84460E-08
 -1        30 1.04871E+02 3.20595E+02 1.27514E+02-5.14670E+01 4.43194E-08-2.76088E-08
 -1        31 1.11270E+02 3.45930E+02 1.37018E+02-4.45983E+01 5.66359E-08 1.06491E-08
 -1        32 6.78560E+02 3.76641E+03 1.31719E+03 7.79971E+02-3.25247E-09 1.00546E-07
 -1        33 4.21317E+02 1.45237E+03 5.56935E+02 5.74582E+02-4.63053E-08 9.18338E-08
 -1        34-1.99018E+02-1.07091E+03-3.84651E+02 4.53489E+02-6.65543E-08 3.68206E-08
 -1        35-5.11672E+02-2.53676E+03-9.22308E+02 1.19790E+02-6.41633E-08-5.48364E-08
 -1        36-5.38092E+02-2.44155E+03-9.00568E+02-1.65339E+02-3.00552E-08-1.05769E-07
 -1        37-2.93912E+02-1.37886E+03-5.04232E+02-2.36274E+02 1.00859E-08-8.56830E-08
 -1        38-1.05547E+02-4.08221E+02-1.54497E+02-1.60973E+02 1.20971E-08-5.04103E-08
 -1        39 2.91297E+01 9.27949E+01 3.65230E+01-6.34787E+01 1.27401E-08-3.04602E-08
 -1        40 5.26868E+01 2.12338E+02 7.94546E+01-8.87749E+00 2.92601E-08-2.66300E-08
 -1        41 7.91142E+01 2.19582E+02 8.95562E+01 9.71668E-01 4.94569E-08-3.22678E-08
 -1        42 4.18101E+01 2.02869E+02 7.33555E+01-3.06491E+00 5.49736E-08 2.70712E-08
 -1        43 4.88940E+01 2.28140E+02 8.30488E+01-1.22658E+00 2.24781E-08 5.02356E-08
 -1        44 3.28393E+01 2.56628E+02 8.67586E+01 3.58497E+00-2.36613E-08 1.10627E-07
 -1        45 4.92691E+01 2.90109E+02 1.01714E+02 3.10727E+00-4.08371E-08 3.18458E-08
 -1        46 1.04369E+01 2.64310E+02 8.23349E+01-1.39358E+00-3.58267E-08-3.64176E-08
 -1        47 1.36403E+01 2.34982E+02 7.45171E+01-1.48233E+01-1.81283E-08-7.56477E-08
 -1        48 2.72147E+01 2.39229E+02 7.98577E+01-3.55607E+01 1.20276E-08-9.84461E-08
 -1        49 1.04871E+02 3.20595E+02 1.27514E+02-5.14670E+01 4.43194E-08-2.76088E-08
 -1        50 1.11270E+02 3.45930E+02 1.37018E+02-4.45983E+01 5.66359E-08 1.06489E-08
 -1        51 1.12091E+02 2.79991E+02 1.17519E+02-7.11729E+01-5.03336E-08-1.85342E-09
 -1        52 1.24008E+02 4.15100E+02 1.61520E+02-4.72009E+01-5.89268E-08-4.44301E-08
 -1        53 6.36173E+01 5.18441E+02 1.74282E+02-2.36395E+01-3.97998E-08-8.75046E-08
 -1        54 5.09668E+01 5.62190E+02 1.83548E+02-1.36738E+01 9.00505E-09-8.00453E-08
 -1        55 2.18070E+01 4.95737E+02 1.54940E+02-7.33431E+00 5.04708E-08-2.41564E-08
 -1        56-2.07221E+01 3.79139E+02 1.07316E+02-2.52405E+00 4.87555E-08 1.79424E-08
 -1        57-5.04007E+01 2.67690E+02 6.50667E+01-2.21606E+00 2.10981E-08 4.85304E-08
 -1        58-5.20813E+01 1.82462E+02 3.90515E+01-8.48491E+00-1.70930E-08 1.06387E-07
 -1        59-8.26949E+01 1.02068E+02 5.77708E+00-8.22536E+00-3.55955E-08 1.42200E-08
 -1        60-1.31534E+02 1.30927E+01-3.55589E+01-1.88890E+00-2.19189E-08-1.29488E-08
 -1        61-1.26286E+02-4.71206E+01-5.20429E+01-1.07436E+01-1.68663E-08-4.85646E-08
 -1        62-8.27063E+01 3.92864E+01-1.30775E+01-6.53075E+01-1.91507E-08-4.09665E-08
 -1        63 1.96646E+01 5.10306E+02 1.58476E+02-1.63564E+02-2.97703E-08-5.29799E-08
 -1        64 1.98404E+02 1.47593E+03 4.99512E+02-2.37922E+02-2.47293E-08-8.29327E-08
 -1        65 4.28053E+02 2.53026E+03 8.80348E+02-1.48314E+02 2.70691E-08-1.03237E-07
 -1        66 4.37626E+02 2.62397E+03 9.10156E+02 1.66184E+02 6.69383E-08-5.96746E-08
 -1        67 1.27906E+02 1.13570E+03 3.75140E+02 4.87144E+02 5.93230E-08 4.30459E-08
 -1        68-5.43019E+02-1.40795E+03-5.90242E+02 5.35658E+02 3.63780E-08 7.34063E-08
 -1        69-7.21814E+02-3.67599E+03-1.33523E+03 6.86986E+02-9.67368E-10 1.06185E-07
 -1        70 1.12091E+02 2.79991E+02 1.17519E+02-7.11729E+01-5.03336E-08-1.85326E-09
 -1        71 1.24008E+02 4.15100E+02 1.61520E+02-4.72009E+01-5.89268E-08-4.44301E-08
 -1        72 6.36173E+01 5.18441E+02 1.74282E+02-2.36395E+01-3.97998E-08-8.75046E-08
 -1        73 5.09668E+01 5.62190E+02 1.83548E+02-1.36738E+01 9.00502E-09-8.00450E-08
 -1        74 2.18070E+01 4.95737E+02 1.54940E+02-7.33431E+00 5.04708E-08-2.41567E-08
 -1        75-2.07221E+01 3.79139E+02 1.07316E+02-2.52405E+00 4.87555E-08 1.79424E-08
 -1        76-5.04007E+01 2.67690E+02 6.50667E+01-2.21606E+00 2.10981E-08 4.85304E-08
 -1        77-5.20813E+01 1.82462E+02 3.90515E+01-8.48491E+00-1.70930E-08 1.06387E-07
 -1        78-8.26949E+01 1.02068E+02 5.77708E+00-8.22536E+00-3.55956E-08 1.42197E-08
 -1        79-1.31534E+02 1.30927E+01-3.55589E+01-1.88890E+00-2.19189E-08-1.29490E-08
 -1        80-1.26286E+02-4.71206E+01-5.20429E+01-1.07436E+01-1.68663E-08-4.85645E-08
 -1        81-8.27063E+01 3.92864E+01-1.30775E+01-6.53075E+01-1.91507E-08-4.09665E-08
 -1        82 1.96646E+01 5.10306E+02 1.58476E+02-1.63564E+02-2.97703E-08-5.29799E-08
 -1        83 1.98404E+02 1.47593E+03 4.99512E+02-2.37922E+02-2.47293E-08-8.29329E-08
 -1        84 4.28053E+02 2.53026E+03 8.80348E+02-1.48314E+02 2.70691E-08-1.03237E-07
 -1        85 4.37626E+02 2.62397E+03 9.10156E+02 1.66184E+02 6.69382E-08-5.96742E-08
 -1        86 1.27906E+02 1.13570E+03 3.75140E+02 4.87144E+02 5.93230E-08 4.30458E-08
 -1        87-5.43019E+02-1.40795E+03-5.90242E+02 5.35658E+02 3.63780E-08 7.34063E-08
 -1        88-7.21814E+02-3.67599E+03-1.33523E+03 6.86986E+02-9.67368E-10 1.06185E-07
 -1        89-1.47455E+01-1.00547E+01-7.87763E+00 7.09942E+02-3.84695E-09 1.08669E-07
 -1        90-3.70616E+01 3.19421E+01-2.82122E+00 7.65991E+02-6.74193E-09 9.21893E-08
 -1        91-2.60022E+01 2.47572E+01-1.67044E+00 6.03684E+02-5.56335E-09 3.15302E-08
 -1        92-3.47810E+01 1.31974E+01-7.51072E+00 1.90317E+02-8.77283E-10-3.88811E-08
 -1        93-5.16293E+01 2.52291E+01-7.97181E+00-2.03536E+02 3.01954E-09-1.24661E-07
 -1        94-4.37726E+01 4.63268E+01 7.38036E-01-3.15557E+02-5.22930E-09-9.31732E-08
 -1        95-4.31986E+01 4.77489E+01 1.25520E+00-2.18452E+02-1.08508E-08-4.36795E-08
 -1        96-3.03077E+01 5.74664E+01 8.09556E+00-8.19318E+01-6.48480E-09-3.55379E-08
 -1        97-3.72113E+01 8.16058E+01 1.32982E+01-6.88963E+00 5.84905E-09-3.30305E-08
 -1        98-2.40870E+01 1.21275E+02 2.91271E+01 7.19051E-01 1.40546E-08-2.73182E-08
 -1        99-2.16583E+01 1.49596E+02 3.83431E+01-9.21892E+00 1.30550E-08 1.65003E-08
 -1       100-4.79478E+00 1.97824E+02 5.78503E+01-4.27172E+00-8.15763E-09 8.83199E-08
 -1       101-8.16030E+00 2.63626E+02 7.65372E+01 3.01736E+00-1.36698E-08 8.12524E-08
 -1       102 1.82027E+01 3.43800E+02 1.08441E+02 2.45584E-01 1.26447E-08 3.35327E-08
 -1       103 2.07172E+01 3.90714E+02 1.23231E+02-4.86424E+00 1.74103E-08-2.97606E-08
 -1       104 3.92638E+01 4.14750E+02 1.35983E+02-1.46870E+01-4.41191E-09-8.33423E-08
 -1       105 5.28876E+01 3.96125E+02 1.34504E+02-3.67597E+01-2.02727E-08-8.86770E-08
 -1       106 1.22732E+02 3.87060E+02 1.52755E+02-5.91672E+01-1.07991E-08-3.90506E-08
 -1       107 1.55458E+02 4.15310E+02 1.71023E+02-6.14997E+01 4.80551E-09 3.64342E-09
 -1       108 1.55458E+02 4.15310E+02 1.71023E+02-6.14997E+01 4.80554E-09 3.64356E-09
 -1       109 1.22732E+02 3.87060E+02 1.52755E+02-5.91672E+01-1.07992E-08-3.90508E-08
 -1       110 5.28876E+01 3.96125E+02 1.34504E+02-3.67597E+01-2.02727E-08-8.86771E-08
 -1       111 3.92638E+01 4.14750E+02 1.35983E+02-1.46870E+01-4.41191E-09-8.33422E-08
 -1       112 2.07172E+01 3.90714E+02 1.23231E+02-4.86424E+00 1.74103E-08-2.97606E-08
 -1       113 1.82027E+01 3.43800E+02 1.08441E+02 2.45584E-01 1.26447E-08 3.35327E-08
 -1       114-8.16030E+00 2.63626E+02 7.65372E+01 3.01736E+00-1.36698E-08 8.12524E-08
 -1       115-4.79478E+00 1.97824E+02 5.78503E+01-4.27172E+00-8.15763E-09 8.83200E-08
 -1       116-2.16583E+01 1.49596E+02 3.83431E+01-9.21892E+00 1.30550E-08 1.65001E-08
 -1       117-2.40870E+01 1.21275E+02 2.91271E+01 7.19050E-01 1.40546E-08-2.73184E-08
 -1       118-3.72113E+01 8.16058E+01 1.32982E+01-6.88963E+00 5.84905E-09-3.30303E-08
 -1       119-3.03077E+01 5.74664E+01 8.09556E+00-8.19318E+01-6.48480E-09-3.55378E-08
 -1       120-4.31986E+01 4.77489E+01 1.25520E+00-2.18452E+02-1.08508E-08-4.36796E-08
 -1       121-4.37726E+01 4.63268E+01 7.38036E-01-3.15557E+02-5.22930E-09-9.31730E-08
 -1       122-5.16293E+01 2.52291E+01-7.97181E+00-2.03536E+02 3.01954E-09-1.24661E-07
 -1       123-3.47810E+01 1.31974E+01-7.51072E+00 1.90317E+02-8.77294E-10-3.88813E-08
 -1       124-2.60022E+01 2.47572E+01-1.67044E+00 6.03684E+02-5.56337E-09 3.15303E-08
 -1       125-3.70616E+01 3.19421E+01-2.82122E+00 7.65991E+02-6.74194E-09 9.21893E-08
 -1       126-1.47455E+01-1.00547E+01-7.87763E+00 7.09942E+02-3.84695E-09 1.08669E-07
 -3
    1PSTEP                        19           5           1          
  100CL  105 5.00000E-02         126                     1    5           1
 -4  TOSTRAIN    6    1
 -5  EXX         1    4    1    1
 -5  EYY         1    4    2    2
 -5  EZZ         1    4    3    3
 -5  EXY         1    4    1    2
 -5  EYZ         1    4    2    3
 -5  EZX         1    4    3    1
 -1         1-8.78850E-06 1.00848E-02-3.56896E-26 6.13776E-03 1.97119E-19 9.38498E-17
 -1         2-8.78850E-06 1.00848E-02-3.56896E-26 6.13776E-03 1.97119E-19 9.38498E-17
 -1         3-1.42956E-05 6.50590E-04 6.53797E-26 7.21996E-06 1.65921E-13 9.87253E-14
 -1         4-1.42956E-05 6.50590E-04 6.53799E-26 7.21995E-06 1.65921E-13 9.87257E-14
 -1         5 2.72570E-05 3.98357E-04 1.12149E-25-4.07310E-04-1.55627E-13 2.13577E-13
 -1         6 2.72570E-05 3.98357E-04 1.12149E-25-4.07310E-04-1.55627E-13 2.13577E-13
 -1         7-8.60594E-06-9.93852E-03-3.96468E-26 5.97250E-03 1.30732E-19-1.22044E-16
 -1         8-8.60594E-06-9.93852E-03-3.96468E-26 5.97250E-03 1.30732E-19-1.22044E-16
 -1         9 6.48070E-06 8.57690E-04 3.18646E-26-1.94046E-04 2.07918E-14 1.53499E-13
 -1        10 6.48070E-06 8.57690E-04 3.18643E-26-1.94046E-04 2.07918E-14 1.53498E-13
 -1        11-8.69722E-06-4.12816E-05-4.16522E-26 5.03579E-03 1.07359E-19-2.01009E-17
 -1        12-8.69722E-06-4.12816E-05-4.16522E-26 5.03579E-03 1.07359E-19-2.01009E-17
 -1        13-2.15672E-03 7.89019E-03 1.93428E-25 2.38880E-03-7.44977E-15 3.26530E-13
 -1        14-5.12667E-04 2.93662E-03 2.10029E-25 1.80256E-03-1.45310E-13 3.01075E-13
 -1        15 5.42820E-04-2.20316E-03 8.97714E-26 1.51933E-03-2.15074E-13 1.23678E-13
 -1        16 1.30334E-03-5.28847E-03 1.16083E-25 4.63590E-04-2.11928E-13-1.75850E-13
 -1        17 1.16951E-03-5.06049E-03 2.41745E-25-5.11142E-04-9.99494E-14-3.43669E-13
 -1        18 6.80195E-04-2.86063E-03 1.51021E-25-7.71070E-04 3.27695E-14-2.78559E-13
 -1        19 1.56750E-04-8.25485E-04 5.19503E-26-5.26125E-04 3.95677E-14-1.63774E-13
 -1        20-2.49523E-05 1.83290E-04 2.04644E-26-2.06053E-04 4.15403E-14-9.89124E-14
 -1        21-8.71063E-05 4.31520E-04 2.97677E-26-2.81814E-05 9.51474E-14-8.64184E-14
 -1        22-3.39241E-05 4.22148E-04 6.22120E-26 3.62994E-06 1.60748E-13-1.04689E-13
 -1        23-1.02545E-04 4.20519E-04 6.43980E-26-9.43792E-06 1.78476E-13 8.81524E-14
 -1        24-1.11016E-04 4.71024E-04 4.51449E-26-3.44416E-06 7.28556E-14 1.63322E-13
 -1        25-1.75244E-04 5.51340E-04 2.48081E-25 1.23163E-05-7.71811E-14 3.59459E-13
 -1        26-1.70448E-04 6.11397E-04 2.76524E-26 1.08896E-05-1.32717E-13 1.03360E-13
 -1        27-2.33770E-04 5.90670E-04 3.39789E-26-3.50698E-06-1.16196E-13-1.18508E-13
 -1        28-1.98131E-04 5.21119E-04 1.22471E-25-4.69675E-05-5.84873E-14-2.45964E-13
 -1        29-1.71707E-04 5.17857E-04 1.91639E-25-1.13984E-04 3.96992E-14-3.19858E-13
 -1        30-7.44412E-05 6.27307E-04 3.30776E-26-1.65324E-04 1.44109E-13-8.93369E-14
 -1        31-8.44155E-05 6.78509E-04 5.69654E-26-1.42876E-04 1.83805E-13 3.50728E-14
 -1        32-2.15672E-03 7.89019E-03 1.93428E-25 2.38880E-03-7.44977E-15 3.26530E-13
 -1        33-5.12667E-04 2.93662E-03 2.10029E-25 1.80256E-03-1.45310E-13 3.01075E-13
 -1        34 5.42820E-04-2.20316E-03 8.97713E-26 1.51933E-03-2.15074E-13 1.23678E-13
 -1        35 1.30334E-03-5.28847E-03 1.16083E-25 4.63590E-04-2.11928E-13-1.75850E-13
 -1        36 1.16951E-03-5.06049E-03 2.41745E-25-5.11142E-04-9.99494E-14-3.43669E-13
 -1        37 6.80195E-04-2.86063E-03 1.51022E-25-7.71070E-04 3.27696E-14-2.78560E-13
 -1        38 1.56750E-04-8.25485E-04 5.19500E-26-5.26125E-04 3.95677E-14-1.63774E-13
 -1        39-2.49523E-05 1.83290E-04 2.04644E-26-2.06053E-04 4.15403E-14-9.89126E-14
 -1        40-8.71063E-05 4.31520E-04 2.97678E-26-2.81814E-05 9.51474E-14-8.64186E-14
 -1        41-3.39241E-05 4.22148E-04 6.22119E-26 3.62994E-06 1.60748E-13-1.04688E-13
 -1        42-1.02545E-04 4.20519E-04 6.43982E-26-9.43792E-06 1.78476E-13 8.81528E-14
 -1        43-1.11016E-04 4.71024E-04 4.51448E-26-3.44416E-06 7.28556E-14 1.63321E-13
 -1        44-1.75244E-04 5.51340E-04 2.48081E-25 1.23163E-05-7.71811E-14 3.59459E-13
 -1        45-1.70448E-04 6.11397E-04 2.76523E-26 1.08896E-05-1.32717E-13 1.03359E-13
 -1        46-2.33770E-04 5.90670E-04 3.39789E-26-3.50698E-06-1.16196E-13-1.18508E-13
 -1        47-1.98131E-04 5.21119E-04 1.22471E-25-4.69675E-05-5.84873E-14-2.45964E-13
 -1        48-1.71707E-04 5.17857E-04 1.91640E-25-1.13984E-04 3.96992E-14-3.19859E-13
 -1        49-7.44412E-05 6.27307E-04 3.30778E-26-1.65324E-04 1.44109E-13-8.93369E-14
 -1        50-8.44155E-05 6.78509E-04 5.69654E-26-1.42876E-04 1.83805E-13 3.50723E-14
 -1        51-1.87769E-05 5.28284E-04 3.14615E-26-2.29786E-04-1.63441E-13-6.42286E-15
 -1        52-1.22641E-04 8.23069E-04 9.96360E-26-1.51080E-04-1.90991E-13-1.44817E-13
 -1        53-3.60097E-04 1.11589E-03 1.86259E-25-7.38238E-05-1.28628E-13-2.84643E-13
 -1        54-4.31287E-04 1.22728E-03 1.24165E-25-4.17214E-05 2.96155E-14-2.60107E-13
 -1        55-4.32981E-04 1.10484E-03 5.05441E-26-2.18553E-05 1.63890E-13-7.83064E-14
 -1        56-4.16396E-04 8.81657E-04 4.55048E-26-6.78904E-06 1.58218E-13 5.84937E-14
 -1        57-3.75509E-04 6.57555E-04 4.11364E-26-6.17154E-06 6.83575E-14 1.57830E-13
 -1        58-2.96386E-04 4.65644E-04 2.21939E-25-2.68102E-05-5.58548E-14 3.45775E-13
 -1        59-2.87750E-04 3.12789E-04 6.17444E-27-2.61358E-05-1.15692E-13 4.61090E-14
 -1        60-3.12149E-04 1.58087E-04 4.94340E-27-5.64139E-06-7.11843E-14-4.21769E-14
 -1        61-2.41576E-04 1.61031E-05 5.12129E-26-3.46221E-05-5.46205E-14-1.57963E-13
 -1        62-2.27307E-04 1.70672E-04 4.21014E-26-2.11470E-04-6.20337E-14-1.33292E-13
 -1        63-4.53722E-04 1.14121E-03 7.46180E-26-5.27508E-04-9.63983E-14-1.72423E-13
 -1        64-9.82616E-04 3.15160E-03 1.50626E-25-7.69956E-04-8.01796E-14-2.69569E-13
 -1        65-1.47983E-03 5.30536E-03 2.27243E-25-5.10873E-04 8.58121E-14-3.35651E-13
 -1        66-1.57038E-03 5.52534E-03 1.27557E-25 4.59627E-04 2.13923E-13-1.96415E-13
 -1        67-8.67052E-04 2.49878E-03 7.65059E-26 1.52837E-03 1.94308E-13 1.36303E-13
 -1        68 8.38616E-05-2.63023E-03 1.27606E-25 1.79433E-03 1.22343E-13 2.36560E-13
 -1        69 1.91909E-03-7.67778E-03 2.14184E-25 2.37144E-03 9.26399E-18 3.45536E-13
 -1        70-1.87769E-05 5.28284E-04 3.14615E-26-2.29786E-04-1.63441E-13-6.42235E-15
 -1        71-1.22641E-04 8.23069E-04 9.96360E-26-1.51080E-04-1.90991E-13-1.44817E-13
 -1        72-3.60097E-04 1.11589E-03 1.86259E-25-7.38238E-05-1.28628E-13-2.84643E-13
 -1        73-4.31287E-04 1.22728E-03 1.24164E-25-4.17214E-05 2.96154E-14-2.60106E-13
 -1        74-4.32981E-04 1.10484E-03 5.05447E-26-2.18553E-05 1.63890E-13-7.83075E-14
 -1        75-4.16396E-04 8.81657E-04 4.55048E-26-6.78904E-06 1.58218E-13 5.84936E-14
 -1        76-3.75509E-04 6.57555E-04 4.11365E-26-6.17154E-06 6.83575E-14 1.57830E-13
 -1        77-2.96386E-04 4.65644E-04 2.21939E-25-2.68102E-05-5.58548E-14 3.45775E-13
 -1        78-2.87750E-04 3.12789E-04 6.17411E-27-2.61358E-05-1.15692E-13 4.61082E-14
 -1        79-3.12149E-04 1.58087E-04 4.94363E-27-5.64139E-06-7.11844E-14-4.21776E-14
 -1        80-2.41576E-04 1.61031E-05 5.12128E-26-3.46221E-05-5.46205E-14-1.57963E-13
 -1        81-2.27307E-04 1.70672E-04 4.21014E-26-2.11470E-04-6.20337E-14-1.33292E-13
 -1        82-4.53722E-04 1.14121E-03 7.46180E-26-5.27508E-04-9.63983E-14-1.72423E-13
 -1        83-9.82616E-04 3.15160E-03 1.50627E-25-7.69956E-04-8.01796E-14-2.69570E-13
 -1        84-1.47983E-03 5.30536E-03 2.27243E-25-5.10873E-04 8.58122E-14-3.35651E-13
 -1        85-1.57038E-03 5.52534E-03 1.27556E-25 4.59627E-04 2.13923E-13-1.96414E-13
 -1        86-8.67052E-04 2.49878E-03 7.65060E-26 1.52837E-03 1.94308E-13 1.36303E-13
 -1        87 8.38616E-05-2.63023E-03 1.27606E-25 1.79433E-03 1.22343E-13 2.36560E-13
 -1        88 1.91909E-03-7.67778E-03 2.14184E-25 2.37144E-03 9.26398E-18 3.45536E-13
 -1        89-1.18820E-04 7.73238E-05 2.29101E-25 2.30586E-03-9.24278E-15 3.53351E-13
 -1        90-2.14403E-04 1.99357E-04 1.68041E-25 2.48402E-03-1.73095E-14 3.00074E-13
 -1        91-1.62116E-04 1.53398E-04-7.29032E-27 1.95768E-03-1.64493E-14 1.02821E-13
 -1        92-1.33520E-04 9.80421E-05-5.08411E-27 6.16531E-04-4.16760E-15-1.26341E-13
 -1        93-1.55157E-04 1.17731E-04 3.10936E-25-6.62384E-04 7.89732E-15-4.05241E-13
 -1        94-1.51211E-04 1.53287E-04 1.77348E-25-1.02537E-03-1.71264E-14-3.02884E-13
 -1        95-1.48486E-04 1.53733E-04 3.66924E-26-7.09375E-04-3.50753E-14-1.42073E-13
 -1        96-1.26130E-04 1.61210E-04 2.61925E-26-2.65767E-04-2.09020E-14-1.15552E-13
 -1        97-1.64341E-04 2.21970E-04 2.11890E-26-2.19166E-05 1.91406E-14-1.07338E-13
 -1        98-1.73036E-04 2.99286E-04 1.18017E-26 2.83552E-06 4.57567E-14-8.87466E-14
 -1        99-1.95148E-04 3.61337E-04-1.06001E-26-2.93938E-05 4.23582E-14 5.36753E-14
 -1       100-2.03701E-04 4.54460E-04 1.53571E-25-1.32443E-05-2.67681E-14 2.87036E-13
 -1       101-2.75377E-04 6.07164E-04 1.34477E-25 1.06445E-05-4.46477E-14 2.64056E-13
 -1       102-2.93422E-04 7.63569E-04 7.60501E-27 1.91778E-06 4.09407E-14 1.09031E-13
 -1       103-3.33376E-04 8.67659E-04 5.47850E-27-1.42806E-05 5.66398E-14-9.66558E-14
 -1       104-3.14709E-04 9.04310E-04 1.40927E-25-4.56990E-05-1.38999E-14-2.70891E-13
 -1       105-2.65902E-04 8.49084E-04 1.68011E-25-1.17020E-04-6.52560E-14-2.88333E-13
 -1       106-9.85410E-05 7.60913E-04 1.71417E-26-1.89958E-04-3.47860E-14-1.26973E-13
 -1       107-5.15962E-05 7.93239E-04-1.62217E-26-1.97543E-04 1.55763E-14 1.18772E-14
 -1       108-5.15962E-05 7.93239E-04-1.62216E-26-1.97543E-04 1.55764E-14 1.18777E-14
 -1       109-9.85410E-05 7.60913E-04 1.71420E-26-1.89958E-04-3.47860E-14-1.26973E-13
 -1       110-2.65902E-04 8.49084E-04 1.68011E-25-1.17020E-04-6.52559E-14-2.88333E-13
 -1       111-3.14709E-04 9.04310E-04 1.40927E-25-4.56990E-05-1.38999E-14-2.70891E-13
 -1       112-3.33376E-04 8.67659E-04 5.47841E-27-1.42806E-05 5.66398E-14-9.66557E-14
 -1       113-2.93422E-04 7.63569E-04 7.60504E-27 1.91778E-06 4.09407E-14 1.09031E-13
 -1       114-2.75377E-04 6.07164E-04 1.34477E-25 1.06445E-05-4.46477E-14 2.64057E-13
 -1       115-2.03701E-04 4.54460E-04 1.53571E-25-1.32443E-05-2.67681E-14 2.87037E-13
 -1       116-1.95148E-04 3.61337E-04-1.06003E-26-2.93938E-05 4.23582E-14 5.36750E-14
 -1       117-1.73036E-04 2.99286E-04 1.18019E-26 2.83552E-06 4.57567E-14-8.87471E-14
 -1       118-1.64341E-04 2.21970E-04 2.11887E-26-2.19166E-05 1.91406E-14-1.07338E-13
 -1       119-1.26130E-04 1.61210E-04 2.61924E-26-2.65767E-04-2.09020E-14-1.15552E-13
 -1       120-1.48486E-04 1.53733E-04 3.66926E-26-7.09375E-04-3.50753E-14-1.42073E-13
 -1       121-1.51211E-04 1.53287E-04 1.77347E-25-1.02537E-03-1.71264E-14-3.02883E-13
 -1       122-1.55157E-04 1.17731E-04 3.10936E-25-6.62384E-04 7.89732E-15-4.05241E-13
 -1       123-1.33520E-04 9.80421E-05-5.08395E-27 6.16531E-04-4.16764E-15-1.26341E-13
 -1       124-1.62116E-04 1.53398E-04-7.29031E-27 1.95768E-03-1.64494E-14 1.02822E-13
 -1       125-2.14403E-04 1.99357E-04 1.68041E-25 2.48402E-03-1.73095E-14 3.00074E-13
 -1       126-1.18820E-04 7.73238E-05 2.29101E-25 2.30586E-03-9.24278E-15 3.53351E-13
 -3
    1PSTEP                        20           5           1          
  100CL  105 5.00000E-02         126                     1    5           1
 -4  ERROR       1    1
 -5  STR(%)      1    1    0    0
 -1         1 6.19509E+01
 -1         2 6.19509E+01
 -1         3 5.84048E+00
 -1         4 5.84048E+00
 -1         5 2.29771E+01
 -1         6 2.29771E+01
 -1         7 6.02184E+01
 -1         8 6.02184E+01
 -1         9 2.29771E+01
 -1        10 2.29771E+01
 -1        11 6.19509E+01
 -1        12 6.19509E+01
 -1        13 6.19509E+01
 -1        14 4.40985E+01
 -1        15 5.46815E+01
 -1        16 6.20047E+01
 -1        17 6.20047E+01
 -1        18 6.06132E+01
 -1        19 4.50289E+01
 -1        20 3.12833E+01
 -1        21 2.44528E+01
 -1        22 1.50207E+01
 -1        23 4.96248E+00
 -1        24 2.32251E+00
 -1        25 3.14384E+00
 -1        26 7.60232E+00
 -1        27 1.58583E+01
 -1        28 1.95812E+01
 -1        29 1.95812E+01
 -1        30 8.62929E+00
 -1        31 5.84048E+00
 -1        32 6.19509E+01
 -1        33 4.40985E+01
 -1        34 5.46815E+01
 -1        35 6.20047E+01
 -1        36 6.20047E+01
 -1        37 6.06132E+01
 -1        38 4.50289E+01
 -1        39 3.12833E+01
 -1        40 2.44528E+01
 -1        41 1.50207E+01
 -1        42 4.96248E+00
 -1        43 2.32251E+00
 -1        44 3.14384E+00
 -1        45 7.60232E+00
 -1        46 1.58583E+01
 -1        47 1.95812E+01
 -1        48 1.95812E+01
 -1        49 8.62929E+00
 -1        50 5.84048E+00
 -1        51 2.29771E+01
 -1        52 6.35782E+00
 -1        53 8.79549E+00
 -1        54 8.79549E+00
 -1        55 7.40334E+00
 -1        56 4.10248E+00
 -1        57 2.96452E+00
 -1        58 2.96452E+00
 -1        59 6.75990E+00
 -1        60 1.91055E+01
 -1        61 1.94532E+01
 -1        62 3.37042E+01
 -1        63 4.24725E+01
 -1        64 5.82726E+01
 -1        65 6.14310E+01
 -1        66 6.14310E+01
 -1        67 5.49806E+01
 -1        68 4.40461E+01
 -1        69 6.02184E+01
 -1        70 2.29771E+01
 -1        71 6.35782E+00
 -1        72 8.79549E+00
 -1        73 8.79549E+00
 -1        74 7.40334E+00
 -1        75 4.10248E+00
 -1        76 2.96452E+00
 -1        77 2.96452E+00
 -1        78 6.75990E+00
 -1        79 1.91055E+01
 -1        80 1.94532E+01
 -1        81 3.37042E+01
 -1        82 4.24725E+01
 -1        83 5.82726E+01
 -1        84 6.14310E+01
 -1        85 6.14310E+01
 -1        86 5.49806E+01
 -1        87 4.40461E+01
 -1        88 6.02184E+01
 -1        89 6.19509E+01
 -1        90 4.40985E+01
 -1        91 5.49806E+01
 -1        92 6.20047E+01
 -1        93 6.20047E+01
 -1        94 6.06132E+01
 -1        95 4.50289E+01
 -1        96 3.37042E+01
 -1        97 2.44528E+01
 -1        98 1.91055E+01
 -1        99 6.75990E+00
 -1       100 2.96452E+00
 -1       101 3.14384E+00
 -1       102 7.60232E+00
 -1       103 1.58583E+01
 -1       104 1.95812E+01
 -1       105 1.95812E+01
 -1       106 8.62929E+00
 -1       107 2.29771E+01
 -1       108 2.29771E+01
 -1       109 8.62929E+00
 -1       110 1.95812E+01
 -1       111 1.95812E+01
 -1       112 1.58583E+01
 -1       113 7.60232E+00
 -1       114 3.14384E+00
 -1       115 2.96452E+00
 -1       116 6.75990E+00
 -1       117 1.91055E+01
 -1       118 2.44528E+01
 -1       119 3.37042E+01
 -1       120 4.50289E+01
 -1       121 6.06132E+01
 -1       122 6.20047E+01
 -1       123 6.20047E+01
 -1       124 5.49806E+01
 -1       125 4.40985E+01
 -1       126 6.19509E+01
 -3
    1PSTEP                        21           6           1          
  100CL  106 6.00000E-02         126                     1    6           1
 -4  DISP        4    1
 -5  D1          1    2    1    0
 -5  D2          1    2    2    0
 -5  D3          1    2    3    0
 -5  ALL         1    2    0    0    1ALL
 -1         1 0.00000E+00 0.00000E+00 0.00000E+00
 -1         2 0.00000E+00 0.00000E+00 0.00000E+00
 -1         3 3.48797E-03 3.19191E-04 0.00000E+00
 -1         4 3.48797E-03 3.19191E-04 0.00000E+00
 -1         5 3.49627E-03 5.80079E-04 0.00000E+00
 -1         6 3.49627E-03 5.80079E-04 0.00000E+00
 -1         7 0.00000E+00 0.00000E+00 0.00000E+00
 -1         8 0.00000E+00 0.00000E+00 0.00000E+00
 -1         9 3.48602E-03 4.64559E-04 0.00000E+00
 -1        10 3.48602E-03 4.64559E-04 0.00000E+00
 -1        11 0.00000E+00 0.00000E+00 0.00000E+00
 -1        12 0.00000E+00 0.00000E+00 0.00000E+00
 -1        13 6.47330E-04 5.41982E-04 0.00000E+00
 -1        14 1.57782E-03 8.64226E-04 0.00000E+00
 -1        15 2.70526E-03 9.55881E-04 0.00000E+00
 -1        16 3.82741E-03 8.36489E-04 0.00000E+00
 -1        17 4.63868E-03 5.31854E-04 0.00000E+00
 -1        18 4.94024E-03 1.91948E-04 0.00000E+00
 -1        19 4.85952E-03-2.34153E-05 0.00000E+00
 -1        20 4.66116E-03-7.98131E-05 0.00000E+00
 -1        21 4.50610E-03-4.74160E-05 0.00000E+00
 -1        22 4.41167E-03 2.41416E-06 0.00000E+00
 -1        23 4.34116E-03 5.08958E-05 0.00000E+00
 -1        24 4.28770E-03 1.02869E-04 0.00000E+00
 -1        25 4.25049E-03 1.50701E-04 0.00000E+00
 -1        26 4.20819E-03 1.83441E-04 0.00000E+00
 -1        27 4.13329E-03 2.06372E-04 0.00000E+00
 -1        28 4.02729E-03 2.29267E-04 0.00000E+00
 -1        29 3.90510E-03 2.51645E-04 0.00000E+00
 -1        30 3.77130E-03 2.72756E-04 0.00000E+00
 -1        31 3.62656E-03 2.98505E-04 0.00000E+00
 -1        32 6.47330E-04 5.41982E-04 0.00000E+00
 -1        33 1.57782E-03 8.64226E-04 0.00000E+00
 -1        34 2.70526E-03 9.55881E-04 0.00000E+00
 -1        35 3.82741E-03 8.36489E-04 0.00000E+00
 -1        36 4.63868E-03 5.31854E-04 0.00000E+00
 -1        37 4.94024E-03 1.91948E-04 0.00000E+00
 -1        38 4.85952E-03-2.34153E-05 0.00000E+00
 -1        39 4.66116E-03-7.98131E-05 0.00000E+00
 -1        40 4.50610E-03-4.74160E-05 0.00000E+00
 -1        41 4.41167E-03 2.41416E-06 0.00000E+00
 -1        42 4.34116E-03 5.08958E-05 0.00000E+00
 -1        43 4.28770E-03 1.02869E-04 0.00000E+00
 -1        44 4.25049E-03 1.50701E-04 0.00000E+00
 -1        45 4.20819E-03 1.83441E-04 0.00000E+00
 -1        46 4.13329E-03 2.06372E-04 0.00000E+00
 -1        47 4.02729E-03 2.29267E-04 0.00000E+00
 -1        48 3.90510E-03 2.51645E-04 0.00000E+00
 -1        49 3.77130E-03 2.72756E-04 0.00000E+00
 -1        50 3.62656E-03 2.98505E-04 0.00000E+00
 -1        51 3.62794E-03 5.65161E-04 0.00000E+00
 -1        52 3.77619E-03 5.31279E-04 0.00000E+00
 -1        53 3.90739E-03 4.87368E-04 0.00000E+00
 -1        54 4.01976E-03 4.37729E-04 0.00000E+00
 -1        55 4.12130E-03 3.76693E-04 0.00000E+00
 -1        56 4.19581E-03 3.07110E-04 0.00000E+00
 -1        57 4.23572E-03 2.46562E-04 0.00000E+00
 -1        58 4.27420E-03 2.07468E-04 0.00000E+00
 -1        59 4.33566E-03 1.83880E-04 0.00000E+00
 -1        60 4.41310E-03 1.69978E-04 0.00000E+00
 -1        61 4.50905E-03 1.69078E-04 0.00000E+00
 -1        62 4.66461E-03 1.60020E-04 0.00000E+00
 -1        63 4.86875E-03 6.99017E-05 0.00000E+00
 -1        64 4.95153E-03-1.72609E-04 0.00000E+00
 -1        65 4.64263E-03-5.32725E-04 0.00000E+00
 -1        66 3.82074E-03-8.46949E-04 0.00000E+00
 -1        67 2.69726E-03-9.65595E-04 0.00000E+00
 -1        68 1.58054E-03-8.69586E-04 0.00000E+00
 -1        69 6.53443E-04-5.44213E-04 0.00000E+00
 -1        70 3.62794E-03 5.65161E-04 0.00000E+00
 -1        71 3.77619E-03 5.31279E-04 0.00000E+00
 -1        72 3.90739E-03 4.87368E-04 0.00000E+00
 -1        73 4.01976E-03 4.37729E-04 0.00000E+00
 -1        74 4.12130E-03 3.76693E-04 0.00000E+00
 -1        75 4.19581E-03 3.07110E-04 0.00000E+00
 -1        76 4.23572E-03 2.46562E-04 0.00000E+00
 -1        77 4.27420E-03 2.07468E-04 0.00000E+00
 -1        78 4.33566E-03 1.83880E-04 0.00000E+00
 -1        79 4.41310E-03 1.69978E-04 0.00000E+00
 -1        80 4.50905E-03 1.69078E-04 0.00000E+00
 -1        81 4.66461E-03 1.60020E-04 0.00000E+00
 -1        82 4.86875E-03 6.99017E-05 0.00000E+00
 -1        83 4.95153E-03-1.72609E-04 0.00000E+00
 -1        84 4.64263E-03-5.32725E-04 0.00000E+00
 -1        85 3.82074E-03-8.46949E-04 0.00000E+00
 -1        86 2.69726E-03-9.65595E-04 0.00000E+00
 -1        87 1.58054E-03-8.69586E-04 0.00000E+00
 -1        88 6.53443E-04-5.44213E-04 0.00000E+00
 -1        89 5.11021E-04 5.32496E-06 0.00000E+00
 -1        90 1.52272E-03-1.13594E-06 0.00000E+00
 -1        91 2.68931E-03-6.31074E-06 0.00000E+00
 -1        92 3.85983E-03-6.57966E-06 0.00000E+00
 -1        93 4.70445E-03-5.02033E-07 0.00000E+00
 -1        94 4.99258E-03 9.64755E-06 0.00000E+00
 -1        95 4.88286E-03 2.20871E-05 0.00000E+00
 -1        96 4.65415E-03 3.94338E-05 0.00000E+00
 -1        97 4.48989E-03 6.09805E-05 0.00000E+00
 -1        98 4.39006E-03 8.51673E-05 0.00000E+00
 -1        99 4.32335E-03 1.15194E-04 0.00000E+00
 -1       100 4.26692E-03 1.54073E-04 0.00000E+00
 -1       101 4.23262E-03 1.99155E-04 0.00000E+00
 -1       102 4.18992E-03 2.45702E-04 0.00000E+00
 -1       103 4.12146E-03 2.92067E-04 0.00000E+00
 -1       104 4.01663E-03 3.35763E-04 0.00000E+00
 -1       105 3.89893E-03 3.71903E-04 0.00000E+00
 -1       106 3.76267E-03 4.02807E-04 0.00000E+00
 -1       107 3.62005E-03 4.34650E-04 0.00000E+00
 -1       108 3.62005E-03 4.34650E-04 0.00000E+00
 -1       109 3.76267E-03 4.02807E-04 0.00000E+00
 -1       110 3.89893E-03 3.71903E-04 0.00000E+00
 -1       111 4.01663E-03 3.35763E-04 0.00000E+00
 -1       112 4.12146E-03 2.92067E-04 0.00000E+00
 -1       113 4.18992E-03 2.45702E-04 0.00000E+00
 -1       114 4.23262E-03 1.99155E-04 0.00000E+00
 -1       115 4.26692E-03 1.54073E-04 0.00000E+00
 -1       116 4.32335E-03 1.15194E-04 0.00000E+00
 -1       117 4.39006E-03 8.51673E-05 0.00000E+00
 -1       118 4.48989E-03 6.09805E-05 0.00000E+00
 -1       119 4.65415E-03 3.94338E-05 0.00000E+00
 -1       120 4.88286E-03 2.20871E-05 0.00000E+00
 -1       121 4.99258E-03 9.64755E-06 0.00000E+00
 -1       122 4.70445E-03-5.02033E-07 0.00000E+00
 -1       123 3.85983E-03-6.57966E-06 0.00000E+00
 -1       124 2.68931E-03-6.31074E-06 0.00000E+00
 -1       125 1.52272E-03-1.13594E-06 0.00000E+00
 -1       126 5.11021E-04 5.32496E-06 0.00000E+00
 -3
    1PSTEP                        22           6           1          
  100CL  106 6.00000E-02         126                     1    6           1
 -4  STRESS      6    1
 -5  SXX         1    4    1    1
 -5  SYY         1    4    2    2
 -5  SZZ         1    4    3    3
 -5  SXY         1    4    1    2
 -5  SYZ         1    4    2    3
 -5  SZX         1    4    3    1
 -1         1 2.55465E+03 5.95335E+03 2.50709E+03 2.06293E+03-1.82036E-11-3.44786E-11
 -1         2 2.55465E+03 5.95335E+03 2.50709E+03 2.06293E+03-1.82036E-11-3.44786E-11
 -1         3 7.74498E+01 2.17043E+02 8.82964E+01 2.06890E+01 5.03483E-08 1.69192E-07
 -1         4 7.74498E+01 2.17043E+02 8.82964E+01 2.06890E+01 5.03483E-08 1.69192E-07
 -1         5 1.81705E+02 2.10225E+02 1.17515E+02-4.98229E+01-7.68370E-08 2.01994E-07
 -1         6 1.81705E+02 2.10225E+02 1.17515E+02-4.98229E+01-7.68369E-08 2.01995E-07
 -1         7-2.45823E+03-5.74449E+03-2.50556E+03 1.94048E+03-2.06156E-11 1.07520E-11
 -1         8-2.45823E+03-5.74449E+03-2.50556E+03 1.94048E+03-2.06156E-11 1.07520E-11
 -1         9 1.85392E+02 3.44181E+02 1.58729E+02-1.13052E+01 8.80021E-09 1.79363E-07
 -1        10 1.85392E+02 3.44181E+02 1.58729E+02-1.13052E+01 8.80022E-09 1.79364E-07
 -1        11 6.41509E+01 6.10726E+01 3.66260E+01 1.57329E+03-2.40750E-11-1.52646E-11
 -1        12 6.41509E+01 6.10726E+01 3.66260E+01 1.57329E+03-2.40750E-11-1.52646E-11
 -1        13 6.14395E+02 4.14529E+03 1.40858E+03 8.08875E+02-1.43241E-08-8.94130E-09
 -1        14 5.11904E+02 2.12177E+03 7.83612E+02 5.22516E+02-1.71461E-08 9.90733E-09
 -1        15-5.58418E+01-6.05599E+01-3.69628E+01 5.00111E+02-3.27766E-08-2.47844E-08
 -1        16-4.92367E+02-1.99741E+03-7.52621E+02 3.65746E+02-4.45773E-08-8.09224E-08
 -1        17-7.23254E+02-3.08853E+03-1.15427E+03 6.09346E+01-4.86867E-08-1.22866E-07
 -1        18-7.10263E+02-2.71929E+03-1.03714E+03-2.23251E+02-1.90737E-08-1.91618E-07
 -1        19-3.73377E+02-1.34753E+03-5.18825E+02-2.87164E+02 4.90438E-08-2.14616E-07
 -1        20-1.26730E+02-1.57921E+02-8.57306E+01-1.76268E+02 8.11657E-08-1.15163E-07
 -1        21 1.76306E+01 3.70636E+02 1.16259E+02-5.07330E+01 7.02991E-08-1.66078E-08
 -1        22-4.63907E+00 4.31526E+02 1.27819E+02 5.15252E-01 5.23771E-08 2.83883E-08
 -1        23 4.07147E+01 4.60213E+02 1.50014E+02 6.87125E+00 2.62606E-08 9.95673E-08
 -1        24 7.03869E+00 4.42783E+02 1.34682E+02 1.78692E+01 1.50944E-08 1.04652E-07
 -1        25-6.09619E+00 3.52304E+02 1.03683E+02 2.66419E+01-7.36325E-10 1.01748E-07
 -1        26-6.75946E+01 2.16298E+02 4.45214E+01 1.11035E+01-3.67246E-08 5.38172E-08
 -1        27-2.02921E+01 1.93518E+02 5.19159E+01-1.48264E+01-4.26324E-08-2.02233E-08
 -1        28-8.34949E+00 1.96563E+02 5.64138E+01-2.36272E+01-5.46128E-09-6.52963E-08
 -1        29 3.63909E+01 2.08177E+02 7.33192E+01-2.40558E+01 3.90906E-08-6.41443E-08
 -1        30 1.81135E+01 2.15409E+02 6.99947E+01-2.86561E+01 4.82098E-08 1.17922E-08
 -1        31 4.01249E+01 2.23115E+02 7.89121E+01-1.72470E+01 4.86735E-08 8.17879E-08
 -1        32 6.14395E+02 4.14529E+03 1.40858E+03 8.08875E+02-1.43241E-08-8.94130E-09
 -1        33 5.11904E+02 2.12177E+03 7.83612E+02 5.22516E+02-1.71461E-08 9.90733E-09
 -1        34-5.58418E+01-6.05599E+01-3.69628E+01 5.00111E+02-3.27766E-08-2.47843E-08
 -1        35-4.92367E+02-1.99741E+03-7.52621E+02 3.65746E+02-4.45773E-08-8.09224E-08
 -1        36-7.23254E+02-3.08853E+03-1.15427E+03 6.09346E+01-4.86867E-08-1.22866E-07
 -1        37-7.10263E+02-2.71929E+03-1.03714E+03-2.23251E+02-1.90737E-08-1.91618E-07
 -1        38-3.73377E+02-1.34753E+03-5.18825E+02-2.87164E+02 4.90438E-08-2.14616E-07
 -1        39-1.26730E+02-1.57921E+02-8.57306E+01-1.76268E+02 8.11657E-08-1.15163E-07
 -1        40 1.76306E+01 3.70636E+02 1.16259E+02-5.07330E+01 7.02991E-08-1.66078E-08
 -1        41-4.63907E+00 4.31526E+02 1.27819E+02 5.15252E-01 5.23771E-08 2.83883E-08
 -1        42 4.07147E+01 4.60213E+02 1.50014E+02 6.87125E+00 2.62606E-08 9.95673E-08
 -1        43 7.03869E+00 4.42783E+02 1.34682E+02 1.78692E+01 1.50944E-08 1.04652E-07
 -1        44-6.09618E+00 3.52304E+02 1.03683E+02 2.66419E+01-7.36325E-10 1.01748E-07
 -1        45-6.75946E+01 2.16298E+02 4.45214E+01 1.11035E+01-3.67246E-08 5.38172E-08
 -1        46-2.02921E+01 1.93518E+02 5.19159E+01-1.48264E+01-4.26324E-08-2.02233E-08
 -1        47-8.34949E+00 1.96563E+02 5.64138E+01-2.36272E+01-5.46128E-09-6.52963E-08
 -1        48 3.63909E+01 2.08177E+02 7.33192E+01-2.40558E+01 3.90906E-08-6.41442E-08
 -1        49 1.81135E+01 2.15409E+02 6.99947E+01-2.86561E+01 4.82098E-08 1.17917E-08
 -1        50 4.01249E+01 2.23115E+02 7.89121E+01-1.72470E+01 4.86735E-08 8.17879E-08
 -1        51 2.00435E+02 3.02101E+02 1.50639E+02-2.92942E+01-5.70766E-08 9.13953E-08
 -1        52 3.27976E+02 4.84404E+02 2.43426E+02-3.49292E+01-4.57772E-08 4.58249E-08
 -1        53 3.09060E+02 5.45525E+02 2.56037E+02-1.97814E+01-2.99124E-08-3.05339E-08
 -1        54 2.90590E+02 6.12954E+02 2.70646E+02-1.57451E+01 1.47592E-08-9.34246E-08
 -1        55 3.00730E+02 7.05094E+02 3.01198E+02-1.08402E+01 4.86552E-08-2.77956E-08
 -1        56 3.64136E+02 7.29783E+02 3.27577E+02 1.27490E+01 4.35581E-08 1.07858E-07
 -1        57 2.63386E+02 5.51916E+02 2.44237E+02 2.52239E+01 4.44608E-09 1.19363E-07
 -1        58 2.23352E+02 3.71814E+02 1.78382E+02 1.04958E+01-1.72790E-08 8.23579E-08
 -1        59 2.19816E+02 2.59474E+02 1.43700E+02-2.39305E+00-2.33966E-08 7.64623E-08
 -1        60 2.83586E+02 1.87125E+02 1.41122E+02-5.70310E+00-4.17982E-08 4.35228E-08
 -1        61 2.31792E+02 1.44092E+02 1.12667E+02-5.43221E+01-5.62234E-08-2.94289E-08
 -1        62 3.45715E+02 5.86660E+02 2.79039E+02-1.83646E+02-6.02710E-08-1.12823E-07
 -1        63 6.17617E+02 1.73678E+03 7.02576E+02-2.97326E+02-2.79118E-08-2.07042E-07
 -1        64 9.54983E+02 3.08875E+03 1.20290E+03-2.11059E+02 3.74413E-08-2.25732E-07
 -1        65 9.46111E+02 3.42890E+03 1.29977E+03 1.16277E+02 5.85101E-08-1.36204E-07
 -1        66 7.15067E+02 2.28894E+03 8.94191E+02 4.23522E+02 4.45708E-08-5.62582E-08
 -1        67 3.16211E+02 3.19976E+02 1.88631E+02 4.96277E+02 2.48096E-08-1.23732E-08
 -1        68-1.99922E+02-1.85562E+03-6.22282E+02 4.54016E+02 2.37508E-09-3.13166E-09
 -1        69-3.82588E+02-3.90408E+03-1.30411E+03 7.09733E+02-1.66692E-09-1.14315E-08
 -1        70 2.00435E+02 3.02101E+02 1.50639E+02-2.92942E+01-5.70766E-08 9.13948E-08
 -1        71 3.27976E+02 4.84404E+02 2.43426E+02-3.49292E+01-4.57772E-08 4.58249E-08
 -1        72 3.09060E+02 5.45525E+02 2.56037E+02-1.97814E+01-2.99124E-08-3.05339E-08
 -1        73 2.90590E+02 6.12954E+02 2.70646E+02-1.57451E+01 1.47592E-08-9.34242E-08
 -1        74 3.00730E+02 7.05094E+02 3.01198E+02-1.08402E+01 4.86553E-08-2.77957E-08
 -1        75 3.64136E+02 7.29783E+02 3.27577E+02 1.27490E+01 4.35581E-08 1.07858E-07
 -1        76 2.63386E+02 5.51916E+02 2.44237E+02 2.52239E+01 4.44609E-09 1.19362E-07
 -1        77 2.23352E+02 3.71814E+02 1.78382E+02 1.04958E+01-1.72790E-08 8.23576E-08
 -1        78 2.19816E+02 2.59474E+02 1.43700E+02-2.39305E+00-2.33966E-08 7.64622E-08
 -1        79 2.83586E+02 1.87125E+02 1.41122E+02-5.70310E+00-4.17982E-08 4.35232E-08
 -1        80 2.31792E+02 1.44092E+02 1.12667E+02-5.43221E+01-5.62234E-08-2.94288E-08
 -1        81 3.45715E+02 5.86660E+02 2.79039E+02-1.83646E+02-6.02710E-08-1.12823E-07
 -1        82 6.17617E+02 1.73678E+03 7.02576E+02-2.97326E+02-2.79118E-08-2.07042E-07
 -1        83 9.54983E+02 3.08875E+03 1.20290E+03-2.11059E+02 3.74413E-08-2.25732E-07
 -1        84 9.46111E+02 3.42890E+03 1.29977E+03 1.16277E+02 5.85101E-08-1.36204E-07
 -1        85 7.15067E+02 2.28894E+03 8.94191E+02 4.23522E+02 4.45709E-08-5.62584E-08
 -1        86 3.16211E+02 3.19976E+02 1.88631E+02 4.96277E+02 2.48096E-08-1.23729E-08
 -1        87-1.99922E+02-1.85562E+03-6.22282E+02 4.54016E+02 2.37508E-09-3.13165E-09
 -1        88-3.82588E+02-3.90408E+03-1.30411E+03 7.09733E+02-1.66692E-09-1.14315E-08
 -1        89 1.23035E+02 5.87571E+01 5.38376E+01 6.71482E+02-8.72450E-09-1.35367E-08
 -1        90 1.54385E+02 7.81093E+01 6.89651E+01 6.83816E+02-3.21833E-09 6.89873E-09
 -1        91 1.36481E+02 1.16352E+02 7.45893E+01 6.39955E+02 3.00190E-09-7.47608E-09
 -1        92 1.25412E+02 1.39012E+02 7.87022E+01 5.10970E+02-4.29880E-09-7.87570E-08
 -1        93 1.19657E+02 1.41091E+02 7.78069E+01 1.05087E+02-6.88001E-09-1.21540E-07
 -1        94 1.22314E+02 1.49178E+02 8.17919E+01-2.86704E+02 8.38140E-09-2.20973E-07
 -1        95 1.22902E+02 1.82220E+02 9.15864E+01-3.77623E+02 1.42833E-08-2.27826E-07
 -1        96 1.13636E+02 2.21074E+02 1.00181E+02-2.36042E+02 8.88592E-09-1.12862E-07
 -1        97 1.24088E+02 2.55378E+02 1.13679E+02-7.34787E+01 1.19184E-08-2.55013E-08
 -1        98 1.34036E+02 2.96492E+02 1.28999E+02 1.46313E+00 8.07630E-10 4.35890E-08
 -1        99 1.30029E+02 3.59346E+02 1.46642E+02 1.50372E+01-3.01011E-09 9.37706E-08
 -1       100 1.21433E+02 4.21910E+02 1.62771E+02 2.12445E+01 6.26662E-09 8.65403E-08
 -1       101 1.32164E+02 4.60306E+02 1.77485E+02 2.89268E+01 1.52701E-08 1.28151E-07
 -1       102 1.48294E+02 4.72985E+02 1.86115E+02 1.90929E+01 2.62140E-09 7.50764E-08
 -1       103 1.44462E+02 4.59084E+02 1.80822E+02-4.83261E+00-1.51191E-08-2.51735E-08
 -1       104 1.45456E+02 4.14741E+02 1.67863E+02-2.19818E+01 9.38780E-09-9.27702E-08
 -1       105 1.69405E+02 3.68884E+02 1.61326E+02-2.83715E+01 1.85771E-08-6.50715E-08
 -1       106 1.74021E+02 3.52160E+02 1.57698E+02-3.16182E+01-5.36035E-10 2.89488E-08
 -1       107 1.52802E+02 3.38792E+02 1.47345E+02-1.56601E+01 4.08056E-09 8.82539E-08
 -1       108 1.52802E+02 3.38792E+02 1.47345E+02-1.56601E+01 4.08059E-09 8.82542E-08
 -1       109 1.74021E+02 3.52160E+02 1.57698E+02-3.16182E+01-5.36042E-10 2.89488E-08
 -1       110 1.69405E+02 3.68884E+02 1.61326E+02-2.83715E+01 1.85771E-08-6.50715E-08
 -1       111 1.45456E+02 4.14741E+02 1.67863E+02-2.19818E+01 9.38781E-09-9.27703E-08
 -1       112 1.44462E+02 4.59084E+02 1.80822E+02-4.83261E+00-1.51191E-08-2.51735E-08
 -1       113 1.48294E+02 4.72985E+02 1.86115E+02 1.90929E+01 2.62140E-09 7.50764E-08
 -1       114 1.32164E+02 4.60306E+02 1.77485E+02 2.89268E+01 1.52701E-08 1.28151E-07
 -1       115 1.21433E+02 4.21910E+02 1.62771E+02 2.12445E+01 6.26661E-09 8.65403E-08
 -1       116 1.30029E+02 3.59346E+02 1.46642E+02 1.50372E+01-3.01011E-09 9.37707E-08
 -1       117 1.34036E+02 2.96492E+02 1.28999E+02 1.46313E+00 8.07633E-10 4.35889E-08
 -1       118 1.24088E+02 2.55378E+02 1.13679E+02-7.34787E+01 1.19184E-08-2.55014E-08
 -1       119 1.13636E+02 2.21074E+02 1.00181E+02-2.36042E+02 8.88592E-09-1.12862E-07
 -1       120 1.22902E+02 1.82220E+02 9.15864E+01-3.77623E+02 1.42833E-08-2.27826E-07
 -1       121 1.22314E+02 1.49178E+02 8.17919E+01-2.86704E+02 8.38139E-09-2.20972E-07
 -1       122 1.19657E+02 1.41091E+02 7.78069E+01 1.05087E+02-6.88002E-09-1.21540E-07
 -1       123 1.25412E+02 1.39012E+02 7.87022E+01 5.10970E+02-4.29880E-09-7.87568E-08
 -1       124 1.36481E+02 1.16352E+02 7.45893E+01 6.39955E+02 3.00189E-09-7.47623E-09
 -1       125 1.54385E+02 7.81093E+01 6.89651E+01 6.83816E+02-3.21833E-09 6.89871E-09
 -1       126 1.23035E+02 5.87571E+01 5.38376E+01 6.71482E+02-8.72450E-09-1.35367E-08
 -3
    1PSTEP                        23           6           1          
  100CL  106 6.00000E-02         126                     1    6           1
 -4  TOSTRAIN    6    1
 -5  EXX         1    4    1    1
 -5  EYY         1    4    2    2
 -5  EZZ         1    4    3    3
 -5  EXY         1    4    1    2
 -5  EYZ         1    4    2    3
 -5  EZX         1    4    3    1
 -1         1-1.01740E-05 1.09717E-02-9.38373E-28 6.47315E-03 5.99228E-19-9.38505E-17
 -1         2-1.01740E-05 1.09717E-02-9.38373E-28 6.47315E-03 5.99228E-19-9.38505E-17
 -1         3-3.48661E-05 4.17623E-04 6.24682E-25 6.84703E-05 1.61937E-13 5.50245E-13
 -1         4-3.48661E-05 4.17623E-04 6.24681E-25 6.84703E-05 1.61937E-13 5.50245E-13
 -1         5 2.07629E-04 3.01847E-04 9.13568E-25-1.61496E-04-2.51094E-13 6.55519E-13
 -1         6 2.07629E-04 3.01847E-04 9.13572E-25-1.61496E-04-2.51094E-13 6.55521E-13
 -1         7-1.07913E-05-1.07501E-02-4.35801E-28 6.53429E-03 3.37028E-19 8.37179E-18
 -1         8-1.07913E-05-1.07501E-02-4.35801E-28 6.53429E-03 3.37028E-19 8.37179E-18
 -1         9 8.63812E-05 6.01923E-04 6.34647E-25-3.52520E-05 2.70589E-14 5.82757E-13
 -1        10 8.63812E-05 6.01923E-04 6.34647E-25-3.52520E-05 2.70589E-14 5.82758E-13
 -1        11-1.04826E-05 1.48247E-04-8.75667E-28 5.11008E-03 4.74869E-19-5.00388E-17
 -1        12-1.04826E-05 1.48247E-04-8.75667E-28 5.11008E-03 4.74869E-19-5.00388E-17
 -1        13-2.67181E-03 8.80327E-03 4.54177E-27 2.45452E-03-4.63608E-14-2.82841E-14
 -1        14-9.53593E-04 4.36171E-03 4.62707E-27 1.58876E-03-5.48920E-14 3.33225E-14
 -1        15-1.34081E-04-2.25228E-05 2.19261E-26 1.62505E-03-1.08081E-13-7.81633E-14
 -1        16 7.88779E-04-4.03964E-03 1.65637E-25 1.27837E-03-1.50106E-13-2.60358E-13
 -1        17 1.36929E-03-6.35320E-03 3.50845E-25 2.82171E-04-1.63905E-13-3.97929E-13
 -1        18 1.05119E-03-5.52956E-03 7.60703E-25-7.07488E-04-6.48092E-14-6.23369E-13
 -1        19 4.66375E-04-2.70899E-03 9.91251E-25-9.42196E-04 1.60557E-13-6.97524E-13
 -1        20-1.37438E-04-2.33356E-04 3.64471E-25-5.74620E-04 2.64786E-13-3.73483E-13
 -1        21-3.21838E-04 8.25880E-04 7.64347E-26-1.62158E-04 2.28348E-13-5.34131E-14
 -1        22-4.30784E-04 9.84940E-04 5.08282E-26 4.02437E-06 1.69863E-13 9.25552E-14
 -1        23-3.55328E-04 1.00579E-03 2.11028E-25 2.39997E-05 8.48176E-14 3.23711E-13
 -1        24-4.14981E-04 9.98937E-04 2.35172E-25 5.93703E-05 4.86464E-14 3.40206E-13
 -1        25-3.56821E-04 8.06333E-04 2.09749E-25 8.74997E-05-2.71299E-15 3.30724E-13
 -1        26-3.64623E-04 5.57570E-04 6.70347E-26 3.71448E-05-1.19496E-13 1.74813E-13
 -1        27-2.35023E-04 4.60009E-04 2.89271E-26-4.69145E-05-1.38368E-13-6.59881E-14
 -1        28-2.10914E-04 4.55412E-04 7.86069E-26-7.52638E-05-1.72872E-14-2.12274E-13
 -1        29-1.20434E-04 4.38241E-04 1.04743E-25-7.67316E-05 1.27470E-13-2.08137E-13
 -1        30-1.69170E-04 4.72570E-04 2.39958E-26-9.13274E-05 1.56484E-13 3.87618E-14
 -1        31-1.26382E-04 4.68449E-04 1.62163E-25-5.43415E-05 1.57365E-13 2.66249E-13
 -1        32-2.67181E-03 8.80327E-03 4.54177E-27 2.45452E-03-4.63608E-14-2.82841E-14
 -1        33-9.53593E-04 4.36171E-03 4.62707E-27 1.58876E-03-5.48920E-14 3.33225E-14
 -1        34-1.34081E-04-2.25228E-05 2.19260E-26 1.62505E-03-1.08081E-13-7.81631E-14
 -1        35 7.88779E-04-4.03964E-03 1.65637E-25 1.27837E-03-1.50106E-13-2.60358E-13
 -1        36 1.36929E-03-6.35320E-03 3.50845E-25 2.82171E-04-1.63905E-13-3.97929E-13
 -1        37 1.05119E-03-5.52956E-03 7.60703E-25-7.07488E-04-6.48092E-14-6.23369E-13
 -1        38 4.66375E-04-2.70899E-03 9.91252E-25-9.42196E-04 1.60557E-13-6.97524E-13
 -1        39-1.37438E-04-2.33356E-04 3.64472E-25-5.74620E-04 2.64786E-13-3.73483E-13
 -1        40-3.21838E-04 8.25880E-04 7.64347E-26-1.62158E-04 2.28348E-13-5.34131E-14
 -1        41-4.30784E-04 9.84940E-04 5.08282E-26 4.02437E-06 1.69863E-13 9.25552E-14
 -1        42-3.55328E-04 1.00579E-03 2.11028E-25 2.39997E-05 8.48176E-14 3.23711E-13
 -1        43-4.14981E-04 9.98937E-04 2.35172E-25 5.93703E-05 4.86464E-14 3.40206E-13
 -1        44-3.56821E-04 8.06333E-04 2.09749E-25 8.74997E-05-2.71299E-15 3.30724E-13
 -1        45-3.64623E-04 5.57570E-04 6.70347E-26 3.71448E-05-1.19496E-13 1.74813E-13
 -1        46-2.35023E-04 4.60009E-04 2.89271E-26-4.69145E-05-1.38368E-13-6.59881E-14
 -1        47-2.10914E-04 4.55412E-04 7.86069E-26-7.52638E-05-1.72872E-14-2.12274E-13
 -1        48-1.20434E-04 4.38241E-04 1.04743E-25-7.67316E-05 1.27470E-13-2.08136E-13
 -1        49-1.69170E-04 4.72570E-04 2.39958E-26-9.13274E-05 1.56484E-13 3.87604E-14
 -1        50-1.26382E-04 4.68449E-04 1.62163E-25-5.43415E-05 1.57365E-13 2.66249E-13
 -1        51 1.61181E-04 4.92040E-04 2.05983E-25-9.41081E-05-1.86123E-13 2.96371E-13
 -1        52 2.73842E-04 7.82119E-04 6.58030E-26-1.11884E-04-1.48963E-13 1.48398E-13
 -1        53 1.71835E-04 9.38880E-04 6.21339E-27-6.22963E-05-9.68428E-14-9.93935E-14
 -1        54 6.45520E-05 1.10962E-03 1.70767E-25-4.88468E-05 4.85032E-14-3.03328E-13
 -1        55-1.70696E-06 1.30858E-03 1.12713E-26-3.29054E-05 1.57970E-13-8.99952E-14
 -1        56 1.18686E-04 1.30281E-03 2.41996E-25 4.27341E-05 1.40845E-13 3.50420E-13
 -1        57 6.23253E-05 9.97195E-04 2.95515E-25 8.25834E-05 1.40579E-14 3.87710E-13
 -1        58 1.46075E-04 6.27525E-04 1.44128E-25 3.44927E-05-5.63835E-14 2.67464E-13
 -1        59 2.47150E-04 3.75924E-04 1.29978E-25-7.58538E-06-7.63266E-14 2.48258E-13
 -1        60 4.62356E-04 1.49533E-04 5.85892E-26-1.90755E-05-1.36021E-13 1.41106E-13
 -1        61 3.85531E-04 1.02912E-04 4.68467E-26-1.76932E-04-1.82451E-13-9.60386E-14
 -1        62 2.12049E-04 9.99036E-04 2.99297E-25-5.91814E-04-1.94688E-13-3.67063E-13
 -1        63-2.82666E-04 3.33676E-03 8.90028E-25-9.54395E-04-8.96788E-14-6.72272E-13
 -1        64-8.17031E-04 6.05226E-03 1.07880E-24-7.03831E-04 1.17987E-13-7.32559E-13
 -1        65-1.18263E-03 6.83952E-03 4.21364E-25 2.88808E-04 1.83709E-13-4.44035E-13
 -1        66-6.42069E-04 4.53178E-03 8.37131E-26 1.27908E-03 1.40855E-13-1.85323E-13
 -1        67 3.42613E-04 4.79162E-04 9.92936E-27 1.60770E-03 7.97503E-14-4.19667E-14
 -1        68 1.30575E-03-3.99356E-03-1.19742E-27 1.58293E-03 7.55002E-15-1.03284E-14
 -1        69 2.90563E-03-8.53399E-03 2.29118E-27 2.47749E-03-5.92233E-15-3.70751E-14
 -1        70 1.61181E-04 4.92040E-04 2.05981E-25-9.41081E-05-1.86123E-13 2.96370E-13
 -1        71 2.73842E-04 7.82119E-04 6.58031E-26-1.11884E-04-1.48963E-13 1.48398E-13
 -1        72 1.71835E-04 9.38880E-04 6.21339E-27-6.22963E-05-9.68428E-14-9.93935E-14
 -1        73 6.45520E-05 1.10962E-03 1.70766E-25-4.88468E-05 4.85031E-14-3.03327E-13
 -1        74-1.70696E-06 1.30858E-03 1.12716E-26-3.29054E-05 1.57970E-13-8.99954E-14
 -1        75 1.18686E-04 1.30281E-03 2.41996E-25 4.27341E-05 1.40845E-13 3.50420E-13
 -1        76 6.23253E-05 9.97195E-04 2.95513E-25 8.25834E-05 1.40580E-14 3.87708E-13
 -1        77 1.46075E-04 6.27525E-04 1.44127E-25 3.44927E-05-5.63835E-14 2.67464E-13
 -1        78 2.47150E-04 3.75924E-04 1.29978E-25-7.58538E-06-7.63266E-14 2.48258E-13
 -1        79 4.62356E-04 1.49533E-04 5.85898E-26-1.90755E-05-1.36021E-13 1.41107E-13
 -1        80 3.85531E-04 1.02912E-04 4.68465E-26-1.76932E-04-1.82451E-13-9.60384E-14
 -1        81 2.12049E-04 9.99036E-04 2.99296E-25-5.91814E-04-1.94688E-13-3.67063E-13
 -1        82-2.82666E-04 3.33676E-03 8.90029E-25-9.54395E-04-8.96789E-14-6.72273E-13
 -1        83-8.17031E-04 6.05226E-03 1.07880E-24-7.03831E-04 1.17987E-13-7.32559E-13
 -1        84-1.18263E-03 6.83952E-03 4.21363E-25 2.88808E-04 1.83709E-13-4.44033E-13
 -1        85-6.42069E-04 4.53178E-03 8.37140E-26 1.27908E-03 1.40855E-13-1.85324E-13
 -1        86 3.42613E-04 4.79162E-04 9.92905E-27 1.60770E-03 7.97503E-14-4.19657E-14
 -1        87 1.30575E-03-3.99356E-03-1.19742E-27 1.58293E-03 7.55002E-15-1.03284E-14
 -1        88 2.90563E-03-8.53399E-03 2.29118E-27 2.47749E-03-5.92233E-15-3.70752E-14
 -1        89 1.16914E-04 1.10008E-04 4.06474E-27 2.18305E-03-2.88637E-14-4.35426E-14
 -1        90 1.76079E-04 1.20048E-04-3.62648E-28 2.22361E-03-1.01277E-14 2.26476E-14
 -1        91 1.04266E-04 2.18207E-04-1.12999E-26 2.07766E-03 9.25132E-15-2.45076E-14
 -1        92 7.33549E-05 2.64546E-04 1.11521E-25 1.65726E-03-1.82323E-14-2.55550E-13
 -1        93 9.33284E-05 2.38261E-04 2.81441E-25 3.40216E-04-2.65269E-14-3.94620E-13
 -1        94 1.17082E-04 2.32479E-04 1.01144E-24-9.31012E-04 2.45469E-14-7.18010E-13
 -1        95 9.18544E-05 3.03342E-04 1.07138E-24-1.22555E-03 4.70316E-14-7.40057E-13
 -1        96 3.73056E-05 3.96819E-04 2.16606E-25-7.65261E-04 2.97457E-14-3.66593E-13
 -1        97 3.18467E-05 4.61102E-04-1.94151E-26-2.37508E-04 3.88905E-14-8.27537E-14
 -1        98 1.57859E-05 5.43690E-04 1.92395E-26 5.58900E-06 2.38770E-15 1.41625E-13
 -1        99-5.40889E-05 6.90021E-04 1.78713E-25 4.97198E-05-1.01758E-14 3.04662E-13
 -1       100-1.34453E-04 8.40364E-04 1.54375E-25 6.98480E-05 2.00505E-14 2.81214E-13
 -1       101-1.47248E-04 9.16977E-04 3.42444E-25 9.47601E-05 4.91600E-14 4.16430E-13
 -1       102-1.22969E-04 9.30152E-04 8.84850E-26 6.31685E-05 8.20226E-15 2.43941E-13
 -1       103-1.18365E-04 9.02524E-04-1.66689E-26-1.39315E-05-4.89383E-14-8.18781E-14
 -1       104-7.31811E-05 8.01121E-04 1.72710E-25-6.94218E-05 3.11008E-14-3.01348E-13
 -1       105 2.57004E-05 6.73880E-04 7.30778E-26-9.04557E-05 6.08126E-14-2.11247E-13
 -1       106 5.23361E-05 6.31532E-04-1.32019E-26-1.01020E-04-1.98230E-15 9.40422E-14
 -1       107 1.73996E-05 6.21516E-04 1.34005E-25-4.91568E-05 1.24855E-14 2.86766E-13
 -1       108 1.73996E-05 6.21516E-04 1.34006E-25-4.91568E-05 1.24856E-14 2.86767E-13
 -1       109 5.23361E-05 6.31532E-04-1.32021E-26-1.01020E-04-1.98233E-15 9.40422E-14
 -1       110 2.57004E-05 6.73880E-04 7.30778E-26-9.04557E-05 6.08126E-14-2.11247E-13
 -1       111-7.31811E-05 8.01121E-04 1.72710E-25-6.94218E-05 3.11008E-14-3.01348E-13
 -1       112-1.18365E-04 9.02524E-04-1.66689E-26-1.39315E-05-4.89383E-14-8.18783E-14
 -1       113-1.22969E-04 9.30152E-04 8.84850E-26 6.31685E-05 8.20227E-15 2.43941E-13
 -1       114-1.47248E-04 9.16977E-04 3.42444E-25 9.47601E-05 4.91599E-14 4.16430E-13
 -1       115-1.34453E-04 8.40364E-04 1.54375E-25 6.98480E-05 2.00504E-14 2.81214E-13
 -1       116-5.40889E-05 6.90021E-04 1.78713E-25 4.97198E-05-1.01757E-14 3.04663E-13
 -1       117 1.57859E-05 5.43690E-04 1.92394E-26 5.58900E-06 2.38771E-15 1.41625E-13
 -1       118 3.18467E-05 4.61102E-04-1.94149E-26-2.37508E-04 3.88905E-14-8.27540E-14
 -1       119 3.73056E-05 3.96819E-04 2.16605E-25-7.65261E-04 2.97457E-14-3.66592E-13
 -1       120 9.18544E-05 3.03342E-04 1.07138E-24-1.22555E-03 4.70316E-14-7.40058E-13
 -1       121 1.17082E-04 2.32479E-04 1.01144E-24-9.31012E-04 2.45469E-14-7.18010E-13
 -1       122 9.33284E-05 2.38261E-04 2.81442E-25 3.40216E-04-2.65270E-14-3.94620E-13
 -1       123 7.33549E-05 2.64546E-04 1.11521E-25 1.65726E-03-1.82323E-14-2.55549E-13
 -1       124 1.04266E-04 2.18207E-04-1.12998E-26 2.07766E-03 9.25127E-15-2.45081E-14
 -1       125 1.76079E-04 1.20048E-04-3.62648E-28 2.22361E-03-1.01277E-14 2.26475E-14
 -1       126 1.16914E-04 1.10008E-04 4.06474E-27 2.18305E-03-2.88637E-14-4.35426E-14
 -3
    1PSTEP                        24           6           1          
  100CL  106 6.00000E-02         126                     1    6           1
 -4  ERROR       1    1
 -5  STR(%)      1    1    0    0
 -1         1 6.22288E+01
 -1         2 6.22288E+01
 -1         3 1.27862E+01
 -1         4 1.27862E+01
 -1         5 1.89705E+01
 -1         6 1.89705E+01
 -1         7 6.49400E+01
 -1         8 6.49400E+01
 -1         9 1.89705E+01
 -1        10 1.89705E+01
 -1        11 6.49400E+01
 -1        12 6.49400E+01
 -1        13 6.22288E+01
 -1        14 5.18559E+01
 -1        15 2.64928E+01
 -1        16 6.25037E+01
 -1        17 6.28576E+01
 -1        18 6.28576E+01
 -1        19 5.72268E+01
 -1        20 3.13856E+01
 -1        21 2.82113E+01
 -1        22 2.82113E+01
 -1        23 1.78085E+01
 -1        24 8.91713E+00
 -1        25 1.10172E+01
 -1        26 2.77695E+01
 -1        27 2.77695E+01
 -1        28 2.14631E+01
 -1        29 1.55206E+01
 -1        30 1.30948E+01
 -1        31 1.27862E+01
 -1        32 6.22288E+01
 -1        33 5.18559E+01
 -1        34 2.64928E+01
 -1        35 6.25037E+01
 -1        36 6.28576E+01
 -1        37 6.28576E+01
 -1        38 5.72268E+01
 -1        39 3.13856E+01
 -1        40 2.82113E+01
 -1        41 2.82113E+01
 -1        42 1.78085E+01
 -1        43 8.91713E+00
 -1        44 1.10172E+01
 -1        45 2.77695E+01
 -1        46 2.77695E+01
 -1        47 2.14631E+01
 -1        48 1.55206E+01
 -1        49 1.30948E+01
 -1        50 1.27862E+01
 -1        51 1.89705E+01
 -1        52 5.13931E+00
 -1        53 6.20439E+00
 -1        54 6.36777E+00
 -1        55 1.04213E+01
 -1        56 1.04213E+01
 -1        57 4.94854E+00
 -1        58 1.31792E+01
 -1        59 2.27849E+01
 -1        60 2.27849E+01
 -1        61 1.71331E+01
 -1        62 2.13452E+01
 -1        63 4.89774E+01
 -1        64 5.60930E+01
 -1        65 5.60930E+01
 -1        66 5.47197E+01
 -1        67 5.10019E+01
 -1        68 5.57362E+01
 -1        69 6.49400E+01
 -1        70 1.89705E+01
 -1        71 5.13931E+00
 -1        72 6.20439E+00
 -1        73 6.36777E+00
 -1        74 1.04213E+01
 -1        75 1.04213E+01
 -1        76 4.94854E+00
 -1        77 1.31792E+01
 -1        78 2.27849E+01
 -1        79 2.27849E+01
 -1        80 1.71331E+01
 -1        81 2.13452E+01
 -1        82 4.89774E+01
 -1        83 5.60930E+01
 -1        84 5.60930E+01
 -1        85 5.47197E+01
 -1        86 5.10019E+01
 -1        87 5.57362E+01
 -1        88 6.49400E+01
 -1        89 6.49400E+01
 -1        90 5.57362E+01
 -1        91 5.10019E+01
 -1        92 6.25037E+01
 -1        93 6.28576E+01
 -1        94 6.28576E+01
 -1        95 5.72268E+01
 -1        96 3.13856E+01
 -1        97 2.82113E+01
 -1        98 2.82113E+01
 -1        99 2.27849E+01
 -1       100 1.31792E+01
 -1       101 1.10172E+01
 -1       102 2.77695E+01
 -1       103 2.77695E+01
 -1       104 2.14631E+01
 -1       105 1.55206E+01
 -1       106 1.30948E+01
 -1       107 1.89705E+01
 -1       108 1.89705E+01
 -1       109 1.30948E+01
 -1       110 1.55206E+01
 -1       111 2.14631E+01
 -1       112 2.77695E+01
 -1       113 2.77695E+01
 -1       114 1.10172E+01
 -1       115 1.31792E+01
 -1       116 2.27849E+01
 -1       117 2.82113E+01
 -1       118 2.82113E+01
 -1       119 3.13856E+01
 -1       120 5.72268E+01
 -1       121 6.28576E+01
 -1       122 6.28576E+01
 -1       123 6.25037E+01
 -1       124 5.10019E+01
 -1       125 5.57362E+01
 -1       126 6.49400E+01
 -3
    1PSTEP                        25           7           1          
  100CL  107 7.00000E-02         126                     1    7           1
 -4  DISP        4    1
 -5  D1          1    2    1    0
 -5  D2          1    2    2    0
 -5  D3          1    2    3    0
 -5  ALL         1    2    0    0    1ALL
 -1         1 0.00000E+00 0.00000E+00 0.00000E+00
 -1         2 0.00000E+00 0.00000E+00 0.00000E+00
 -1         3 4.49195E-03 3.69724E-04 0.00000E+00
 -1         4 4.49195E-03 3.69724E-04 0.00000E+00
 -1         5 4.47240E-03 6.87579E-04 0.00000E+00
 -1         6 4.47240E-03 6.87579E-04 0.00000E+00
 -1         7 0.00000E+00 0.00000E+00 0.00000E+00
 -1         8 0.00000E+00 0.00000E+00 0.00000E+00
 -1         9 4.48000E-03 5.44857E-04 0.00000E+00
 -1        10 4.48000E-03 5.44857E-04 0.00000E+00
 -1        11 0.00000E+00 0.00000E+00 0.00000E+00
 -1        12 0.00000E+00 0.00000E+00 0.00000E+00
 -1        13 6.93421E-04 5.90682E-04 0.00000E+00
 -1        14 1.69905E-03 9.68542E-04 0.00000E+00
 -1        15 2.93023E-03 1.11154E-03 0.00000E+00
 -1        16 4.18699E-03 1.06653E-03 0.00000E+00
 -1        17 5.31602E-03 8.43899E-04 0.00000E+00
 -1        18 6.05285E-03 4.90103E-04 0.00000E+00
 -1        19 6.24302E-03 1.49123E-04 0.00000E+00
 -1        20 6.06857E-03-4.39035E-05 0.00000E+00
 -1        21 5.79161E-03-6.64741E-05 0.00000E+00
 -1        22 5.58818E-03 1.31382E-05 0.00000E+00
 -1        23 5.47150E-03 1.13443E-04 0.00000E+00
 -1        24 5.41703E-03 1.91881E-04 0.00000E+00
 -1        25 5.37465E-03 2.43472E-04 0.00000E+00
 -1        26 5.32343E-03 2.73642E-04 0.00000E+00
 -1        27 5.23051E-03 2.86598E-04 0.00000E+00
 -1        28 5.10873E-03 2.93468E-04 0.00000E+00
 -1        29 4.96659E-03 3.07565E-04 0.00000E+00
 -1        30 4.81879E-03 3.29353E-04 0.00000E+00
 -1        31 4.66222E-03 3.48559E-04 0.00000E+00
 -1        32 6.93421E-04 5.90682E-04 0.00000E+00
 -1        33 1.69905E-03 9.68542E-04 0.00000E+00
 -1        34 2.93023E-03 1.11154E-03 0.00000E+00
 -1        35 4.18699E-03 1.06653E-03 0.00000E+00
 -1        36 5.31602E-03 8.43899E-04 0.00000E+00
 -1        37 6.05285E-03 4.90103E-04 0.00000E+00
 -1        38 6.24302E-03 1.49123E-04 0.00000E+00
 -1        39 6.06857E-03-4.39035E-05 0.00000E+00
 -1        40 5.79161E-03-6.64741E-05 0.00000E+00
 -1        41 5.58818E-03 1.31382E-05 0.00000E+00
 -1        42 5.47150E-03 1.13443E-04 0.00000E+00
 -1        43 5.41703E-03 1.91881E-04 0.00000E+00
 -1        44 5.37465E-03 2.43472E-04 0.00000E+00
 -1        45 5.32343E-03 2.73642E-04 0.00000E+00
 -1        46 5.23051E-03 2.86598E-04 0.00000E+00
 -1        47 5.10873E-03 2.93468E-04 0.00000E+00
 -1        48 4.96659E-03 3.07565E-04 0.00000E+00
 -1        49 4.81879E-03 3.29353E-04 0.00000E+00
 -1        50 4.66222E-03 3.48559E-04 0.00000E+00
 -1        51 4.63420E-03 6.68665E-04 0.00000E+00
 -1        52 4.78062E-03 6.41367E-04 0.00000E+00
 -1        53 4.92438E-03 6.06402E-04 0.00000E+00
 -1        54 5.06869E-03 5.57569E-04 0.00000E+00
 -1        55 5.18492E-03 4.97430E-04 0.00000E+00
 -1        56 5.26734E-03 4.34004E-04 0.00000E+00
 -1        57 5.31235E-03 3.74739E-04 0.00000E+00
 -1        58 5.35288E-03 3.27121E-04 0.00000E+00
 -1        59 5.40700E-03 3.04956E-04 0.00000E+00
 -1        60 5.52401E-03 3.11366E-04 0.00000E+00
 -1        61 5.73400E-03 3.07270E-04 0.00000E+00
 -1        62 6.01734E-03 2.11702E-04 0.00000E+00
 -1        63 6.19431E-03-4.33834E-05 0.00000E+00
 -1        64 5.99862E-03-4.33724E-04 0.00000E+00
 -1        65 5.25798E-03-8.19808E-04 0.00000E+00
 -1        66 4.12541E-03-1.05640E-03 0.00000E+00
 -1        67 2.87120E-03-1.10322E-03 0.00000E+00
 -1        68 1.64128E-03-9.56814E-04 0.00000E+00
 -1        69 6.46533E-04-5.79574E-04 0.00000E+00
 -1        70 4.63420E-03 6.68665E-04 0.00000E+00
 -1        71 4.78062E-03 6.41367E-04 0.00000E+00
 -1        72 4.92438E-03 6.06402E-04 0.00000E+00
 -1        73 5.06869E-03 5.57569E-04 0.00000E+00
 -1        74 5.18492E-03 4.97430E-04 0.00000E+00
 -1        75 5.26734E-03 4.34004E-04 0.00000E+00
 -1        76 5.31235E-03 3.74739E-04 0.00000E+00
 -1        77 5.35288E-03 3.27121E-04 0.00000E+00
 -1        78 5.40700E-03 3.04956E-04 0.00000E+00
 -1        79 5.52401E-03 3.11366E-04 0.00000E+00
 -1        80 5.73400E-03 3.07270E-04 0.00000E+00
 -1        81 6.01734E-03 2.11702E-04 0.00000E+00
 -1        82 6.19431E-03-4.33834E-05 0.00000E+00
 -1        83 5.99862E-03-4.33724E-04 0.00000E+00
 -1        84 5.25798E-03-8.19808E-04 0.00000E+00
 -1        85 4.12541E-03-1.05640E-03 0.00000E+00
 -1        86 2.87120E-03-1.10322E-03 0.00000E+00
 -1        87 1.64128E-03-9.56814E-04 0.00000E+00
 -1        88 6.46533E-04-5.79574E-04 0.00000E+00
 -1        89 5.35660E-04 3.24241E-06 0.00000E+00
 -1        90 1.62087E-03 8.01782E-06 0.00000E+00
 -1        91 2.88981E-03 4.54703E-06 0.00000E+00
 -1        92 4.18622E-03 2.83862E-06 0.00000E+00
 -1        93 5.35402E-03 8.83550E-06 0.00000E+00
 -1        94 6.10986E-03 2.67983E-05 0.00000E+00
 -1        95 6.28415E-03 5.31561E-05 0.00000E+00
 -1        96 6.07191E-03 8.30798E-05 0.00000E+00
 -1        97 5.76148E-03 1.18487E-04 0.00000E+00
 -1        98 5.54310E-03 1.61132E-04 0.00000E+00
 -1        99 5.42862E-03 2.09195E-04 0.00000E+00
 -1       100 5.38089E-03 2.59617E-04 0.00000E+00
 -1       101 5.34341E-03 3.09722E-04 0.00000E+00
 -1       102 5.29699E-03 3.55741E-04 0.00000E+00
 -1       103 5.21097E-03 3.94024E-04 0.00000E+00
 -1       104 5.09122E-03 4.25406E-04 0.00000E+00
 -1       105 4.94485E-03 4.56061E-04 0.00000E+00
 -1       106 4.79625E-03 4.86506E-04 0.00000E+00
 -1       107 4.64543E-03 5.12546E-04 0.00000E+00
 -1       108 4.64543E-03 5.12546E-04 0.00000E+00
 -1       109 4.79625E-03 4.86506E-04 0.00000E+00
 -1       110 4.94485E-03 4.56061E-04 0.00000E+00
 -1       111 5.09122E-03 4.25406E-04 0.00000E+00
 -1       112 5.21097E-03 3.94024E-04 0.00000E+00
 -1       113 5.29699E-03 3.55741E-04 0.00000E+00
 -1       114 5.34341E-03 3.09722E-04 0.00000E+00
 -1       115 5.38089E-03 2.59617E-04 0.00000E+00
 -1       116 5.42862E-03 2.09195E-04 0.00000E+00
 -1       117 5.54310E-03 1.61132E-04 0.00000E+00
 -1       118 5.76148E-03 1.18487E-04 0.00000E+00
 -1       119 6.07191E-03 8.30798E-05 0.00000E+00
 -1       120 6.28415E-03 5.31561E-05 0.00000E+00
 -1       121 6.10986E-03 2.67983E-05 0.00000E+00
 -1       122 5.35402E-03 8.83550E-06 0.00000E+00
 -1       123 4.18622E-03 2.83862E-06 0.00000E+00
 -1       124 2.88981E-03 4.54703E-06 0.00000E+00
 -1       125 1.62087E-03 8.01782E-06 0.00000E+00
 -1       126 5.35660E-04 3.24241E-06 0.00000E+00
 -3
    1PSTEP                        26           7           1          
  100CL  107 7.00000E-02         126                     1    7           1
 -4  STRESS      6    1
 -5  SXX         1    4    1    1
 -5  SYY         1    4    2    2
 -5  SZZ         1    4    3    3
 -5  SXY         1    4    1    2
 -5  SYZ         1    4    2    3
 -5  SZX         1    4    3    1
 -1         1 2.78632E+03 6.49766E+03 2.73215E+03 2.21622E+03-1.59085E-10-1.07080E-10
 -1         2 2.78632E+03 6.49766E+03 2.73215E+03 2.21622E+03-1.59085E-10-1.07080E-10
 -1         3-2.64172E+01 1.77577E+02 4.53018E+01 1.46131E+01 7.18867E-08 1.89174E-07
 -1         4-2.64172E+01 1.77577E+02 4.53018E+01 1.46131E+01 7.18867E-08 1.89174E-07
 -1         5 9.28582E+00 1.72158E+02 5.43864E+01-5.89691E+01-5.07458E-08 1.51465E-07
 -1         6 9.28582E+00 1.72158E+02 5.43864E+01-5.89691E+01-5.07458E-08 1.51464E-07
 -1         7-2.62456E+03-6.11648E+03-2.67103E+03 1.91415E+03-1.42323E-10 8.62699E-11
 -1         8-2.62456E+03-6.11648E+03-2.67103E+03 1.91415E+03-1.42323E-10 8.62699E-11
 -1         9 4.80365E+01 3.07235E+02 1.06460E+02-2.04546E+01-2.14620E-08 1.64824E-07
 -1        10 4.80365E+01 3.07235E+02 1.06460E+02-2.04546E+01-2.14620E-08 1.64824E-07
 -1        11 5.84850E+01 3.75266E+01 2.82057E+01 1.64772E+03-1.50973E-10 4.09398E-12
 -1        12 5.84850E+01 3.75266E+01 2.82057E+01 1.64772E+03-1.50973E-10 4.09398E-12
 -1        13 6.39550E+02 4.63322E+03 1.55835E+03 8.45771E+02-1.13604E-09-8.21983E-08
 -1        14 5.39601E+02 2.62680E+03 9.41045E+02 5.11973E+02 1.72140E-08-1.06728E-07
 -1        15 1.47960E+01 5.48795E+02 1.67189E+02 4.28629E+02 1.84690E-08-6.96469E-08
 -1        16-4.19902E+02-1.25009E+03-5.03768E+02 3.86508E+02-1.81611E-09-4.29022E-08
 -1        17-7.90565E+02-2.78753E+03-1.08213E+03 2.81612E+02-1.81806E-08-1.05980E-07
 -1        18-9.46902E+02-3.40713E+03-1.31873E+03-1.10931E+01-8.12662E-09-1.65692E-07
 -1        19-7.85425E+02-2.66201E+03-1.04207E+03-2.70769E+02 2.81368E-08-1.94302E-07
 -1        20-4.55421E+02-1.13653E+03-4.79664E+02-3.01218E+02 6.96436E-08-1.56668E-07
 -1        21-1.84457E+02 1.75743E+02-3.15564E+00-1.70252E+02 7.64825E-08-5.05750E-08
 -1        22-6.54605E+01 7.67347E+02 2.09674E+02-3.84026E+01 4.30729E-08 7.97046E-08
 -1        23-4.72934E+01 7.68818E+02 2.15604E+02 3.05999E+01 1.39545E-08 8.09919E-08
 -1        24-8.81428E+01 5.35587E+02 1.33751E+02 5.91434E+01-5.25312E-09 1.10664E-07
 -1        25-1.46958E+02 2.97305E+02 4.48778E+01 5.96416E+01-1.32016E-08 1.66684E-08
 -1        26-1.84069E+02 1.11343E+02-2.19211E+01 3.06499E+01-1.44414E-08 5.81969E-08
 -1        27-1.62808E+02 1.83199E+01-4.33775E+01 2.83925E-02-8.27669E-09 2.16083E-08
 -1        28-1.37344E+02 3.47939E+01-3.07911E+01-3.05340E-01 1.46288E-08-6.71563E-09
 -1        29-1.47858E+02 9.63448E+01-1.55106E+01 1.04907E+01 3.11048E-08 4.25778E-08
 -1        30-1.44235E+02 1.20626E+02-7.15111E+00 1.48698E+01 5.30119E-08 4.66464E-08
 -1        31-8.34489E+01 1.44162E+02 1.81633E+01 1.36686E+00 6.47792E-08 1.05144E-07
 -1        32 6.39550E+02 4.63322E+03 1.55835E+03 8.45771E+02-1.13604E-09-8.21983E-08
 -1        33 5.39601E+02 2.62680E+03 9.41045E+02 5.11973E+02 1.72140E-08-1.06728E-07
 -1        34 1.47960E+01 5.48795E+02 1.67189E+02 4.28629E+02 1.84690E-08-6.96468E-08
 -1        35-4.19902E+02-1.25009E+03-5.03768E+02 3.86508E+02-1.81611E-09-4.29022E-08
 -1        36-7.90565E+02-2.78753E+03-1.08213E+03 2.81612E+02-1.81806E-08-1.05980E-07
 -1        37-9.46902E+02-3.40713E+03-1.31873E+03-1.10931E+01-8.12663E-09-1.65691E-07
 -1        38-7.85425E+02-2.66201E+03-1.04207E+03-2.70769E+02 2.81368E-08-1.94303E-07
 -1        39-4.55421E+02-1.13653E+03-4.79664E+02-3.01218E+02 6.96436E-08-1.56668E-07
 -1        40-1.84457E+02 1.75743E+02-3.15564E+00-1.70252E+02 7.64825E-08-5.05749E-08
 -1        41-6.54605E+01 7.67347E+02 2.09674E+02-3.84026E+01 4.30729E-08 7.97047E-08
 -1        42-4.72934E+01 7.68818E+02 2.15604E+02 3.05999E+01 1.39545E-08 8.09920E-08
 -1        43-8.81428E+01 5.35587E+02 1.33751E+02 5.91434E+01-5.25312E-09 1.10664E-07
 -1        44-1.46958E+02 2.97305E+02 4.48778E+01 5.96416E+01-1.32016E-08 1.66682E-08
 -1        45-1.84069E+02 1.11343E+02-2.19211E+01 3.06499E+01-1.44414E-08 5.81971E-08
 -1        46-1.62808E+02 1.83199E+01-4.33775E+01 2.83924E-02-8.27668E-09 2.16084E-08
 -1        47-1.37344E+02 3.47940E+01-3.07911E+01-3.05340E-01 1.46288E-08-6.71555E-09
 -1        48-1.47858E+02 9.63448E+01-1.55106E+01 1.04907E+01 3.11047E-08 4.25783E-08
 -1        49-1.44235E+02 1.20626E+02-7.15111E+00 1.48698E+01 5.30119E-08 4.66463E-08
 -1        50-8.34489E+01 1.44162E+02 1.81633E+01 1.36686E+00 6.47792E-08 1.05144E-07
 -1        51-1.05444E+01 2.00927E+02 5.70554E+01 5.86834E+00-5.39864E-08 1.25184E-07
 -1        52-2.12085E+01 2.67026E+02 7.36365E+01 2.96541E+01-2.61999E-08 3.02500E-08
 -1        53-2.36244E+01 3.60789E+02 1.00959E+02 1.88606E+01 5.55921E-09 1.71808E-08
 -1        54 1.16866E+01 4.86519E+02 1.49151E+02 5.22947E+00 5.75755E-09 3.31556E-08
 -1        55 6.47015E+00 5.48093E+02 1.65974E+02 1.20413E+01 3.93502E-09-2.07661E-09
 -1        56-3.50539E+01 5.26047E+02 1.46889E+02 4.44375E+01 1.50315E-08 4.09168E-10
 -1        57-8.70275E+01 4.33816E+02 1.03706E+02 6.82552E+01 3.08322E-08 7.41339E-08
 -1        58-1.39818E+02 2.47587E+02 3.21544E+01 6.18977E+01 2.60589E-08 8.68273E-08
 -1        59-1.94962E+02-1.35957E+01-6.26302E+01 3.12566E+01-1.16081E-08 1.19819E-07
 -1        60-2.06461E+02-9.68235E+01-9.10604E+01-4.09915E+01-5.09375E-08 6.72839E-08
 -1        61-5.71451E+01 4.18230E+02 1.07691E+02-1.79781E+02-6.87469E-08-2.87140E-08
 -1        62 2.29107E+02 1.65221E+03 5.60552E+02-3.16656E+02-4.05919E-08-1.28846E-07
 -1        63 5.28844E+02 3.09680E+03 1.07677E+03-2.68456E+02 9.98899E-09-1.94872E-07
 -1        64 6.40234E+02 3.75116E+03 1.30182E+03 3.82892E+01 3.44142E-08-1.53587E-07
 -1        65 5.36112E+02 3.05852E+03 1.06742E+03 3.56551E+02 2.41099E-08-1.02362E-07
 -1        66 2.05910E+02 1.44225E+03 4.90758E+02 4.28566E+02 6.83531E-10-6.57558E-08
 -1        67-2.06938E+02-4.14979E+02-1.88286E+02 4.09989E+02-1.08208E-08-8.58605E-08
 -1        68-8.12230E+02-2.54592E+03-1.01549E+03 4.31463E+02-6.39439E-09-7.84193E-08
 -1        69-9.20312E+02-4.50370E+03-1.64934E+03 6.95961E+02 8.87787E-09-7.11029E-08
 -1        70-1.05444E+01 2.00927E+02 5.70554E+01 5.86834E+00-5.39864E-08 1.25184E-07
 -1        71-2.12085E+01 2.67026E+02 7.36365E+01 2.96541E+01-2.61999E-08 3.02501E-08
 -1        72-2.36244E+01 3.60789E+02 1.00959E+02 1.88606E+01 5.55923E-09 1.71808E-08
 -1        73 1.16866E+01 4.86519E+02 1.49151E+02 5.22947E+00 5.75762E-09 3.31557E-08
 -1        74 6.47015E+00 5.48093E+02 1.65974E+02 1.20413E+01 3.93495E-09-2.07703E-09
 -1        75-3.50539E+01 5.26047E+02 1.46889E+02 4.44375E+01 1.50315E-08 4.09209E-10
 -1        76-8.70275E+01 4.33816E+02 1.03706E+02 6.82552E+01 3.08322E-08 7.41333E-08
 -1        77-1.39818E+02 2.47587E+02 3.21544E+01 6.18977E+01 2.60589E-08 8.68277E-08
 -1        78-1.94962E+02-1.35957E+01-6.26302E+01 3.12566E+01-1.16081E-08 1.19819E-07
 -1        79-2.06461E+02-9.68235E+01-9.10604E+01-4.09915E+01-5.09374E-08 6.72839E-08
 -1        80-5.71451E+01 4.18230E+02 1.07691E+02-1.79781E+02-6.87470E-08-2.87140E-08
 -1        81 2.29107E+02 1.65221E+03 5.60552E+02-3.16656E+02-4.05919E-08-1.28846E-07
 -1        82 5.28844E+02 3.09680E+03 1.07677E+03-2.68456E+02 9.98899E-09-1.94873E-07
 -1        83 6.40234E+02 3.75116E+03 1.30182E+03 3.82892E+01 3.44142E-08-1.53587E-07
 -1        84 5.36112E+02 3.05852E+03 1.06742E+03 3.56551E+02 2.41099E-08-1.02362E-07
 -1        85 2.05910E+02 1.44225E+03 4.90758E+02 4.28566E+02 6.83492E-10-6.57554E-08
 -1        86-2.06938E+02-4.14979E+02-1.88286E+02 4.09989E+02-1.08207E-08-8.58605E-08
 -1        87-8.12230E+02-2.54592E+03-1.01549E+03 4.31463E+02-6.39438E-09-7.84193E-08
 -1        88-9.20312E+02-4.50370E+03-1.64934E+03 6.95961E+02 8.87787E-09-7.11029E-08
 -1        89-1.29110E+02-7.41891E+00-4.09119E+01 6.93617E+02 8.98900E-09-7.73695E-08
 -1        90-1.12096E+02 3.43939E+01-2.32832E+01 6.61059E+02 1.75242E-09-9.68844E-08
 -1        91-9.41733E+01 4.48957E+01-1.56052E+01 5.41049E+02-4.89574E-09-8.21402E-08
 -1        92-1.03609E+02 7.24344E+01-9.93650E+00 5.27076E+02 2.34476E-09-4.07984E-08
 -1        93-1.16806E+02 1.10075E+02-2.20466E+00 4.01842E+02 1.03161E-08-1.05164E-07
 -1        94-1.41188E+02 1.44354E+02 5.80464E-01 1.08756E+01 1.25157E-08-1.65314E-07
 -1        95-1.24148E+02 1.89070E+02 1.95213E+01-3.54596E+02 1.92160E-08-1.99665E-07
 -1        96-1.15306E+02 2.37991E+02 3.65925E+01-4.11767E+02 1.61352E-08-1.54254E-07
 -1        97-1.19932E+02 2.95319E+02 5.22152E+01-2.39633E+02-2.33200E-09-2.84917E-08
 -1        98-1.31248E+02 3.44948E+02 6.37991E+01-5.40447E+01 2.50308E-10 7.53958E-08
 -1        99-1.18293E+02 3.83636E+02 7.93177E+01 4.46930E+01 6.29074E-10 1.01754E-07
 -1       100-1.12577E+02 3.94795E+02 8.43701E+01 7.67649E+01 1.30304E-08 1.06418E-07
 -1       101-1.12849E+02 3.75255E+02 7.84449E+01 7.26791E+01 3.41852E-09 3.97813E-08
 -1       102-1.06355E+02 3.26068E+02 6.57015E+01 4.26843E+01-1.37192E-08 3.65552E-08
 -1       103-8.28392E+01 2.72020E+02 5.66231E+01 7.43438E+00 1.21893E-08 4.58798E-09
 -1       104-6.95179E+01 2.44691E+02 5.24506E+01-3.51996E+00 6.70720E-09 1.21857E-08
 -1       105-8.27359E+01 2.35341E+02 4.56788E+01 5.48764E+00 8.01515E-09 3.52972E-08
 -1       106-7.14804E+01 2.20030E+02 4.44714E+01 1.89313E+01 1.99887E-08 3.64186E-08
 -1       107-1.22726E+01 2.53760E+02 7.23527E+01 5.49654E+00-6.93288E-09 1.14873E-07
 -1       108-1.22726E+01 2.53760E+02 7.23527E+01 5.49654E+00-6.93285E-09 1.14874E-07
 -1       109-7.14804E+01 2.20030E+02 4.44714E+01 1.89313E+01 1.99887E-08 3.64185E-08
 -1       110-8.27359E+01 2.35341E+02 4.56788E+01 5.48764E+00 8.01514E-09 3.52971E-08
 -1       111-6.95179E+01 2.44691E+02 5.24506E+01-3.51996E+00 6.70719E-09 1.21855E-08
 -1       112-8.28392E+01 2.72020E+02 5.66231E+01 7.43438E+00 1.21893E-08 4.58786E-09
 -1       113-1.06355E+02 3.26068E+02 6.57015E+01 4.26843E+01-1.37192E-08 3.65551E-08
 -1       114-1.12849E+02 3.75255E+02 7.84449E+01 7.26791E+01 3.41853E-09 3.97817E-08
 -1       115-1.12577E+02 3.94795E+02 8.43701E+01 7.67649E+01 1.30304E-08 1.06418E-07
 -1       116-1.18293E+02 3.83636E+02 7.93177E+01 4.46930E+01 6.29078E-10 1.01754E-07
 -1       117-1.31248E+02 3.44948E+02 6.37991E+01-5.40447E+01 2.50321E-10 7.53956E-08
 -1       118-1.19932E+02 2.95319E+02 5.22152E+01-2.39633E+02-2.33201E-09-2.84918E-08
 -1       119-1.15306E+02 2.37991E+02 3.65925E+01-4.11767E+02 1.61352E-08-1.54254E-07
 -1       120-1.24148E+02 1.89070E+02 1.95213E+01-3.54596E+02 1.92160E-08-1.99665E-07
 -1       121-1.41188E+02 1.44354E+02 5.80464E-01 1.08756E+01 1.25157E-08-1.65314E-07
 -1       122-1.16806E+02 1.10075E+02-2.20466E+00 4.01842E+02 1.03161E-08-1.05164E-07
 -1       123-1.03609E+02 7.24344E+01-9.93650E+00 5.27076E+02 2.34478E-09-4.07984E-08
 -1       124-9.41733E+01 4.48957E+01-1.56052E+01 5.41049E+02-4.89573E-09-8.21403E-08
 -1       125-1.12096E+02 3.43939E+01-2.32832E+01 6.61059E+02 1.75242E-09-9.68844E-08
 -1       126-1.29110E+02-7.41891E+00-4.09119E+01 6.93617E+02 8.98900E-09-7.73695E-08
 -3
    1PSTEP                        27           7           1          
  100CL  107 7.00000E-02         126                     1    7           1
 -4  TOSTRAIN    6    1
 -5  EXX         1    4    1    1
 -5  EYY         1    4    2    2
 -5  EZZ         1    4    3    3
 -5  EXY         1    4    1    2
 -5  EYZ         1    4    2    3
 -5  EZX         1    4    3    1
 -1         1-1.22800E-05 1.19670E-02-2.38202E-26 6.93406E-03-2.30751E-19-1.40414E-16
 -1         2-1.22800E-05 1.19670E-02-2.38202E-26 6.93406E-03-2.30751E-19-1.40414E-16
 -1         3-2.32835E-04 4.29172E-04 8.08669E-25 4.97694E-05 2.31348E-13 6.15691E-13
 -1         4-2.32835E-04 4.29172E-04 8.08669E-25 4.97694E-05 2.31348E-13 6.15691E-13
 -1         5-1.47834E-04 3.83552E-04 5.33300E-25-1.89933E-04-1.66243E-13 4.91741E-13
 -1         6-1.47834E-04 3.83552E-04 5.33295E-25-1.89933E-04-1.66243E-13 4.91738E-13
 -1         7-1.17704E-05-1.14522E-02-1.80907E-26 6.46519E-03-4.87697E-19 1.49476E-16
 -1         8-1.17704E-05-1.14522E-02-1.80907E-26 6.46519E-03-4.87697E-19 1.49476E-16
 -1         9-1.90335E-04 6.51864E-04 5.56827E-25-6.36460E-05-7.13973E-14 5.35424E-13
 -1        10-1.90335E-04 6.51864E-04 5.56827E-25-6.36460E-05-7.13975E-14 5.35424E-13
 -1        11-1.20252E-05 1.10197E-04-2.13963E-26 5.35646E-03-2.87646E-19 4.40944E-17
 -1        12-1.20252E-05 1.10197E-04-2.13963E-26 5.35646E-03-2.87646E-19 4.40944E-17
 -1        13-3.08974E-03 9.87498E-03 1.29566E-25 2.53704E-03-6.53253E-15-2.66864E-13
 -1        14-1.38055E-03 5.47468E-03 2.42785E-25 1.51121E-03 4.89773E-14-3.47810E-13
 -1        15-5.63560E-04 1.29120E-03 1.03638E-25 1.34877E-03 5.48989E-14-2.27805E-13
 -1        16 2.09875E-04-2.38675E-03 2.99120E-26 1.32021E-03-8.96302E-15-1.39379E-13
 -1        17 8.96440E-04-5.56814E-03 2.27734E-25 1.03385E-03-6.54023E-14-3.43761E-13
 -1        18 1.17924E-03-6.87012E-03 5.70264E-25 3.94109E-05-3.17606E-14-5.39087E-13
 -1        19 8.21797E-04-5.32104E-03 8.05675E-25-8.75836E-04 9.08559E-14-6.32388E-13
 -1        20 6.92063E-05-2.14237E-03 5.86224E-25-9.90042E-04 2.28311E-13-5.08650E-13
 -1        21-5.95622E-04 5.82783E-04 1.02667E-25-5.49819E-04 2.49026E-13-1.63294E-13
 -1        22-8.96879E-04 1.80618E-03 1.34696E-25-1.16466E-04 1.38911E-13 2.59587E-13
 -1        23-8.55510E-04 1.79059E-03 1.38080E-25 1.04217E-04 4.47500E-14 2.63398E-13
 -1        24-7.21619E-04 1.30159E-03 2.41478E-25 1.94322E-04-1.75407E-14 3.59795E-13
 -1        25-6.23823E-04 8.18367E-04-1.11557E-26 1.95346E-04-4.29316E-14 5.41601E-14
 -1        26-5.27440E-04 4.32455E-04 6.97720E-26 1.01020E-04-4.72280E-14 1.89178E-13
 -1        27-3.88561E-04 2.00587E-04 4.80126E-27 1.35341E-06-2.70474E-14 7.01990E-14
 -1        28-3.46600E-04 2.13165E-04-2.22489E-27 5.08132E-07 4.75919E-14-2.17092E-14
 -1        29-4.30309E-04 3.63095E-04 5.13730E-26 3.64283E-05 1.00645E-13 1.38733E-13
 -1        30-4.45628E-04 4.14637E-04 9.45374E-26 5.09924E-05 1.71741E-13 1.52196E-13
 -1        31-3.30420E-04 4.09127E-04 2.86171E-25 6.87843E-06 2.09313E-13 3.42507E-13
 -1        32-3.08974E-03 9.87498E-03 1.29566E-25 2.53704E-03-6.53253E-15-2.66864E-13
 -1        33-1.38055E-03 5.47468E-03 2.42785E-25 1.51121E-03 4.89773E-14-3.47810E-13
 -1        34-5.63560E-04 1.29120E-03 1.03637E-25 1.34877E-03 5.48989E-14-2.27805E-13
 -1        35 2.09875E-04-2.38675E-03 2.99122E-26 1.32021E-03-8.96305E-15-1.39379E-13
 -1        36 8.96440E-04-5.56814E-03 2.27733E-25 1.03385E-03-6.54023E-14-3.43760E-13
 -1        37 1.17924E-03-6.87012E-03 5.70261E-25 3.94109E-05-3.17606E-14-5.39085E-13
 -1        38 8.21797E-04-5.32104E-03 8.05676E-25-8.75836E-04 9.08559E-14-6.32389E-13
 -1        39 6.92063E-05-2.14237E-03 5.86224E-25-9.90042E-04 2.28311E-13-5.08650E-13
 -1        40-5.95622E-04 5.82783E-04 1.02667E-25-5.49819E-04 2.49026E-13-1.63294E-13
 -1        41-8.96879E-04 1.80618E-03 1.34696E-25-1.16466E-04 1.38911E-13 2.59588E-13
 -1        42-8.55510E-04 1.79059E-03 1.38081E-25 1.04217E-04 4.47501E-14 2.63398E-13
 -1        43-7.21619E-04 1.30159E-03 2.41478E-25 1.94322E-04-1.75407E-14 3.59796E-13
 -1        44-6.23823E-04 8.18367E-04-1.11561E-26 1.95346E-04-4.29316E-14 5.41595E-14
 -1        45-5.27440E-04 4.32455E-04 6.97724E-26 1.01020E-04-4.72280E-14 1.89179E-13
 -1        46-3.88561E-04 2.00587E-04 4.80129E-27 1.35341E-06-2.70474E-14 7.01993E-14
 -1        47-3.46600E-04 2.13165E-04-2.22486E-27 5.08132E-07 4.75919E-14-2.17089E-14
 -1        48-4.30309E-04 3.63095E-04 5.13739E-26 3.64283E-05 1.00645E-13 1.38735E-13
 -1        49-4.45628E-04 4.14637E-04 9.45373E-26 5.09924E-05 1.71741E-13 1.52196E-13
 -1        50-3.30420E-04 4.09127E-04 2.86171E-25 6.87843E-06 2.09313E-13 3.42506E-13
 -1        51-2.19665E-04 4.66966E-04 3.66457E-25 2.11631E-05-1.76618E-13 4.06345E-13
 -1        52-3.07815E-04 6.27012E-04 7.57621E-27 9.91041E-05-8.53886E-14 9.80811E-14
 -1        53-4.04769E-04 8.42456E-04 4.24230E-27 6.49099E-05 1.78783E-14 5.58989E-14
 -1        54-4.46992E-04 1.09370E-03 2.04407E-26 2.09714E-05 1.84045E-14 1.07821E-13
 -1        55-5.18686E-04 1.23837E-03-1.50400E-27 4.26280E-05 1.27838E-14-6.72501E-15
 -1        56-5.91591E-04 1.22849E-03-1.08907E-26 1.46816E-04 4.87781E-14 1.38844E-15
 -1        57-6.20133E-04 1.06973E-03 1.21480E-25 2.23414E-04 9.97592E-14 2.41116E-13
 -1        58-5.59127E-04 6.98519E-04 1.68657E-25 2.02503E-04 8.42467E-14 2.82410E-13
 -1        59-4.30548E-04 1.59178E-04 2.94315E-25 1.02446E-04-3.84748E-14 3.89565E-13
 -1        60-3.77133E-04-1.74458E-05 1.17407E-25-1.32076E-04-1.66236E-13 2.18261E-13
 -1        61-5.42335E-04 1.00986E-03 6.59811E-26-5.75540E-04-2.22797E-13-9.44334E-14
 -1        62-1.08848E-03 3.52408E-03 3.43003E-25-1.00825E-03-1.30251E-13-4.19246E-13
 -1        63-1.79634E-03 6.47972E-03 7.90694E-25-8.78116E-04 3.09267E-14-6.32939E-13
 -1        64-2.18450E-03 7.84841E-03 5.13409E-25 3.02525E-05 1.06055E-13-4.99774E-13
 -1        65-1.78456E-03 6.42705E-03 2.25675E-25 1.00992E-03 7.21076E-14-3.33857E-13
 -1        66-9.91826E-04 3.12450E-03 8.54631E-26 1.29694E-03-2.35201E-15-2.13693E-13
 -1        67-1.27021E-04-6.85330E-04 1.57214E-25 1.34932E-03-4.13719E-14-2.78236E-13
 -1        68 5.91340E-04-4.97273E-03 1.28964E-25 1.52998E-03-2.58146E-14-2.54750E-13
 -1        69 2.27937E-03-9.38779E-03 9.90222E-26 2.45207E-03 2.67741E-14-2.31885E-13
 -1        70-2.19665E-04 4.66966E-04 3.66456E-25 2.11631E-05-1.76618E-13 4.06345E-13
 -1        71-3.07815E-04 6.27012E-04 7.57657E-27 9.91041E-05-8.53886E-14 9.80815E-14
 -1        72-4.04769E-04 8.42456E-04 4.24230E-27 6.49099E-05 1.78784E-14 5.58989E-14
 -1        73-4.46992E-04 1.09370E-03 2.04408E-26 2.09714E-05 1.84047E-14 1.07821E-13
 -1        74-5.18686E-04 1.23837E-03-1.50412E-27 4.26280E-05 1.27836E-14-6.72638E-15
 -1        75-5.91591E-04 1.22849E-03-1.08906E-26 1.46816E-04 4.87781E-14 1.38857E-15
 -1        76-6.20133E-04 1.06973E-03 1.21479E-25 2.23414E-04 9.97592E-14 2.41114E-13
 -1        77-5.59127E-04 6.98519E-04 1.68659E-25 2.02503E-04 8.42467E-14 2.82411E-13
 -1        78-4.30548E-04 1.59178E-04 2.94314E-25 1.02446E-04-3.84749E-14 3.89565E-13
 -1        79-3.77133E-04-1.74458E-05 1.17407E-25-1.32076E-04-1.66236E-13 2.18261E-13
 -1        80-5.42335E-04 1.00986E-03 6.59812E-26-5.75540E-04-2.22797E-13-9.44336E-14
 -1        81-1.08848E-03 3.52408E-03 3.43003E-25-1.00825E-03-1.30251E-13-4.19246E-13
 -1        82-1.79634E-03 6.47972E-03 7.90695E-25-8.78116E-04 3.09267E-14-6.32940E-13
 -1        83-2.18450E-03 7.84841E-03 5.13406E-25 3.02525E-05 1.06055E-13-4.99772E-13
 -1        84-1.78456E-03 6.42705E-03 2.25674E-25 1.00992E-03 7.21075E-14-3.33856E-13
 -1        85-9.91826E-04 3.12450E-03 8.54621E-26 1.29694E-03-2.35211E-15-2.13692E-13
 -1        86-1.27021E-04-6.85330E-04 1.57214E-25 1.34932E-03-4.13716E-14-2.78236E-13
 -1        87 5.91340E-04-4.97273E-03 1.28964E-25 1.52998E-03-2.58146E-14-2.54750E-13
 -1        88 2.27937E-03-9.38779E-03 9.90222E-26 2.45207E-03 2.67741E-14-2.31885E-13
 -1        89-4.05183E-04 2.18121E-04 1.17038E-25 2.24871E-03 2.65101E-14-2.52013E-13
 -1        90-3.94606E-04 2.88956E-04 1.96449E-25 2.13692E-03-2.93368E-16-3.15084E-13
 -1        91-3.45291E-04 2.76848E-04 1.38575E-25 1.74581E-03-2.18058E-14-2.66563E-13
 -1        92-3.90975E-04 3.46353E-04 2.41330E-26 1.69828E-03 4.73349E-15-1.32804E-13
 -1        93-4.44062E-04 4.29934E-04 2.21123E-25 1.29207E-03 2.77243E-14-3.42504E-13
 -1        94-5.02630E-04 4.98936E-04 5.71688E-25 2.69863E-05 3.56282E-14-5.37858E-13
 -1        95-4.87272E-04 5.67400E-04 8.45536E-25-1.15268E-03 6.11076E-14-6.49167E-13
 -1        96-5.09637E-04 6.66703E-04 4.65521E-25-1.33311E-03 5.36503E-14-5.01252E-13
 -1        97-5.68978E-04 7.95101E-04-4.90912E-26-7.72362E-04-7.21953E-15-9.26803E-14
 -1        98-6.37006E-04 9.13467E-04 9.29865E-26-1.70727E-04 8.80336E-17 2.45159E-13
 -1        99-6.43029E-04 9.86779E-04 2.16860E-25 1.47984E-04 1.40931E-15 3.30853E-13
 -1       100-6.40373E-04 1.00609E-03 2.34496E-25 2.51073E-04 4.18272E-14 3.46054E-13
 -1       101-6.21978E-04 9.62014E-04 2.20263E-26 2.37710E-04 1.09305E-14 1.29357E-13
 -1       102-5.59515E-04 8.44280E-04 2.56090E-26 1.40646E-04-4.47336E-14 1.18791E-13
 -1       103-4.53623E-04 6.99013E-04-1.90781E-28 2.65269E-05 3.95507E-14 1.49948E-14
 -1       104-3.96796E-04 6.24101E-04 2.26020E-27-8.72345E-06 2.16794E-14 3.96750E-14
 -1       105-4.17539E-04 6.15507E-04 2.55680E-26 2.08917E-05 2.56875E-14 1.14828E-13
 -1       106-3.76722E-04 5.69471E-04 1.88172E-26 6.43954E-05 6.45488E-14 1.18589E-13
 -1       107-2.75042E-04 5.88669E-04 2.50545E-25 2.06245E-05-2.37115E-14 3.73310E-13
 -1       108-2.75042E-04 5.88669E-04 2.50547E-25 2.06245E-05-2.37114E-14 3.73312E-13
 -1       109-3.76722E-04 5.69471E-04 1.88169E-26 6.43954E-05 6.45488E-14 1.18589E-13
 -1       110-4.17539E-04 6.15507E-04 2.55679E-26 2.08917E-05 2.56875E-14 1.14828E-13
 -1       111-3.96796E-04 6.24101E-04 2.26013E-27-8.72345E-06 2.16794E-14 3.96745E-14
 -1       112-4.53623E-04 6.99013E-04-1.90829E-28 2.65269E-05 3.95507E-14 1.49944E-14
 -1       113-5.59515E-04 8.44280E-04 2.56088E-26 1.40646E-04-4.47336E-14 1.18790E-13
 -1       114-6.21978E-04 9.62014E-04 2.20272E-26 2.37710E-04 1.09305E-14 1.29359E-13
 -1       115-6.40373E-04 1.00609E-03 2.34494E-25 2.51073E-04 4.18272E-14 3.46053E-13
 -1       116-6.43029E-04 9.86779E-04 2.16860E-25 1.47984E-04 1.40932E-15 3.30853E-13
 -1       117-6.37006E-04 9.13467E-04 9.29860E-26-1.70727E-04 8.80769E-17 2.45158E-13
 -1       118-5.68978E-04 7.95101E-04-4.90911E-26-7.72362E-04-7.21954E-15-9.26805E-14
 -1       119-5.09637E-04 6.66703E-04 4.65521E-25-1.33311E-03 5.36503E-14-5.01252E-13
 -1       120-4.87272E-04 5.67400E-04 8.45533E-25-1.15268E-03 6.11076E-14-6.49166E-13
 -1       121-5.02630E-04 4.98936E-04 5.71691E-25 2.69863E-05 3.56283E-14-5.37860E-13
 -1       122-4.44062E-04 4.29934E-04 2.21125E-25 1.29207E-03 2.77242E-14-3.42505E-13
 -1       123-3.90975E-04 3.46353E-04 2.41328E-26 1.69828E-03 4.73355E-15-1.32803E-13
 -1       124-3.45291E-04 2.76848E-04 1.38575E-25 1.74581E-03-2.18058E-14-2.66563E-13
 -1       125-3.94606E-04 2.88956E-04 1.96449E-25 2.13692E-03-2.93370E-16-3.15084E-13
 -1       126-4.05183E-04 2.18121E-04 1.17038E-25 2.24871E-03 2.65101E-14-2.52013E-13
 -3
    1PSTEP                        28           7           1          
  100CL  107 7.00000E-02         126                     1    7           1
 -4  ERROR       1    1
 -5  STR(%)      1    1    0    0
 -1         1 6.33526E+01
 -1         2 6.33526E+01
 -1         3 1.81027E+01
 -1         4 1.81027E+01
 -1         5 2.11977E+01
 -1         6 2.11977E+01
 -1         7 6.23485E+01
 -1         8 6.23485E+01
 -1         9 2.11977E+01
 -1        10 2.11977E+01
 -1        11 6.33526E+01
 -1        12 6.33526E+01
 -1        13 6.33526E+01
 -1        14 5.33761E+01
 -1        15 3.82066E+01
 -1        16 5.25712E+01
 -1        17 6.56258E+01
 -1        18 6.62300E+01
 -1        19 6.62300E+01
 -1        20 6.46497E+01
 -1        21 6.46497E+01
 -1        22 2.79155E+01
 -1        23 2.79155E+01
 -1        24 1.56367E+01
 -1        25 2.12804E+01
 -1        26 5.00034E+01
 -1        27 5.70473E+01
 -1        28 5.70473E+01
 -1        29 3.83883E+01
 -1        30 1.92213E+01
 -1        31 1.92213E+01
 -1        32 6.33526E+01
 -1        33 5.33761E+01
 -1        34 3.82066E+01
 -1        35 5.25712E+01
 -1        36 6.56258E+01
 -1        37 6.62300E+01
 -1        38 6.62300E+01
 -1        39 6.46497E+01
 -1        40 6.46497E+01
 -1        41 2.79155E+01
 -1        42 2.79155E+01
 -1        43 1.56367E+01
 -1        44 2.12804E+01
 -1        45 5.00034E+01
 -1        46 5.70473E+01
 -1        47 5.70473E+01
 -1        48 3.83883E+01
 -1        49 1.92213E+01
 -1        50 1.92213E+01
 -1        51 2.11977E+01
 -1        52 4.64483E+00
 -1        53 1.69343E+01
 -1        54 2.51099E+01
 -1        55 2.51099E+01
 -1        56 2.02198E+01
 -1        57 7.93670E+00
 -1        58 3.67795E+01
 -1        59 8.63975E+01
 -1        60 8.63975E+01
 -1        61 6.41855E+01
 -1        62 4.89014E+01
 -1        63 5.78359E+01
 -1        64 5.84882E+01
 -1        65 5.84882E+01
 -1        66 4.96065E+01
 -1        67 3.59707E+01
 -1        68 5.46225E+01
 -1        69 6.23485E+01
 -1        70 2.11977E+01
 -1        71 4.64483E+00
 -1        72 1.69343E+01
 -1        73 2.51099E+01
 -1        74 2.51099E+01
 -1        75 2.02198E+01
 -1        76 7.93670E+00
 -1        77 3.67795E+01
 -1        78 8.63975E+01
 -1        79 8.63975E+01
 -1        80 6.41855E+01
 -1        81 4.89014E+01
 -1        82 5.78359E+01
 -1        83 5.84882E+01
 -1        84 5.84882E+01
 -1        85 4.96065E+01
 -1        86 3.59707E+01
 -1        87 5.46225E+01
 -1        88 6.23485E+01
 -1        89 6.33526E+01
 -1        90 5.46225E+01
 -1        91 3.82066E+01
 -1        92 5.25712E+01
 -1        93 6.56258E+01
 -1        94 6.62300E+01
 -1        95 6.62300E+01
 -1        96 6.46497E+01
 -1        97 6.46497E+01
 -1        98 8.63975E+01
 -1        99 8.63975E+01
 -1       100 3.67795E+01
 -1       101 2.12804E+01
 -1       102 5.00034E+01
 -1       103 5.70473E+01
 -1       104 5.70473E+01
 -1       105 3.83883E+01
 -1       106 1.92213E+01
 -1       107 2.11977E+01
 -1       108 2.11977E+01
 -1       109 1.92213E+01
 -1       110 3.83883E+01
 -1       111 5.70473E+01
 -1       112 5.70473E+01
 -1       113 5.00034E+01
 -1       114 2.12804E+01
 -1       115 3.67795E+01
 -1       116 8.63975E+01
 -1       117 8.63975E+01
 -1       118 6.46497E+01
 -1       119 6.46497E+01
 -1       120 6.62300E+01
 -1       121 6.62300E+01
 -1       122 6.56258E+01
 -1       123 5.25712E+01
 -1       124 3.82066E+01
 -1       125 5.46225E+01
 -1       126 6.33526E+01
 -3
    1PSTEP                        29           8           1          
  100CL  108 8.00000E-02         126                     1    8           1
 -4  DISP        4    1
 -5  D1          1    2    1    0
 -5  D2          1    2    2    0
 -5  D3          1    2    3    0
 -5  ALL         1    2    0    0    1ALL
 -1         1 0.00000E+00 0.00000E+00 0.00000E+00
 -1         2 0.00000E+00 0.00000E+00 0.00000E+00
 -1         3 5.54732E-03 4.36725E-04 0.00000E+00
 -1         4 5.54732E-03 4.36725E-04 0.00000E+00
 -1         5 5.55294E-03 7.71430E-04 0.00000E+00
 -1         6 5.55294E-03 7.71430E-04 0.00000E+00
 -1         7 0.00000E+00 0.00000E+00 0.00000E+00
 -1         8 0.00000E+00 0.00000E+00 0.00000E+00
 -1         9 5.54726E-03 6.20916E-04 0.00000E+00
 -1        10 5.54726E-03 6.20916E-04 0.00000E+00
 -1        11 0.00000E+00 0.00000E+00 0.00000E+00
 -1        12 0.00000E+00 0.00000E+00 0.00000E+00
 -1        13 7.04066E-04 6.44324E-04 0.00000E+00
 -1        14 1.77936E-03 1.07704E-03 0.00000E+00
 -1        15 3.15310E-03 1.26828E-03 0.00000E+00
 -1        16 4.55136E-03 1.26679E-03 0.00000E+00
 -1        17 5.82952E-03 1.12045E-03 0.00000E+00
 -1        18 6.88525E-03 8.43263E-04 0.00000E+00
 -1        19 7.50268E-03 4.73766E-04 0.00000E+00
 -1        20 7.57192E-03 1.48112E-04 0.00000E+00
 -1        21 7.28043E-03-2.66968E-06 0.00000E+00
 -1        22 6.92732E-03 2.89258E-05 0.00000E+00
 -1        23 6.69517E-03 1.48623E-04 0.00000E+00
 -1        24 6.58636E-03 2.59529E-04 0.00000E+00
 -1        25 6.52660E-03 3.23066E-04 0.00000E+00
 -1        26 6.45643E-03 3.49429E-04 0.00000E+00
 -1        27 6.36166E-03 3.59744E-04 0.00000E+00
 -1        28 6.23667E-03 3.66233E-04 0.00000E+00
 -1        29 6.08099E-03 3.75300E-04 0.00000E+00
 -1        30 5.90844E-03 3.90539E-04 0.00000E+00
 -1        31 5.72765E-03 4.15476E-04 0.00000E+00
 -1        32 7.04066E-04 6.44324E-04 0.00000E+00
 -1        33 1.77936E-03 1.07704E-03 0.00000E+00
 -1        34 3.15310E-03 1.26828E-03 0.00000E+00
 -1        35 4.55136E-03 1.26679E-03 0.00000E+00
 -1        36 5.82952E-03 1.12045E-03 0.00000E+00
 -1        37 6.88525E-03 8.43263E-04 0.00000E+00
 -1        38 7.50268E-03 4.73766E-04 0.00000E+00
 -1        39 7.57192E-03 1.48112E-04 0.00000E+00
 -1        40 7.28043E-03-2.66968E-06 0.00000E+00
 -1        41 6.92732E-03 2.89258E-05 0.00000E+00
 -1        42 6.69517E-03 1.48623E-04 0.00000E+00
 -1        43 6.58636E-03 2.59529E-04 0.00000E+00
 -1        44 6.52660E-03 3.23066E-04 0.00000E+00
 -1        45 6.45643E-03 3.49429E-04 0.00000E+00
 -1        46 6.36166E-03 3.59744E-04 0.00000E+00
 -1        47 6.23667E-03 3.66233E-04 0.00000E+00
 -1        48 6.08099E-03 3.75300E-04 0.00000E+00
 -1        49 5.90844E-03 3.90539E-04 0.00000E+00
 -1        50 5.72765E-03 4.15476E-04 0.00000E+00
 -1        51 5.72919E-03 7.54273E-04 0.00000E+00
 -1        52 5.91400E-03 7.23361E-04 0.00000E+00
 -1        53 6.07648E-03 6.85439E-04 0.00000E+00
 -1        54 6.22753E-03 6.38493E-04 0.00000E+00
 -1        55 6.35149E-03 5.84209E-04 0.00000E+00
 -1        56 6.44589E-03 5.28947E-04 0.00000E+00
 -1        57 6.50634E-03 4.82771E-04 0.00000E+00
 -1        58 6.55940E-03 4.63486E-04 0.00000E+00
 -1        59 6.65972E-03 4.78576E-04 0.00000E+00
 -1        60 6.88902E-03 4.92136E-04 0.00000E+00
 -1        61 7.24080E-03 4.16046E-04 0.00000E+00
 -1        62 7.53662E-03 1.63446E-04 0.00000E+00
 -1        63 7.46536E-03-2.54638E-04 0.00000E+00
 -1        64 6.84539E-03-6.99964E-04 0.00000E+00
 -1        65 5.78462E-03-1.02782E-03 0.00000E+00
 -1        66 4.50609E-03-1.20170E-03 0.00000E+00
 -1        67 3.10540E-03-1.21782E-03 0.00000E+00
 -1        68 1.73873E-03-1.04064E-03 0.00000E+00
 -1        69 6.88790E-04-6.27494E-04 0.00000E+00
 -1        70 5.72919E-03 7.54273E-04 0.00000E+00
 -1        71 5.91400E-03 7.23361E-04 0.00000E+00
 -1        72 6.07648E-03 6.85439E-04 0.00000E+00
 -1        73 6.22753E-03 6.38493E-04 0.00000E+00
 -1        74 6.35149E-03 5.84209E-04 0.00000E+00
 -1        75 6.44589E-03 5.28947E-04 0.00000E+00
 -1        76 6.50634E-03 4.82771E-04 0.00000E+00
 -1        77 6.55940E-03 4.63486E-04 0.00000E+00
 -1        78 6.65972E-03 4.78576E-04 0.00000E+00
 -1        79 6.88902E-03 4.92136E-04 0.00000E+00
 -1        80 7.24080E-03 4.16046E-04 0.00000E+00
 -1        81 7.53662E-03 1.63446E-04 0.00000E+00
 -1        82 7.46536E-03-2.54638E-04 0.00000E+00
 -1        83 6.84539E-03-6.99964E-04 0.00000E+00
 -1        84 5.78462E-03-1.02782E-03 0.00000E+00
 -1        85 4.50609E-03-1.20170E-03 0.00000E+00
 -1        86 3.10540E-03-1.21782E-03 0.00000E+00
 -1        87 1.73873E-03-1.04064E-03 0.00000E+00
 -1        88 6.88790E-04-6.27494E-04 0.00000E+00
 -1        89 5.42748E-04 8.56796E-06 0.00000E+00
 -1        90 1.69460E-03 1.85613E-05 0.00000E+00
 -1        91 3.10625E-03 2.67744E-05 0.00000E+00
 -1        92 4.54339E-03 3.17474E-05 0.00000E+00
 -1        93 5.85247E-03 4.35754E-05 0.00000E+00
 -1        94 6.93715E-03 6.86215E-05 0.00000E+00
 -1        95 7.56877E-03 1.08265E-04 0.00000E+00
 -1        96 7.61383E-03 1.55829E-04 0.00000E+00
 -1        97 7.27859E-03 2.06691E-04 0.00000E+00
 -1        98 6.89265E-03 2.61031E-04 0.00000E+00
 -1        99 6.65704E-03 3.15126E-04 0.00000E+00
 -1       100 6.55883E-03 3.63665E-04 0.00000E+00
 -1       101 6.51145E-03 4.05257E-04 0.00000E+00
 -1       102 6.44776E-03 4.40837E-04 0.00000E+00
 -1       103 6.35739E-03 4.72689E-04 0.00000E+00
 -1       104 6.23232E-03 5.03905E-04 0.00000E+00
 -1       105 6.07770E-03 5.33731E-04 0.00000E+00
 -1       106 5.90657E-03 5.60433E-04 0.00000E+00
 -1       107 5.72531E-03 5.90319E-04 0.00000E+00
 -1       108 5.72531E-03 5.90319E-04 0.00000E+00
 -1       109 5.90657E-03 5.60433E-04 0.00000E+00
 -1       110 6.07770E-03 5.33731E-04 0.00000E+00
 -1       111 6.23232E-03 5.03905E-04 0.00000E+00
 -1       112 6.35739E-03 4.72689E-04 0.00000E+00
 -1       113 6.44776E-03 4.40837E-04 0.00000E+00
 -1       114 6.51145E-03 4.05257E-04 0.00000E+00
 -1       115 6.55883E-03 3.63665E-04 0.00000E+00
 -1       116 6.65704E-03 3.15126E-04 0.00000E+00
 -1       117 6.89265E-03 2.61031E-04 0.00000E+00
 -1       118 7.27859E-03 2.06691E-04 0.00000E+00
 -1       119 7.61383E-03 1.55829E-04 0.00000E+00
 -1       120 7.56877E-03 1.08265E-04 0.00000E+00
 -1       121 6.93715E-03 6.86215E-05 0.00000E+00
 -1       122 5.85247E-03 4.35754E-05 0.00000E+00
 -1       123 4.54339E-03 3.17474E-05 0.00000E+00
 -1       124 3.10625E-03 2.67744E-05 0.00000E+00
 -1       125 1.69460E-03 1.85613E-05 0.00000E+00
 -1       126 5.42748E-04 8.56796E-06 0.00000E+00
 -3
    1PSTEP                        30           8           1          
  100CL  108 8.00000E-02         126                     1    8           1
 -4  STRESS      6    1
 -5  SXX         1    4    1    1
 -5  SYY         1    4    2    2
 -5  SZZ         1    4    3    3
 -5  SXY         1    4    1    2
 -5  SYZ         1    4    2    3
 -5  SZX         1    4    3    1
 -1         1 3.03274E+03 7.09357E+03 2.97736E+03 2.25788E+03-6.10555E-11-9.03711E-11
 -1         2 3.03274E+03 7.09357E+03 2.97736E+03 2.25788E+03-6.10555E-11-9.03711E-11
 -1         3 1.02454E+02 2.33838E+02 1.00829E+02 1.16325E+01 2.39220E-08 3.62663E-08
 -1         4 1.02454E+02 2.33838E+02 1.00829E+02 1.16325E+01 2.39220E-08 3.62665E-08
 -1         5 1.44765E+02 2.14954E+02 1.07841E+02-7.94210E+01-1.37616E-08 1.01218E-07
 -1         6 1.44765E+02 2.14954E+02 1.07841E+02-7.94210E+01-1.37615E-08 1.01219E-07
 -1         7-2.84035E+03-6.61331E+03-2.89225E+03 2.03403E+03-7.73766E-11 1.13899E-10
 -1         8-2.84035E+03-6.61331E+03-2.89225E+03 2.03403E+03-7.73747E-11 1.13897E-10
 -1         9 1.76161E+02 3.47281E+02 1.56886E+02-3.33130E+01 3.51586E-08 6.54982E-08
 -1        10 1.76161E+02 3.47281E+02 1.56886E+02-3.33130E+01 3.51586E-08 6.54975E-08
 -1        11 8.33033E+01 9.05837E+01 5.31316E+01 1.67081E+03-4.74307E-11 4.11015E-12
 -1        12 8.33033E+01 9.05837E+01 5.31316E+01 1.67081E+03-4.74343E-11 4.11378E-12
 -1        13 8.61716E+02 5.22683E+03 1.79790E+03 8.26330E+02-2.74128E-08-2.65218E-08
 -1        14 7.43267E+02 3.19430E+03 1.16890E+03 5.44350E+02-1.80934E-08-9.91812E-08
 -1        15 2.12106E+02 1.06707E+03 3.80916E+02 4.58154E+02 1.53516E-08-6.75419E-08
 -1        16-1.62860E+02-5.82753E+02-2.24907E+02 3.11984E+02 2.27944E-08-4.62356E-08
 -1        17-5.28743E+02-1.97419E+03-7.55085E+02 2.59395E+02 2.26246E-08-4.71033E-08
 -1        18-8.24626E+02-3.11522E+03-1.19192E+03 1.71004E+02 1.70063E-08-7.77342E-09
 -1        19-8.63622E+02-3.38113E+03-1.28547E+03-7.70480E+01-5.08477E-09-3.76985E-09
 -1        20-6.42897E+02-2.35272E+03-9.05187E+02-3.16155E+02-2.15201E-09-3.29629E-08
 -1        21-2.81649E+02-6.37772E+02-2.77254E+02-3.45552E+02 3.15982E-08-4.00802E-08
 -1        22-1.14126E+01 6.67554E+02 1.95790E+02-1.87894E+02 5.05481E-08-3.86310E-09
 -1        23 1.26886E+02 1.07488E+03 3.59072E+02-1.39419E+01 2.38609E-08 6.14233E-08
 -1        24 1.07634E+02 8.16548E+02 2.76392E+02 6.05425E+01-2.22969E-08 3.57539E-09
 -1        25 4.51110E+01 4.15887E+02 1.38037E+02 5.28484E+01-2.68846E-08 9.44489E-09
 -1        26-7.57016E+00 1.58824E+02 4.53319E+01 2.73842E+01 2.08183E-08-4.57576E-08
 -1        27-5.31312E+00 7.26934E+01 2.02123E+01 9.34446E+00 5.37302E-08 3.64468E-08
 -1        28-7.86079E+00 6.66585E+01 1.76378E+01-8.29835E+00 2.52705E-08 1.10322E-07
 -1        29 2.46503E+01 1.19643E+02 4.32739E+01-1.76560E+01 4.08024E-10 5.91841E-08
 -1        30 7.73207E+01 2.12413E+02 8.68665E+01-2.11064E+01 6.42649E-09 6.37922E-08
 -1        31 8.62803E+01 2.42858E+02 9.86755E+01-1.78905E+01 2.39946E-08 5.37685E-08
 -1        32 8.61716E+02 5.22683E+03 1.79790E+03 8.26330E+02-2.74128E-08-2.65218E-08
 -1        33 7.43267E+02 3.19430E+03 1.16890E+03 5.44350E+02-1.80934E-08-9.91812E-08
 -1        34 2.12106E+02 1.06707E+03 3.80916E+02 4.58154E+02 1.53516E-08-6.75420E-08
 -1        35-1.62860E+02-5.82753E+02-2.24907E+02 3.11984E+02 2.27944E-08-4.62356E-08
 -1        36-5.28743E+02-1.97419E+03-7.55085E+02 2.59395E+02 2.26246E-08-4.71033E-08
 -1        37-8.24626E+02-3.11522E+03-1.19192E+03 1.71004E+02 1.70064E-08-7.77351E-09
 -1        38-8.63622E+02-3.38113E+03-1.28547E+03-7.70480E+01-5.08478E-09-3.76985E-09
 -1        39-6.42897E+02-2.35272E+03-9.05187E+02-3.16155E+02-2.15201E-09-3.29629E-08
 -1        40-2.81649E+02-6.37772E+02-2.77254E+02-3.45552E+02 3.15982E-08-4.00803E-08
 -1        41-1.14126E+01 6.67554E+02 1.95790E+02-1.87894E+02 5.05481E-08-3.86296E-09
 -1        42 1.26886E+02 1.07488E+03 3.59072E+02-1.39419E+01 2.38609E-08 6.14234E-08
 -1        43 1.07634E+02 8.16548E+02 2.76392E+02 6.05425E+01-2.22969E-08 3.57536E-09
 -1        44 4.51110E+01 4.15887E+02 1.38037E+02 5.28484E+01-2.68846E-08 9.44490E-09
 -1        45-7.57016E+00 1.58824E+02 4.53319E+01 2.73842E+01 2.08183E-08-4.57576E-08
 -1        46-5.31312E+00 7.26935E+01 2.02123E+01 9.34446E+00 5.37302E-08 3.64469E-08
 -1        47-7.86079E+00 6.66585E+01 1.76378E+01-8.29835E+00 2.52705E-08 1.10322E-07
 -1        48 2.46503E+01 1.19643E+02 4.32739E+01-1.76560E+01 4.08034E-10 5.91840E-08
 -1        49 7.73207E+01 2.12413E+02 8.68665E+01-2.11064E+01 6.42650E-09 6.37925E-08
 -1        50 8.62803E+01 2.42858E+02 9.86755E+01-1.78905E+01 2.39946E-08 5.37680E-08
 -1        51 1.57384E+02 2.81304E+02 1.31502E+02-5.13204E+01 3.51156E-09 1.85897E-08
 -1        52 2.43303E+02 4.09549E+02 1.95655E+02-3.33305E+01 1.01285E-09 5.56517E-08
 -1        53 1.86360E+02 4.55544E+02 1.92343E+02-1.60034E+01-1.31418E-08 9.53394E-08
 -1        54 1.84796E+02 5.26618E+02 2.13117E+02-9.46723E+00-1.87376E-08 8.64363E-08
 -1        55 1.91128E+02 5.65528E+02 2.26645E+02 6.80182E+00-2.17208E-08 5.24437E-08
 -1        56 2.14953E+02 5.39558E+02 2.26022E+02 3.26901E+01-7.07645E-09-3.31880E-08
 -1        57 9.66424E+01 3.30102E+02 1.27869E+02 6.38056E+01 1.95496E-08-4.76220E-08
 -1        58 1.70061E+01 2.65625E+01 1.30548E+01 7.12515E+01 1.77630E-08 5.65411E-08
 -1        59-3.23993E+01-1.37593E+02-5.10535E+01-4.00460E+00-6.86109E-09 2.98737E-08
 -1        60 1.17365E+02 3.30952E+02 1.33928E+02-1.84357E+02-2.35666E-08 7.66607E-09
 -1        61 3.65123E+02 1.61618E+03 5.90458E+02-3.57945E+02-2.03339E-08-4.85781E-08
 -1        62 7.22600E+02 3.29412E+03 1.19251E+03-3.25923E+02-1.34110E-09-5.61401E-08
 -1        63 9.09034E+02 4.25294E+03 1.52921E+03-4.16865E+01 1.49917E-09-1.55633E-08
 -1        64 9.05711E+02 3.88536E+03 1.42125E+03 2.46724E+02-6.54310E-09-1.47843E-08
 -1        65 6.28663E+02 2.59758E+03 9.60242E+02 3.26920E+02 1.08066E-09-3.36849E-08
 -1        66 3.00889E+02 1.10354E+03 4.18982E+02 3.38023E+02-3.90578E-10-4.91953E-08
 -1        67-1.02598E+02-6.11500E+02-2.16081E+02 4.20253E+02-1.23886E-09-8.82505E-08
 -1        68-6.75196E+02-2.75863E+03-1.03957E+03 4.31334E+02 2.76444E-08-9.66955E-08
 -1        69-7.19809E+02-4.76997E+03-1.67164E+03 6.77910E+02 3.39884E-08-3.11229E-08
 -1        70 1.57384E+02 2.81304E+02 1.31502E+02-5.13204E+01 3.51152E-09 1.85890E-08
 -1        71 2.43303E+02 4.09549E+02 1.95655E+02-3.33305E+01 1.01282E-09 5.56519E-08
 -1        72 1.86360E+02 4.55544E+02 1.92343E+02-1.60034E+01-1.31418E-08 9.53394E-08
 -1        73 1.84796E+02 5.26618E+02 2.13117E+02-9.46723E+00-1.87376E-08 8.64358E-08
 -1        74 1.91128E+02 5.65528E+02 2.26645E+02 6.80182E+00-2.17208E-08 5.24442E-08
 -1        75 2.14953E+02 5.39558E+02 2.26022E+02 3.26901E+01-7.07645E-09-3.31881E-08
 -1        76 9.66424E+01 3.30102E+02 1.27869E+02 6.38056E+01 1.95496E-08-4.76219E-08
 -1        77 1.70061E+01 2.65625E+01 1.30548E+01 7.12515E+01 1.77630E-08 5.65415E-08
 -1        78-3.23993E+01-1.37593E+02-5.10535E+01-4.00460E+00-6.86109E-09 2.98732E-08
 -1        79 1.17365E+02 3.30952E+02 1.33928E+02-1.84357E+02-2.35666E-08 7.66615E-09
 -1        80 3.65123E+02 1.61618E+03 5.90458E+02-3.57945E+02-2.03339E-08-4.85784E-08
 -1        81 7.22600E+02 3.29412E+03 1.19251E+03-3.25923E+02-1.34109E-09-5.61392E-08
 -1        82 9.09034E+02 4.25294E+03 1.52921E+03-4.16865E+01 1.49919E-09-1.55634E-08
 -1        83 9.05711E+02 3.88536E+03 1.42125E+03 2.46724E+02-6.54308E-09-1.47845E-08
 -1        84 6.28663E+02 2.59758E+03 9.60242E+02 3.26920E+02 1.08086E-09-3.36846E-08
 -1        85 3.00889E+02 1.10354E+03 4.18982E+02 3.38023E+02-3.90599E-10-4.91948E-08
 -1        86-1.02598E+02-6.11500E+02-2.16081E+02 4.20253E+02-1.23883E-09-8.82504E-08
 -1        87-6.75196E+02-2.75863E+03-1.03957E+03 4.31334E+02 2.76444E-08-9.66956E-08
 -1        88-7.19809E+02-4.76997E+03-1.67164E+03 6.77910E+02 3.39884E-08-3.11228E-08
 -1        89 7.83391E+01 1.28978E+02 6.25574E+01 6.51465E+02 2.49164E-09-2.23542E-08
 -1        90 5.76958E+01 1.96866E+02 7.64009E+01 6.88251E+02 3.08997E-09-1.00658E-07
 -1        91 6.53692E+01 2.21733E+02 8.52909E+01 5.60852E+02 6.07371E-09-7.94319E-08
 -1        92 7.01308E+01 2.37796E+02 9.18031E+01 4.30089E+02 1.45761E-08-5.57557E-08
 -1        93 5.39509E+01 2.82972E+02 1.01326E+02 3.80750E+02 1.30931E-08-3.63890E-08
 -1        94 5.09584E+01 3.50133E+02 1.20902E+02 2.68936E+02 4.32299E-09-7.39714E-09
 -1        95 3.41659E+01 4.00219E+02 1.30197E+02-7.85946E+01-2.48947E-09-5.22425E-09
 -1        96 4.68207E+01 4.47893E+02 1.48176E+02-4.24038E+02-1.46712E-09-5.12995E-08
 -1        97 4.68122E+01 4.86499E+02 1.59390E+02-4.67520E+02 9.55137E-09-5.17385E-08
 -1        98 5.82981E+01 5.07550E+02 1.69045E+02-2.45356E+02 8.53937E-09 5.57608E-09
 -1        99 5.11951E+01 4.76138E+02 1.57804E+02-6.70538E+00 1.25627E-08 5.83412E-08
 -1       100 6.41285E+01 4.25120E+02 1.46536E+02 8.96413E+01-9.90498E-09 3.16615E-08
 -1       101 6.96692E+01 3.70147E+02 1.31763E+02 7.47412E+01-1.28581E-08-1.79642E-08
 -1       102 9.99101E+01 3.40307E+02 1.31928E+02 3.90264E+01 1.95139E-08-5.27640E-08
 -1       103 9.26539E+01 3.18346E+02 1.23188E+02 1.36632E+01 1.23079E-08 4.66470E-08
 -1       104 9.46294E+01 3.10793E+02 1.21522E+02-1.17483E+01 8.16395E-09 1.04057E-07
 -1       105 1.10083E+02 2.98026E+02 1.22335E+02-2.43515E+01-4.81800E-09 7.78663E-08
 -1       106 1.65155E+02 3.22210E+02 1.46087E+02-3.04227E+01-1.00343E-08 6.01422E-08
 -1       107 1.52600E+02 3.34087E+02 1.45877E+02-3.19472E+01 2.25614E-08 3.32995E-08
 -1       108 1.52600E+02 3.34087E+02 1.45877E+02-3.19472E+01 2.25614E-08 3.32998E-08
 -1       109 1.65155E+02 3.22210E+02 1.46087E+02-3.04227E+01-1.00343E-08 6.01417E-08
 -1       110 1.10083E+02 2.98026E+02 1.22335E+02-2.43515E+01-4.81799E-09 7.78666E-08
 -1       111 9.46294E+01 3.10793E+02 1.21522E+02-1.17483E+01 8.16394E-09 1.04057E-07
 -1       112 9.26539E+01 3.18346E+02 1.23188E+02 1.36632E+01 1.23079E-08 4.66468E-08
 -1       113 9.99101E+01 3.40307E+02 1.31928E+02 3.90264E+01 1.95139E-08-5.27637E-08
 -1       114 6.96692E+01 3.70147E+02 1.31763E+02 7.47412E+01-1.28581E-08-1.79643E-08
 -1       115 6.41285E+01 4.25120E+02 1.46536E+02 8.96413E+01-9.90498E-09 3.16616E-08
 -1       116 5.11951E+01 4.76138E+02 1.57804E+02-6.70538E+00 1.25627E-08 5.83411E-08
 -1       117 5.82981E+01 5.07550E+02 1.69045E+02-2.45356E+02 8.53935E-09 5.57581E-09
 -1       118 4.68122E+01 4.86499E+02 1.59390E+02-4.67520E+02 9.55138E-09-5.17382E-08
 -1       119 4.68207E+01 4.47893E+02 1.48176E+02-4.24038E+02-1.46712E-09-5.12996E-08
 -1       120 3.41659E+01 4.00219E+02 1.30197E+02-7.85946E+01-2.48948E-09-5.22439E-09
 -1       121 5.09584E+01 3.50133E+02 1.20902E+02 2.68936E+02 4.32300E-09-7.39678E-09
 -1       122 5.39509E+01 2.82972E+02 1.01326E+02 3.80750E+02 1.30931E-08-3.63890E-08
 -1       123 7.01308E+01 2.37796E+02 9.18031E+01 4.30089E+02 1.45761E-08-5.57558E-08
 -1       124 6.53692E+01 2.21733E+02 8.52909E+01 5.60852E+02 6.07373E-09-7.94319E-08
 -1       125 5.76958E+01 1.96866E+02 7.64009E+01 6.88251E+02 3.09001E-09-1.00658E-07
 -1       126 7.83391E+01 1.28978E+02 6.25574E+01 6.51465E+02 2.49164E-09-2.23542E-08
 -3
    1PSTEP                        31           8           1          
  100CL  108 8.00000E-02         126                     1    8           1
 -4  TOSTRAIN    6    1
 -5  EXX         1    4    1    1
 -5  EYY         1    4    2    2
 -5  EZZ         1    4    3    3
 -5  EXY         1    4    1    2
 -5  EYZ         1    4    2    3
 -5  EZX         1    4    3    1
 -1         1-1.42867E-05 1.30540E-02-4.44910E-27 7.04051E-03 4.40696E-19-2.28379E-16
 -1         2-1.42867E-05 1.30540E-02-4.44910E-27 7.04051E-03 4.40696E-19-2.28379E-16
 -1         3 5.56093E-06 4.31549E-04 3.68456E-26 3.93228E-05 7.72616E-14 1.18120E-13
 -1         4 5.56093E-06 4.31549E-04 3.68462E-26 3.93228E-05 7.72616E-14 1.18120E-13
 -1         5 1.18133E-04 3.49386E-04 1.84249E-25-2.57073E-04-4.56902E-14 3.28682E-13
 -1         6 1.18133E-04 3.49386E-04 1.84252E-25-2.57073E-04-4.56898E-14 3.28686E-13
 -1         7-1.42470E-05-1.23902E-02-7.06117E-27 6.88776E-03-8.80150E-19 2.91444E-16
 -1         8-1.42470E-05-1.23902E-02-7.06117E-27 6.88776E-03-8.73948E-19 2.91438E-16
 -1         9 6.18468E-05 6.18447E-04 1.06035E-25-1.06131E-04 1.13449E-13 2.13189E-13
 -1        10 6.18468E-05 6.18447E-04 1.06034E-25-1.06131E-04 1.13449E-13 2.13187E-13
 -1        11-1.42668E-05 2.16010E-04-1.19799E-27 5.42734E-03-1.24383E-19 1.69709E-17
 -1        12-1.42668E-05 2.16010E-04-1.19799E-27 5.42734E-03-1.35955E-19 1.69828E-17
 -1        13-3.15047E-03 1.09854E-02 1.50334E-26 2.44197E-03-8.88639E-14-8.45792E-14
 -1        14-1.47341E-03 6.56244E-03 1.99859E-25 1.57343E-03-6.50085E-14-3.20475E-13
 -1        15-6.28802E-04 2.28462E-03 9.65629E-26 1.40833E-03 4.42729E-14-2.20743E-13
 -1        16 1.45293E-04-1.11767E-03 5.50469E-26 1.04780E-03 7.04513E-14-1.52249E-13
 -1        17 6.89048E-04-3.95246E-03 5.46931E-26 9.51612E-04 7.06448E-14-1.54892E-13
 -1        18 1.15422E-03-6.30014E-03 3.40347E-27 6.78116E-04 5.53674E-14-2.62202E-14
 -1        19 1.34428E-03-6.89364E-03-1.43538E-27-1.91706E-04-1.68123E-14-1.21507E-14
 -1        20 8.35383E-04-4.74545E-03 1.85130E-26-1.03530E-03-7.09518E-15-1.07281E-13
 -1        21-2.88755E-05-1.16925E-03 4.80640E-26-1.13169E-03 1.03372E-13-1.29681E-13
 -1        22-6.82458E-04 1.53217E-03 3.63108E-26-5.99691E-04 1.64012E-13-1.16025E-14
 -1        23-7.56933E-04 2.31506E-03 7.36717E-26-3.46492E-05 7.66526E-14 1.99876E-13
 -1        24-5.48274E-04 1.74747E-03-9.84401E-28 2.00798E-04-7.23107E-14 1.14881E-14
 -1        25-3.01643E-04 9.00275E-04 5.39452E-27 1.73177E-04-8.73249E-14 3.05825E-14
 -1        26-1.71732E-04 3.68214E-04 3.08057E-26 8.98433E-05 6.79073E-14-1.48612E-13
 -1        27-8.29222E-05 1.70481E-04 5.85619E-26 3.09185E-05 1.74322E-13 1.18843E-13
 -1        28-8.31245E-05 1.59527E-04 2.53248E-25-2.62740E-05 8.11232E-14 3.58792E-13
 -1        29-6.09296E-05 2.48470E-04 6.72958E-26-5.63357E-05 7.09405E-16 1.92346E-13
 -1        30-3.15051E-05 4.08072E-04 8.53383E-26-6.69941E-05 2.01673E-14 2.07365E-13
 -1        31-4.06914E-05 4.68465E-04 7.13855E-26-5.62718E-05 7.73169E-14 1.74997E-13
 -1        32-3.15047E-03 1.09854E-02 1.50334E-26 2.44197E-03-8.88639E-14-8.45792E-14
 -1        33-1.47341E-03 6.56244E-03 1.99859E-25 1.57343E-03-6.50085E-14-3.20475E-13
 -1        34-6.28802E-04 2.28462E-03 9.65630E-26 1.40833E-03 4.42728E-14-2.20743E-13
 -1        35 1.45293E-04-1.11767E-03 5.50469E-26 1.04780E-03 7.04513E-14-1.52249E-13
 -1        36 6.89048E-04-3.95246E-03 5.46931E-26 9.51612E-04 7.06448E-14-1.54892E-13
 -1        37 1.15422E-03-6.30014E-03 3.40352E-27 6.78116E-04 5.53676E-14-2.62205E-14
 -1        38 1.34428E-03-6.89364E-03-1.43539E-27-1.91706E-04-1.68123E-14-1.21507E-14
 -1        39 8.35383E-04-4.74545E-03 1.85130E-26-1.03530E-03-7.09518E-15-1.07281E-13
 -1        40-2.88755E-05-1.16925E-03 4.80642E-26-1.13169E-03 1.03372E-13-1.29682E-13
 -1        41-6.82458E-04 1.53217E-03 3.63107E-26-5.99691E-04 1.64012E-13-1.16020E-14
 -1        42-7.56933E-04 2.31506E-03 7.36718E-26-3.46492E-05 7.66526E-14 1.99876E-13
 -1        43-5.48274E-04 1.74747E-03-9.84440E-28 2.00798E-04-7.23107E-14 1.14880E-14
 -1        44-3.01643E-04 9.00275E-04 5.39452E-27 1.73177E-04-8.73249E-14 3.05825E-14
 -1        45-1.71732E-04 3.68214E-04 3.08057E-26 8.98433E-05 6.79073E-14-1.48612E-13
 -1        46-8.29222E-05 1.70481E-04 5.85620E-26 3.09185E-05 1.74322E-13 1.18844E-13
 -1        47-8.31245E-05 1.59527E-04 2.53248E-25-2.62740E-05 8.11232E-14 3.58792E-13
 -1        48-6.09296E-05 2.48470E-04 6.72954E-26-5.63357E-05 7.09439E-16 1.92346E-13
 -1        49-3.15051E-05 4.08072E-04 8.53390E-26-6.69941E-05 2.01673E-14 2.07365E-13
 -1        50-4.06914E-05 4.68465E-04 7.13844E-26-5.62718E-05 7.73169E-14 1.74995E-13
 -1        51 8.28754E-05 4.87305E-04-8.12910E-27-1.65148E-04 1.12013E-14 6.04379E-14
 -1        52 1.53956E-04 6.94600E-04 5.98518E-26-1.06295E-04 2.69819E-15 1.80772E-13
 -1        53-1.97576E-05 8.53929E-04 1.91579E-25-4.92094E-05-4.35988E-14 3.09593E-13
 -1        54-9.22485E-05 1.01659E-03 1.59884E-25-2.77068E-05-6.15658E-14 2.80644E-13
 -1        55-1.15383E-04 1.09844E-03 4.87335E-26 2.47167E-05-7.08576E-14 1.70222E-13
 -1        56-3.57378E-05 1.01611E-03 7.37908E-27 1.07771E-04-2.27699E-14-1.07848E-13
 -1        57-1.01007E-04 6.55463E-04 3.10870E-26 2.08151E-04 6.37268E-14-1.54666E-13
 -1        58 1.33320E-05 4.32068E-05 5.02227E-26 2.31335E-04 5.73425E-14 1.83837E-13
 -1        59 5.88780E-05-2.80349E-04 1.37931E-26-1.41317E-05-2.26213E-14 9.70307E-14
 -1        60-6.20984E-05 6.43393E-04 2.65480E-27-5.92677E-04-7.66241E-14 2.44734E-14
 -1        61-7.47334E-04 3.31416E-03 4.95125E-26-1.13506E-03-6.51646E-14-1.58208E-13
 -1        62-1.54588E-03 6.73678E-03 6.32904E-26-1.04432E-03-4.36136E-15-1.82276E-13
 -1        63-2.04474E-03 8.70509E-03 1.79253E-27-2.11373E-04 4.39316E-15-5.05719E-14
 -1        64-1.71959E-03 7.90883E-03 4.14657E-27 6.42950E-04-2.17984E-14-4.76340E-14
 -1        65-1.12843E-03 5.30501E-03 2.23554E-26 9.12925E-04 1.15304E-15-1.09420E-13
 -1        66-4.41934E-04 2.26225E-03 4.71633E-26 1.02813E-03-5.20464E-15-1.59725E-13
 -1        67 2.92118E-04-1.22508E-03 1.60095E-25 1.41055E-03-1.11731E-14-2.86649E-13
 -1        68 1.10364E-03-5.58971E-03 2.03499E-25 1.56413E-03 8.38685E-14-3.16676E-13
 -1        69 2.99569E-03-1.02023E-02 3.12636E-26 2.42451E-03 1.10722E-13-1.03081E-13
 -1        70 8.28754E-05 4.87305E-04-8.13045E-27-1.65148E-04 1.12012E-14 6.04356E-14
 -1        71 1.53956E-04 6.94600E-04 5.98522E-26-1.06295E-04 2.69811E-15 1.80773E-13
 -1        72-1.97576E-05 8.53929E-04 1.91580E-25-4.92094E-05-4.35987E-14 3.09593E-13
 -1        73-9.22485E-05 1.01659E-03 1.59882E-25-2.77068E-05-6.15658E-14 2.80642E-13
 -1        74-1.15383E-04 1.09844E-03 4.87349E-26 2.47167E-05-7.08576E-14 1.70224E-13
 -1        75-3.57378E-05 1.01611E-03 7.37930E-27 1.07771E-04-2.27699E-14-1.07848E-13
 -1        76-1.01007E-04 6.55463E-04 3.10870E-26 2.08151E-04 6.37268E-14-1.54666E-13
 -1        77 1.33320E-05 4.32068E-05 5.02236E-26 2.31335E-04 5.73425E-14 1.83838E-13
 -1        78 5.88780E-05-2.80349E-04 1.37923E-26-1.41317E-05-2.26213E-14 9.70291E-14
 -1        79-6.20984E-05 6.43393E-04 2.65461E-27-5.92677E-04-7.66239E-14 2.44737E-14
 -1        80-7.47334E-04 3.31416E-03 4.95130E-26-1.13506E-03-6.51646E-14-1.58209E-13
 -1        81-1.54588E-03 6.73678E-03 6.32887E-26-1.04432E-03-4.36131E-15-1.82273E-13
 -1        82-2.04474E-03 8.70509E-03 1.79295E-27-2.11373E-04 4.39325E-15-5.05723E-14
 -1        83-1.71959E-03 7.90883E-03 4.14674E-27 6.42950E-04-2.17984E-14-4.76347E-14
 -1        84-1.12843E-03 5.30501E-03 2.23552E-26 9.12925E-04 1.15371E-15-1.09419E-13
 -1        85-4.41934E-04 2.26225E-03 4.71624E-26 1.02813E-03-5.20467E-15-1.59723E-13
 -1        86 2.92118E-04-1.22508E-03 1.60094E-25 1.41055E-03-1.11731E-14-2.86649E-13
 -1        87 1.10364E-03-5.58971E-03 2.03499E-25 1.56413E-03 8.38685E-14-3.16676E-13
 -1        88 2.99569E-03-1.02023E-02 3.12636E-26 2.42451E-03 1.10722E-13-1.03081E-13
 -1        89-7.73924E-05 3.37498E-04-4.16578E-27 2.11131E-03 7.16154E-15-7.27573E-14
 -1        90-1.84885E-04 5.10303E-04 2.01244E-25 2.22186E-03 3.15359E-15-3.27291E-13
 -1        91-1.68342E-04 5.37044E-04 1.32038E-25 1.80496E-03 1.32964E-14-2.58602E-13
 -1        92-1.48320E-04 5.45442E-04 6.79199E-26 1.38031E-03 4.28539E-14-1.82428E-13
 -1        93-2.19692E-04 6.55833E-04 2.88675E-26 1.21808E-03 3.99907E-14-1.19239E-13
 -1        94-2.82688E-04 8.00325E-04-6.47352E-28 8.56919E-04 1.36467E-14-2.42845E-14
 -1        95-3.50231E-04 9.07436E-04-3.23365E-27-2.63087E-04-8.27146E-15-1.69361E-14
 -1        96-3.55248E-04 9.93127E-04 5.13871E-26-1.37361E-03-4.82719E-15-1.66757E-13
 -1        97-3.88105E-04 1.07793E-03 5.00451E-26-1.50859E-03 3.16608E-14-1.67933E-13
 -1        98-3.72278E-04 1.10523E-03-1.31290E-26-7.87969E-04 2.76292E-14 1.82950E-14
 -1        99-3.49027E-04 1.03320E-03 6.71719E-26-1.70526E-05 4.01536E-14 1.89750E-13
 -1       100-2.67471E-04 9.02795E-04 1.45436E-26 2.92963E-04-3.23605E-14 1.02840E-13
 -1       101-2.01325E-04 7.72613E-04-1.24418E-27 2.43870E-04-4.16494E-14-5.84262E-14
 -1       102-1.03735E-04 6.75734E-04 4.46561E-26 1.27947E-04 6.36737E-14-1.71354E-13
 -1       103-9.91527E-05 6.33215E-04 2.10645E-26 4.59545E-05 3.96299E-14 1.51664E-13
 -1       104-8.76865E-05 6.14526E-04 2.20933E-25-3.61958E-05 2.55866E-14 3.38198E-13
 -1       105-4.03436E-05 5.70729E-04 1.25660E-25-7.70920E-05-1.64352E-14 2.52956E-13
 -1       106 6.12256E-05 5.72223E-04 7.44153E-26-9.69463E-05-3.32346E-14 1.95272E-13
 -1       107 2.10920E-05 6.11442E-04 2.82614E-26-1.01596E-04 7.28900E-14 1.08450E-13
 -1       108 2.10920E-05 6.11442E-04 2.82620E-26-1.01596E-04 7.28898E-14 1.08451E-13
 -1       109 6.12256E-05 5.72223E-04 7.44140E-26-9.69463E-05-3.32345E-14 1.95270E-13
 -1       110-4.03436E-05 5.70729E-04 1.25661E-25-7.70920E-05-1.64352E-14 2.52957E-13
 -1       111-8.76865E-05 6.14526E-04 2.20932E-25-3.61958E-05 2.55865E-14 3.38198E-13
 -1       112-9.91527E-05 6.33215E-04 2.10642E-26 4.59545E-05 3.96300E-14 1.51664E-13
 -1       113-1.03735E-04 6.75734E-04 4.46557E-26 1.27947E-04 6.36737E-14-1.71354E-13
 -1       114-2.01325E-04 7.72613E-04-1.24409E-27 2.43870E-04-4.16494E-14-5.84265E-14
 -1       115-2.67471E-04 9.02795E-04 1.45436E-26 2.92963E-04-3.23605E-14 1.02840E-13
 -1       116-3.49027E-04 1.03320E-03 6.71717E-26-1.70526E-05 4.01535E-14 1.89749E-13
 -1       117-3.72278E-04 1.10523E-03-1.31288E-26-7.87969E-04 2.76291E-14 1.82942E-14
 -1       118-3.88105E-04 1.07793E-03 5.00447E-26-1.50859E-03 3.16608E-14-1.67932E-13
 -1       119-3.55248E-04 9.93127E-04 5.13873E-26-1.37361E-03-4.82720E-15-1.66758E-13
 -1       120-3.50231E-04 9.07436E-04-3.23365E-27-2.63087E-04-8.27150E-15-1.69365E-14
 -1       121-2.82688E-04 8.00325E-04-6.47476E-28 8.56919E-04 1.36467E-14-2.42834E-14
 -1       122-2.19692E-04 6.55833E-04 2.88676E-26 1.21808E-03 3.99906E-14-1.19239E-13
 -1       123-1.48320E-04 5.45442E-04 6.79201E-26 1.38031E-03 4.28539E-14-1.82428E-13
 -1       124-1.68342E-04 5.37044E-04 1.32038E-25 1.80496E-03 1.32965E-14-2.58602E-13
 -1       125-1.84885E-04 5.10303E-04 2.01244E-25 2.22186E-03 3.15370E-15-3.27291E-13
 -1       126-7.73924E-05 3.37498E-04-4.16575E-27 2.11131E-03 7.16156E-15-7.27573E-14
 -3
    1PSTEP                        32           8           1          
  100CL  108 8.00000E-02         126                     1    8           1
 -4  ERROR       1    1
 -5  STR(%)      1    1    0    0
 -1         1 6.25814E+01
 -1         2 6.25814E+01
 -1         3 9.27145E+00
 -1         4 9.27145E+00
 -1         5 1.56283E+01
 -1         6 1.56283E+01
 -1         7 6.48462E+01
 -1         8 6.48462E+01
 -1         9 1.56283E+01
 -1        10 1.56283E+01
 -1        11 6.48462E+01
 -1        12 6.48462E+01
 -1        13 6.25814E+01
 -1        14 5.39689E+01
 -1        15 3.78955E+01
 -1        16 5.87554E+01
 -1        17 6.92382E+01
 -1        18 6.98348E+01
 -1        19 7.26807E+01
 -1        20 7.26807E+01
 -1        21 5.58148E+01
 -1        22 2.75866E+01
 -1        23 2.75866E+01
 -1        24 2.73790E+01
 -1        25 1.33869E+01
 -1        26 3.91389E+01
 -1        27 4.06046E+01
 -1        28 4.06046E+01
 -1        29 3.45152E+01
 -1        30 1.52988E+01
 -1        31 9.27145E+00
 -1        32 6.25814E+01
 -1        33 5.39689E+01
 -1        34 3.78955E+01
 -1        35 5.87554E+01
 -1        36 6.92382E+01
 -1        37 6.98348E+01
 -1        38 7.26807E+01
 -1        39 7.26807E+01
 -1        40 5.58148E+01
 -1        41 2.75866E+01
 -1        42 2.75866E+01
 -1        43 2.73790E+01
 -1        44 1.33869E+01
 -1        45 3.91389E+01
 -1        46 4.06046E+01
 -1        47 4.06046E+01
 -1        48 3.45152E+01
 -1        49 1.52988E+01
 -1        50 9.27145E+00
 -1        51 1.56283E+01
 -1        52 8.48933E+00
 -1        53 1.13913E+01
 -1        54 1.57553E+01
 -1        55 1.57553E+01
 -1        56 1.53763E+01
 -1        57 2.50211E+01
 -1        58 6.99706E+01
 -1        59 7.06608E+01
 -1        60 7.06608E+01
 -1        61 3.81501E+01
 -1        62 5.23943E+01
 -1        63 5.30272E+01
 -1        64 5.30272E+01
 -1        65 5.15638E+01
 -1        66 4.19057E+01
 -1        67 4.80951E+01
 -1        68 6.04685E+01
 -1        69 6.48462E+01
 -1        70 1.56283E+01
 -1        71 8.48933E+00
 -1        72 1.13913E+01
 -1        73 1.57553E+01
 -1        74 1.57553E+01
 -1        75 1.53763E+01
 -1        76 2.50211E+01
 -1        77 6.99706E+01
 -1        78 7.06608E+01
 -1        79 7.06608E+01
 -1        80 3.81501E+01
 -1        81 5.23943E+01
 -1        82 5.30272E+01
 -1        83 5.30272E+01
 -1        84 5.15638E+01
 -1        85 4.19057E+01
 -1        86 4.80951E+01
 -1        87 6.04685E+01
 -1        88 6.48462E+01
 -1        89 6.48462E+01
 -1        90 6.04685E+01
 -1        91 4.80951E+01
 -1        92 5.87554E+01
 -1        93 6.92382E+01
 -1        94 6.98348E+01
 -1        95 7.26807E+01
 -1        96 7.26807E+01
 -1        97 5.58148E+01
 -1        98 7.06608E+01
 -1        99 7.06608E+01
 -1       100 6.99706E+01
 -1       101 2.50211E+01
 -1       102 3.91389E+01
 -1       103 4.06046E+01
 -1       104 4.06046E+01
 -1       105 3.45152E+01
 -1       106 1.52988E+01
 -1       107 1.56283E+01
 -1       108 1.56283E+01
 -1       109 1.52988E+01
 -1       110 3.45152E+01
 -1       111 4.06046E+01
 -1       112 4.06046E+01
 -1       113 3.91389E+01
 -1       114 2.50211E+01
 -1       115 6.99706E+01
 -1       116 7.06608E+01
 -1       117 7.06608E+01
 -1       118 5.58148E+01
 -1       119 7.26807E+01
 -1       120 7.26807E+01
 -1       121 6.98348E+01
 -1       122 6.92382E+01
 -1       123 5.87554E+01
 -1       124 4.80951E+01
 -1       125 6.04685E+01
 -1       126 6.48462E+01
 -3
    1PSTEP                        33           9           1          
  100CL  109 9.00000E-02         126                     1    9           1
 -4  DISP        4    1
 -5  D1          1    2    1    0
 -5  D2          1    2    2    0
 -5  D3          1    2    3    0
 -5  ALL         1    2    0    0    1ALL
 -1         1 0.00000E+00 0.00000E+00 0.00000E+00
 -1         2 0.00000E+00 0.00000E+00 0.00000E+00
 -1         3 6.69303E-03 4.83778E-04 0.00000E+00
 -1         4 6.69303E-03 4.83778E-04 0.00000E+00
 -1         5 6.69237E-03 8.45696E-04 0.00000E+00
 -1         6 6.69237E-03 8.45696E-04 0.00000E+00
 -1         7 0.00000E+00 0.00000E+00 0.00000E+00
 -1         8 0.00000E+00 0.00000E+00 0.00000E+00
 -1         9 6.68735E-03 6.75345E-04 0.00000E+00
 -1        10 6.68735E-03 6.75345E-04 0.00000E+00
 -1        11 0.00000E+00 0.00000E+00 0.00000E+00
 -1        12 0.00000E+00 0.00000E+00 0.00000E+00
 -1        13 7.42206E-04 6.97019E-04 0.00000E+00
 -1        14 1.88622E-03 1.18492E-03 0.00000E+00
 -1        15 3.36361E-03 1.42714E-03 0.00000E+00
 -1        16 4.93419E-03 1.47558E-03 0.00000E+00
 -1        17 6.38875E-03 1.37160E-03 0.00000E+00
 -1        18 7.61846E-03 1.15992E-03 0.00000E+00
 -1        19 8.54241E-03 8.53003E-04 0.00000E+00
 -1        20 9.00083E-03 4.91509E-04 0.00000E+00
 -1        21 8.93504E-03 1.97092E-04 0.00000E+00
 -1        22 8.55448E-03 7.69694E-05 0.00000E+00
 -1        23 8.14482E-03 1.24552E-04 0.00000E+00
 -1        24 7.88038E-03 2.44904E-04 0.00000E+00
 -1        25 7.74848E-03 3.48336E-04 0.00000E+00
 -1        26 7.66863E-03 4.04577E-04 0.00000E+00
 -1        27 7.57165E-03 4.27536E-04 0.00000E+00
 -1        28 7.44644E-03 4.36239E-04 0.00000E+00
 -1        29 7.29018E-03 4.40059E-04 0.00000E+00
 -1        30 7.09983E-03 4.48036E-04 0.00000E+00
 -1        31 6.88842E-03 4.65012E-04 0.00000E+00
 -1        32 7.42206E-04 6.97019E-04 0.00000E+00
 -1        33 1.88622E-03 1.18492E-03 0.00000E+00
 -1        34 3.36361E-03 1.42714E-03 0.00000E+00
 -1        35 4.93419E-03 1.47558E-03 0.00000E+00
 -1        36 6.38875E-03 1.37160E-03 0.00000E+00
 -1        37 7.61846E-03 1.15992E-03 0.00000E+00
 -1        38 8.54241E-03 8.53003E-04 0.00000E+00
 -1        39 9.00083E-03 4.91509E-04 0.00000E+00
 -1        40 8.93504E-03 1.97092E-04 0.00000E+00
 -1        41 8.55448E-03 7.69694E-05 0.00000E+00
 -1        42 8.14482E-03 1.24552E-04 0.00000E+00
 -1        43 7.88038E-03 2.44904E-04 0.00000E+00
 -1        44 7.74848E-03 3.48336E-04 0.00000E+00
 -1        45 7.66863E-03 4.04577E-04 0.00000E+00
 -1        46 7.57165E-03 4.27536E-04 0.00000E+00
 -1        47 7.44644E-03 4.36239E-04 0.00000E+00
 -1        48 7.29018E-03 4.40059E-04 0.00000E+00
 -1        49 7.09983E-03 4.48036E-04 0.00000E+00
 -1        50 6.88842E-03 4.65012E-04 0.00000E+00
 -1        51 6.87890E-03 8.37826E-04 0.00000E+00
 -1        52 7.08646E-03 8.10117E-04 0.00000E+00
 -1        53 7.27988E-03 7.61680E-04 0.00000E+00
 -1        54 7.43193E-03 7.06241E-04 0.00000E+00
 -1        55 7.55569E-03 6.52400E-04 0.00000E+00
 -1        56 7.65309E-03 6.10324E-04 0.00000E+00
 -1        57 7.73229E-03 5.99898E-04 0.00000E+00
 -1        58 7.85798E-03 6.32022E-04 0.00000E+00
 -1        59 8.11826E-03 6.73263E-04 0.00000E+00
 -1        60 8.52078E-03 6.31847E-04 0.00000E+00
 -1        61 8.89620E-03 4.09762E-04 0.00000E+00
 -1        62 8.95386E-03 2.99002E-06 0.00000E+00
 -1        63 8.49226E-03-4.67101E-04 0.00000E+00
 -1        64 7.56125E-03-8.65075E-04 0.00000E+00
 -1        65 6.32389E-03-1.14932E-03 0.00000E+00
 -1        66 4.86052E-03-1.31048E-03 0.00000E+00
 -1        67 3.29747E-03-1.30615E-03 0.00000E+00
 -1        68 1.83953E-03-1.10158E-03 0.00000E+00
 -1        69 7.04049E-04-6.51417E-04 0.00000E+00
 -1        70 6.87890E-03 8.37826E-04 0.00000E+00
 -1        71 7.08646E-03 8.10117E-04 0.00000E+00
 -1        72 7.27988E-03 7.61680E-04 0.00000E+00
 -1        73 7.43193E-03 7.06241E-04 0.00000E+00
 -1        74 7.55569E-03 6.52400E-04 0.00000E+00
 -1        75 7.65309E-03 6.10324E-04 0.00000E+00
 -1        76 7.73229E-03 5.99898E-04 0.00000E+00
 -1        77 7.85798E-03 6.32022E-04 0.00000E+00
 -1        78 8.11826E-03 6.73263E-04 0.00000E+00
 -1        79 8.52078E-03 6.31847E-04 0.00000E+00
 -1        80 8.89620E-03 4.09762E-04 0.00000E+00
 -1        81 8.95386E-03 2.99002E-06 0.00000E+00
 -1        82 8.49226E-03-4.67101E-04 0.00000E+00
 -1        83 7.56125E-03-8.65075E-04 0.00000E+00
 -1        84 6.32389E-03-1.14932E-03 0.00000E+00
 -1        85 4.86052E-03-1.31048E-03 0.00000E+00
 -1        86 3.29747E-03-1.30615E-03 0.00000E+00
 -1        87 1.83953E-03-1.10158E-03 0.00000E+00
 -1        88 7.04049E-04-6.51417E-04 0.00000E+00
 -1        89 5.54903E-04 2.64211E-05 0.00000E+00
 -1        90 1.78506E-03 4.47115E-05 0.00000E+00
 -1        91 3.29545E-03 5.93292E-05 0.00000E+00
 -1        92 4.90233E-03 8.13858E-05 0.00000E+00
 -1        93 6.38948E-03 1.09609E-04 0.00000E+00
 -1        94 7.64326E-03 1.44423E-04 0.00000E+00
 -1        95 8.59423E-03 1.89813E-04 0.00000E+00
 -1        96 9.05654E-03 2.47351E-04 0.00000E+00
 -1        97 8.96534E-03 3.06026E-04 0.00000E+00
 -1        98 8.54244E-03 3.56351E-04 0.00000E+00
 -1        99 8.11083E-03 3.99925E-04 0.00000E+00
 -1       100 7.84356E-03 4.39614E-04 0.00000E+00
 -1       101 7.72256E-03 4.75083E-04 0.00000E+00
 -1       102 7.64932E-03 5.07280E-04 0.00000E+00
 -1       103 7.55985E-03 5.39795E-04 0.00000E+00
 -1       104 7.43744E-03 5.72021E-04 0.00000E+00
 -1       105 7.28294E-03 6.00946E-04 0.00000E+00
 -1       106 7.08683E-03 6.28396E-04 0.00000E+00
 -1       107 6.87776E-03 6.52392E-04 0.00000E+00
 -1       108 6.87776E-03 6.52392E-04 0.00000E+00
 -1       109 7.08683E-03 6.28396E-04 0.00000E+00
 -1       110 7.28294E-03 6.00946E-04 0.00000E+00
 -1       111 7.43744E-03 5.72021E-04 0.00000E+00
 -1       112 7.55985E-03 5.39795E-04 0.00000E+00
 -1       113 7.64932E-03 5.07280E-04 0.00000E+00
 -1       114 7.72256E-03 4.75083E-04 0.00000E+00
 -1       115 7.84356E-03 4.39614E-04 0.00000E+00
 -1       116 8.11083E-03 3.99925E-04 0.00000E+00
 -1       117 8.54244E-03 3.56351E-04 0.00000E+00
 -1       118 8.96534E-03 3.06026E-04 0.00000E+00
 -1       119 9.05654E-03 2.47351E-04 0.00000E+00
 -1       120 8.59423E-03 1.89813E-04 0.00000E+00
 -1       121 7.64326E-03 1.44423E-04 0.00000E+00
 -1       122 6.38948E-03 1.09609E-04 0.00000E+00
 -1       123 4.90233E-03 8.13858E-05 0.00000E+00
 -1       124 3.29545E-03 5.93292E-05 0.00000E+00
 -1       125 1.78506E-03 4.47115E-05 0.00000E+00
 -1       126 5.54903E-04 2.64211E-05 0.00000E+00
 -3
    1PSTEP                        34           9           1          
  100CL  109 9.00000E-02         126                     1    9           1
 -4  STRESS      6    1
 -5  SXX         1    4    1    1
 -5  SYY         1    4    2    2
 -5  SZZ         1    4    3    3
 -5  SXY         1    4    1    2
 -5  SYZ         1    4    2    3
 -5  SZX         1    4    3    1
 -1         1 3.28093E+03 7.68617E+03 3.21984E+03 2.38754E+03 4.14810E-11 1.19054E-11
 -1         2 3.28093E+03 7.68617E+03 3.21984E+03 2.38754E+03 4.14810E-11 1.19054E-11
 -1         3 3.13122E+01 1.81739E+02 6.38762E+01-1.20831E+01-3.90318E-08-6.00723E-08
 -1         4 3.13122E+01 1.81739E+02 6.38762E+01-1.20831E+01-3.90317E-08-6.00722E-08
 -1         5 9.54918E+01 1.12666E+02 6.24272E+01-4.98386E+01 3.44202E-08-2.18966E-08
 -1         6 9.54918E+01 1.12666E+02 6.24272E+01-4.98386E+01 3.44202E-08-2.18960E-08
 -1         7-2.94927E+03-6.86332E+03-3.00309E+03 2.07597E+03 5.57185E-11-3.10643E-11
 -1         8-2.94927E+03-6.86332E+03-3.00309E+03 2.07597E+03 5.57185E-11-3.10643E-11
 -1         9 1.07830E+02 2.51056E+02 1.07588E+02-2.93929E+01 1.79070E-08-5.47834E-08
 -1        10 1.07830E+02 2.51056E+02 1.07588E+02-2.93929E+01 1.79069E-08-5.47835E-08
 -1        11 1.67009E+02 2.80302E+02 1.36108E+02 1.70984E+03 5.24941E-11-6.24033E-12
 -1        12 1.67009E+02 2.80302E+02 1.36108E+02 1.70984E+03 5.24941E-11-6.24033E-12
 -1        13 8.46953E+02 5.71739E+03 1.93486E+03 8.91576E+02-8.36256E-09 1.97409E-08
 -1        14 8.44274E+02 3.73145E+03 1.35661E+03 5.66824E+02-1.61850E-08 3.17325E-08
 -1        15 2.74665E+02 1.57090E+03 5.49265E+02 5.02221E+02-8.21319E-09-1.41029E-08
 -1        16-1.34057E+02-1.28722E+02-7.99940E+01 3.64913E+02 2.93245E-08-3.74517E-08
 -1        17-4.51450E+02-1.43491E+03-5.68235E+02 2.33049E+02 4.42276E-08 4.34230E-08
 -1        18-7.55279E+02-2.49592E+03-9.81248E+02 1.69248E+02 2.02722E-08 1.14570E-07
 -1        19-9.06663E+02-3.25918E+03-1.26010E+03 6.99324E+01-1.32581E-08 1.45828E-07
 -1        20-8.98296E+02-3.23417E+03-1.25053E+03-1.51516E+02-5.24938E-08 1.17426E-07
 -1        21-6.21482E+02-2.07446E+03-8.13957E+02-3.47754E+02-6.04923E-08-7.55885E-09
 -1        22-2.76437E+02-4.28292E+02-2.12614E+02-3.54581E+02-3.14359E-08-8.28757E-08
 -1        23 3.86107E+01 7.64343E+02 2.39717E+02-1.92021E+02-5.80536E-09-8.21223E-08
 -1        24 1.26878E+02 1.04546E+03 3.50336E+02-1.26042E+01 1.89680E-08-4.41715E-08
 -1        25 9.15045E+01 7.44715E+02 2.50142E+02 6.35594E+01 4.12924E-08-7.54147E-08
 -1        26-2.37241E+01 3.39484E+02 9.45259E+01 4.37057E+01 4.61110E-08-2.43891E-09
 -1        27-5.20777E+01 1.18030E+02 1.97516E+01 3.41385E+00 3.36689E-08 4.61906E-08
 -1        28-6.50228E+01 2.87662E+01-1.08801E+01-1.53633E+01 1.62668E-08 4.19652E-08
 -1        29-4.62725E+01 3.42792E+01-3.60695E+00-3.83461E+01-1.33713E-08 7.49013E-08
 -1        30-7.64342E+01 7.98260E+01 9.77758E-01-6.34400E+01-4.70722E-08 1.89235E-08
 -1        31-2.61878E+01 1.49081E+02 3.68213E+01-4.96639E+01-5.01898E-08-2.86725E-08
 -1        32 8.46953E+02 5.71739E+03 1.93486E+03 8.91576E+02-8.36256E-09 1.97409E-08
 -1        33 8.44274E+02 3.73145E+03 1.35661E+03 5.66824E+02-1.61850E-08 3.17325E-08
 -1        34 2.74665E+02 1.57090E+03 5.49265E+02 5.02221E+02-8.21319E-09-1.41030E-08
 -1        35-1.34057E+02-1.28722E+02-7.99940E+01 3.64913E+02 2.93245E-08-3.74515E-08
 -1        36-4.51450E+02-1.43491E+03-5.68235E+02 2.33049E+02 4.42276E-08 4.34228E-08
 -1        37-7.55279E+02-2.49592E+03-9.81248E+02 1.69248E+02 2.02722E-08 1.14570E-07
 -1        38-9.06663E+02-3.25918E+03-1.26010E+03 6.99324E+01-1.32581E-08 1.45828E-07
 -1        39-8.98296E+02-3.23417E+03-1.25053E+03-1.51516E+02-5.24938E-08 1.17426E-07
 -1        40-6.21482E+02-2.07446E+03-8.13957E+02-3.47754E+02-6.04923E-08-7.55879E-09
 -1        41-2.76437E+02-4.28292E+02-2.12614E+02-3.54581E+02-3.14359E-08-8.28759E-08
 -1        42 3.86107E+01 7.64343E+02 2.39717E+02-1.92021E+02-5.80535E-09-8.21223E-08
 -1        43 1.26878E+02 1.04546E+03 3.50336E+02-1.26042E+01 1.89680E-08-4.41715E-08
 -1        44 9.15045E+01 7.44715E+02 2.50142E+02 6.35594E+01 4.12924E-08-7.54147E-08
 -1        45-2.37241E+01 3.39484E+02 9.45259E+01 4.37057E+01 4.61110E-08-2.43891E-09
 -1        46-5.20777E+01 1.18030E+02 1.97516E+01 3.41385E+00 3.36689E-08 4.61906E-08
 -1        47-6.50228E+01 2.87662E+01-1.08801E+01-1.53633E+01 1.62668E-08 4.19652E-08
 -1        48-4.62725E+01 3.42792E+01-3.60695E+00-3.83461E+01-1.33713E-08 7.49009E-08
 -1        49-7.64342E+01 7.98260E+01 9.77758E-01-6.34400E+01-4.70722E-08 1.89237E-08
 -1        50-2.61878E+01 1.49081E+02 3.68213E+01-4.96639E+01-5.01898E-08-2.86719E-08
 -1        51 1.00142E+02 2.02467E+02 9.07187E+01-3.59792E+01 5.00690E-08-3.72391E-08
 -1        52 1.77501E+02 4.14207E+02 1.77299E+02-5.83115E+01 4.77683E-08 3.56733E-08
 -1        53 2.11097E+02 5.50247E+02 2.28059E+02-3.75899E+01 2.20286E-08 6.01846E-08
 -1        54 1.95716E+02 5.66806E+02 2.28405E+02-1.18809E+01-1.27579E-08 7.76937E-08
 -1        55 1.78376E+02 4.99958E+02 2.03218E+02 5.88289E+00-3.90881E-08 3.61750E-08
 -1        56 1.63050E+02 3.01884E+02 1.39343E+02 4.52750E+01-3.59800E-08-3.00710E-09
 -1        57 5.67037E+01-6.96777E+01-3.93401E+00 6.90534E+01-3.06929E-08-2.25530E-08
 -1        58-7.55315E+00-3.22277E+02-9.91027E+01-1.09827E+00-1.82118E-08-1.08755E-07
 -1        59 9.65997E+01 4.93521E+01 4.33429E+01-1.79229E+02 4.40910E-09-6.98372E-08
 -1        60 3.94495E+02 1.34224E+03 5.17901E+02-3.54660E+02 3.33183E-08-8.19180E-08
 -1        61 7.15476E+02 3.10484E+03 1.13470E+03-3.53578E+02 6.68096E-08-9.70002E-09
 -1        62 9.34783E+02 4.31914E+03 1.55618E+03-1.24101E+02 5.04863E-08 1.09193E-07
 -1        63 9.84439E+02 4.33350E+03 1.57581E+03 1.44924E+02 1.11364E-09 1.42917E-07
 -1        64 8.66790E+02 3.49732E+03 1.29644E+03 2.59855E+02-3.09273E-08 1.20512E-07
 -1        65 5.92550E+02 2.36933E+03 8.81995E+02 3.06641E+02-4.40966E-08 5.81469E-08
 -1        66 2.48498E+02 9.71483E+02 3.63677E+02 3.84973E+02-1.36969E-08-3.26927E-09
 -1        67-1.27464E+02-8.03652E+02-2.81558E+02 4.35713E+02 2.64910E-08-1.20199E-08
 -1        68-6.79464E+02-3.02188E+03-1.12118E+03 4.29960E+02 2.00753E-08 2.06882E-08
 -1        69-8.12841E+02-5.06530E+03-1.79082E+03 7.00076E+02 8.94744E-11 2.42933E-08
 -1        70 1.00142E+02 2.02467E+02 9.07187E+01-3.59792E+01 5.00690E-08-3.72388E-08
 -1        71 1.77501E+02 4.14207E+02 1.77299E+02-5.83115E+01 4.77683E-08 3.56734E-08
 -1        72 2.11097E+02 5.50247E+02 2.28059E+02-3.75899E+01 2.20286E-08 6.01845E-08
 -1        73 1.95716E+02 5.66806E+02 2.28405E+02-1.18809E+01-1.27580E-08 7.76941E-08
 -1        74 1.78376E+02 4.99958E+02 2.03218E+02 5.88289E+00-3.90880E-08 3.61749E-08
 -1        75 1.63050E+02 3.01884E+02 1.39343E+02 4.52750E+01-3.59800E-08-3.00710E-09
 -1        76 5.67037E+01-6.96777E+01-3.93401E+00 6.90534E+01-3.06929E-08-2.25529E-08
 -1        77-7.55315E+00-3.22277E+02-9.91027E+01-1.09827E+00-1.82118E-08-1.08755E-07
 -1        78 9.65997E+01 4.93521E+01 4.33429E+01-1.79229E+02 4.40920E-09-6.98372E-08
 -1        79 3.94495E+02 1.34224E+03 5.17901E+02-3.54660E+02 3.33183E-08-8.19180E-08
 -1        80 7.15476E+02 3.10484E+03 1.13470E+03-3.53578E+02 6.68096E-08-9.70002E-09
 -1        81 9.34783E+02 4.31914E+03 1.55618E+03-1.24101E+02 5.04863E-08 1.09193E-07
 -1        82 9.84439E+02 4.33350E+03 1.57581E+03 1.44924E+02 1.11364E-09 1.42917E-07
 -1        83 8.66790E+02 3.49732E+03 1.29644E+03 2.59855E+02-3.09273E-08 1.20511E-07
 -1        84 5.92550E+02 2.36933E+03 8.81995E+02 3.06641E+02-4.40967E-08 5.81479E-08
 -1        85 2.48498E+02 9.71483E+02 3.63677E+02 3.84973E+02-1.36969E-08-3.26853E-09
 -1        86-1.27464E+02-8.03652E+02-2.81558E+02 4.35713E+02 2.64912E-08-1.20201E-08
 -1        87-6.79464E+02-3.02188E+03-1.12118E+03 4.29960E+02 2.00753E-08 2.06882E-08
 -1        88-8.12841E+02-5.06530E+03-1.79082E+03 7.00076E+02 8.94762E-11 2.42933E-08
 -1        89 3.09535E+01 2.24708E+02 7.68400E+01 6.73562E+02-4.13334E-09 2.33400E-08
 -1        90 9.37725E+01 2.91024E+02 1.15790E+02 7.02209E+02 4.27876E-09 2.68899E-08
 -1        91 7.90704E+01 3.58917E+02 1.30367E+02 5.96069E+02 1.65459E-08-1.97268E-08
 -1        92 6.87000E+01 4.21906E+02 1.46223E+02 4.80053E+02 8.91983E-09-2.79967E-08
 -1        93 7.48887E+01 4.47167E+02 1.56380E+02 3.44131E+02-6.91730E-09 5.13446E-08
 -1        94 5.96188E+01 4.62375E+02 1.57388E+02 2.81286E+02-1.09195E-08 1.22308E-07
 -1        95 5.21186E+01 5.03643E+02 1.67466E+02 1.46538E+02-8.61745E-09 1.54841E-07
 -1        96 3.55416E+01 5.22632E+02 1.67432E+02-1.79989E+02-4.88615E-10 1.19433E-07
 -1        97 5.60959E+01 5.00610E+02 1.66663E+02-4.65461E+02 5.42416E-09-1.02812E-08
 -1        98 5.96553E+01 4.45534E+02 1.50917E+02-4.63245E+02 4.07824E-09-8.57079E-08
 -1        99 6.73396E+01 4.02191E+02 1.40249E+02-2.32526E+02-7.69577E-09-8.16920E-08
 -1       100 5.96556E+01 3.59350E+02 1.25418E+02-2.39494E+00 1.04745E-08-8.04826E-08
 -1       101 7.09352E+01 3.29408E+02 1.19955E+02 8.80218E+01 2.08598E-08-5.02290E-08
 -1       102 6.69249E+01 3.14386E+02 1.14250E+02 6.60806E+01-3.26237E-09-6.55159E-09
 -1       103 6.52684E+01 3.14002E+02 1.13661E+02 1.97323E+01-3.91361E-09 3.86839E-08
 -1       104 6.59330E+01 2.98938E+02 1.09362E+02-1.09550E+01-7.49552E-10 6.45290E-08
 -1       105 7.91722E+01 2.84257E+02 1.08927E+02-4.49908E+01 5.41986E-09 7.63855E-08
 -1       106 5.27036E+01 2.51827E+02 9.12664E+01-6.67561E+01 7.36557E-09 3.40577E-08
 -1       107 6.29991E+01 2.36611E+02 8.98068E+01-4.14109E+01 1.18340E-08-3.13950E-08
 -1       108 6.29991E+01 2.36611E+02 8.98068E+01-4.14109E+01 1.18340E-08-3.13951E-08
 -1       109 5.27036E+01 2.51827E+02 9.12664E+01-6.67561E+01 7.36559E-09 3.40575E-08
 -1       110 7.91722E+01 2.84257E+02 1.08927E+02-4.49908E+01 5.41986E-09 7.63857E-08
 -1       111 6.59330E+01 2.98938E+02 1.09362E+02-1.09550E+01-7.49546E-10 6.45289E-08
 -1       112 6.52684E+01 3.14002E+02 1.13661E+02 1.97323E+01-3.91363E-09 3.86840E-08
 -1       113 6.69249E+01 3.14386E+02 1.14250E+02 6.60806E+01-3.26236E-09-6.55159E-09
 -1       114 7.09352E+01 3.29408E+02 1.19955E+02 8.80218E+01 2.08598E-08-5.02291E-08
 -1       115 5.96555E+01 3.59350E+02 1.25418E+02-2.39494E+00 1.04745E-08-8.04825E-08
 -1       116 6.73396E+01 4.02191E+02 1.40249E+02-2.32526E+02-7.69579E-09-8.16922E-08
 -1       117 5.96553E+01 4.45534E+02 1.50917E+02-4.63245E+02 4.07824E-09-8.57075E-08
 -1       118 5.60959E+01 5.00610E+02 1.66663E+02-4.65461E+02 5.42416E-09-1.02814E-08
 -1       119 3.55416E+01 5.22632E+02 1.67432E+02-1.79989E+02-4.88604E-10 1.19433E-07
 -1       120 5.21186E+01 5.03643E+02 1.67466E+02 1.46538E+02-8.61746E-09 1.54841E-07
 -1       121 5.96188E+01 4.62375E+02 1.57388E+02 2.81286E+02-1.09195E-08 1.22309E-07
 -1       122 7.48887E+01 4.47167E+02 1.56380E+02 3.44131E+02-6.91729E-09 5.13448E-08
 -1       123 6.87000E+01 4.21906E+02 1.46223E+02 4.80053E+02 8.91982E-09-2.79973E-08
 -1       124 7.90704E+01 3.58917E+02 1.30367E+02 5.96069E+02 1.65459E-08-1.97267E-08
 -1       125 9.37725E+01 2.91024E+02 1.15790E+02 7.02209E+02 4.27876E-09 2.68899E-08
 -1       126 3.09535E+01 2.24708E+02 7.68400E+01 6.73562E+02-4.13334E-09 2.33401E-08
 -3
    1PSTEP                        35           9           1          
  100CL  109 9.00000E-02         126                     1    9           1
 -4  TOSTRAIN    6    1
 -5  EXX         1    4    1    1
 -5  EYY         1    4    2    2
 -5  EZZ         1    4    3    3
 -5  EXY         1    4    1    2
 -5  EYZ         1    4    2    3
 -5  EZX         1    4    3    1
 -1         1-1.60972E-05 1.41312E-02-1.61182E-27 7.42191E-03 3.15551E-19-2.12198E-17
 -1         2-1.60972E-05 1.41312E-02-1.61182E-27 7.42191E-03 3.15551E-19-2.12198E-17
 -1         3-1.06134E-04 3.83005E-04 9.30442E-26-3.73465E-05-1.26036E-13-1.95722E-13
 -1         4-1.06134E-04 3.83005E-04 9.30442E-26-3.73465E-05-1.26036E-13-1.95722E-13
 -1         5 1.06219E-04 1.64356E-04 2.98014E-26-1.61676E-04 1.12067E-13-7.07302E-14
 -1         6 1.06219E-04 1.64356E-04 2.98006E-26-1.61676E-04 1.12067E-13-7.07282E-14
 -1         7-1.61083E-05-1.28601E-02-2.05664E-27 7.04034E-03 1.40178E-19-4.09102E-17
 -1         8-1.61083E-05-1.28601E-02-2.05664E-27 7.04034E-03 1.40178E-19-4.09102E-17
 -1         9 4.21389E-08 4.66394E-04 6.05389E-26-9.36518E-05 5.88020E-14-1.77783E-13
 -1        10 4.21397E-08 4.66394E-04 6.05391E-26-9.36518E-05 5.88019E-14-1.77783E-13
 -1        11-1.61028E-05 5.74012E-04-1.97190E-27 5.54889E-03 2.17438E-19-2.77280E-17
 -1        12-1.61028E-05 5.74012E-04-1.97190E-27 5.54889E-03 2.17438E-19-2.77280E-17
 -1        13-3.66088E-03 1.20953E-02 8.60330E-27 2.61022E-03-2.60268E-14 6.45714E-14
 -1        14-1.76579E-03 7.67519E-03 2.12298E-26 1.59513E-03-4.97927E-14 1.04352E-13
 -1        15-9.89079E-04 3.37669E-03-3.27441E-27 1.50107E-03-2.77982E-14-4.50000E-14
 -1        16-2.48566E-04-9.62131E-05 3.18584E-26 1.18177E-03 9.19467E-14-1.24591E-13
 -1        17 3.31881E-04-2.78954E-03 5.04471E-26 8.41423E-04 1.47847E-13 1.37352E-13
 -1        18 6.99340E-04-4.93850E-03 2.69323E-25 6.71276E-04 7.39521E-14 3.71379E-13
 -1        19 1.11991E-03-6.56011E-03 4.46063E-25 3.31445E-04-3.71310E-14 4.75251E-13
 -1        20 1.12168E-03-6.52081E-03 3.09883E-25-4.60196E-04-1.70295E-13 3.82905E-13
 -1        21 6.06078E-04-4.12289E-03 2.56315E-26-1.14822E-03-1.97747E-13-2.54529E-14
 -1        22-2.25709E-04-6.92996E-04 1.50311E-25-1.15827E-03-1.00804E-13-2.70319E-13
 -1        23-6.64488E-04 1.70462E-03 1.39487E-25-6.09789E-04-1.73742E-14-2.67056E-13
 -1        24-7.28762E-04 2.24884E-03 3.92572E-26-2.87822E-05 6.20240E-14-1.43296E-13
 -1        25-5.15191E-04 1.60036E-03 1.42089E-25 2.11256E-04 1.34551E-13-2.44813E-13
 -1        26-3.84041E-04 7.93905E-04 2.29498E-26 1.44040E-04 1.49726E-13-7.65973E-15
 -1        27-2.33564E-04 3.19158E-04 5.92821E-26 1.22730E-05 1.09038E-13 1.50391E-13
 -1        28-1.76404E-04 1.29222E-04 3.68918E-26-4.91058E-05 5.24880E-14 1.36565E-13
 -1        29-1.39676E-04 1.24013E-04 1.11048E-25-1.23734E-04-4.42290E-14 2.43316E-13
 -1        30-2.53405E-04 2.57634E-04 3.20722E-26-2.04213E-04-1.53161E-13 6.09037E-14
 -1        31-2.06174E-04 3.65755E-04 5.11723E-26-1.59114E-04-1.62691E-13-9.38598E-14
 -1        32-3.66088E-03 1.20953E-02 8.60330E-27 2.61022E-03-2.60268E-14 6.45714E-14
 -1        33-1.76579E-03 7.67519E-03 2.12298E-26 1.59513E-03-4.97927E-14 1.04352E-13
 -1        34-9.89079E-04 3.37669E-03-3.27438E-27 1.50107E-03-2.77982E-14-4.50001E-14
 -1        35-2.48566E-04-9.62131E-05 3.18582E-26 1.18177E-03 9.19467E-14-1.24590E-13
 -1        36 3.31881E-04-2.78954E-03 5.04468E-26 8.41423E-04 1.47847E-13 1.37351E-13
 -1        37 6.99340E-04-4.93850E-03 2.69324E-25 6.71276E-04 7.39521E-14 3.71379E-13
 -1        38 1.11991E-03-6.56011E-03 4.46063E-25 3.31445E-04-3.71310E-14 4.75251E-13
 -1        39 1.12168E-03-6.52081E-03 3.09883E-25-4.60196E-04-1.70295E-13 3.82905E-13
 -1        40 6.06078E-04-4.12289E-03 2.56313E-26-1.14822E-03-1.97747E-13-2.54527E-14
 -1        41-2.25709E-04-6.92996E-04 1.50312E-25-1.15827E-03-1.00804E-13-2.70319E-13
 -1        42-6.64488E-04 1.70462E-03 1.39487E-25-6.09789E-04-1.73742E-14-2.67056E-13
 -1        43-7.28762E-04 2.24884E-03 3.92572E-26-2.87822E-05 6.20240E-14-1.43296E-13
 -1        44-5.15191E-04 1.60036E-03 1.42089E-25 2.11256E-04 1.34551E-13-2.44813E-13
 -1        45-3.84041E-04 7.93905E-04 2.29498E-26 1.44040E-04 1.49726E-13-7.65973E-15
 -1        46-2.33564E-04 3.19158E-04 5.92821E-26 1.22730E-05 1.09038E-13 1.50391E-13
 -1        47-1.76404E-04 1.29222E-04 3.68918E-26-4.91058E-05 5.24880E-14 1.36565E-13
 -1        48-1.39676E-04 1.24013E-04 1.11047E-25-1.23734E-04-4.42289E-14 2.43315E-13
 -1        49-2.53405E-04 2.57634E-04 3.20729E-26-2.04213E-04-1.53161E-13 6.09041E-14
 -1        50-2.06174E-04 3.65755E-04 5.11720E-26-1.59114E-04-1.62691E-13-9.38579E-14
 -1        51 2.96617E-05 3.63638E-04 6.72297E-26-1.15477E-04 1.63074E-13-1.20357E-13
 -1        52-8.68638E-07 7.69784E-04 5.79040E-26-1.86254E-04 1.54650E-13 1.16514E-13
 -1        53-5.61061E-05 1.04530E-03 8.06749E-26-1.18234E-04 7.08565E-14 1.95757E-13
 -1        54-1.06493E-04 1.09719E-03 1.23571E-25-3.52320E-05-4.20763E-14 2.52292E-13
 -1        55-8.06881E-05 9.62069E-04 4.86831E-26 2.14459E-05-1.27125E-13 1.17244E-13
 -1        56 7.75120E-05 5.26751E-04 2.05073E-26 1.47890E-04-1.16815E-13-9.97682E-15
 -1        57 1.97704E-04-2.14741E-04 5.83792E-27 2.23205E-04-9.95870E-14-7.34956E-14
 -1        58 2.95577E-04-7.25203E-04 2.36099E-25-7.74690E-06-5.78629E-14-3.53644E-13
 -1        59 1.63383E-04 2.49205E-05 9.81077E-26-5.81102E-04 1.55743E-14-2.26812E-13
 -1        60-4.18349E-04 2.66979E-03 1.48930E-25-1.12571E-03 1.09306E-13-2.65208E-13
 -1        61-1.38235E-03 6.32175E-03 4.45577E-26-1.11845E-03 2.15283E-13-3.05899E-14
 -1        62-2.04436E-03 8.82382E-03 2.64352E-25-4.49468E-04 1.63844E-13 3.53659E-13
 -1        63-1.95583E-03 8.82144E-03 4.23196E-25 3.22679E-04 9.64225E-15 4.63623E-13
 -1        64-1.43822E-03 7.08258E-03 3.16181E-25 6.60143E-04-9.16444E-14 3.93157E-13
 -1        65-9.95247E-04 4.83049E-03 9.19720E-26 8.40487E-04-1.37566E-13 1.92570E-13
 -1        66-4.48565E-04 2.02892E-03-1.05095E-26 1.17891E-03-4.46372E-14-9.27440E-15
 -1        67 4.12526E-04-1.62877E-03 1.30321E-26 1.47924E-03 8.52103E-14-4.16613E-14
 -1        68 1.34820E-03-6.18588E-03 1.40309E-26 1.59326E-03 6.73034E-14 6.55932E-14
 -1        69 3.06734E-03-1.07862E-02 1.06146E-26 2.52127E-03 1.24749E-15 7.90186E-14
 -1        70 2.96617E-05 3.63638E-04 6.72293E-26-1.15477E-04 1.63074E-13-1.20356E-13
 -1        71-8.68638E-07 7.69784E-04 5.79043E-26-1.86254E-04 1.54650E-13 1.16514E-13
 -1        72-5.61061E-05 1.04530E-03 8.06746E-26-1.18234E-04 7.08565E-14 1.95757E-13
 -1        73-1.06493E-04 1.09719E-03 1.23572E-25-3.52320E-05-4.20765E-14 2.52293E-13
 -1        74-8.06881E-05 9.62069E-04 4.86827E-26 2.14459E-05-1.27125E-13 1.17244E-13
 -1        75 7.75120E-05 5.26751E-04 2.05073E-26 1.47890E-04-1.16815E-13-9.97682E-15
 -1        76 1.97704E-04-2.14741E-04 5.83779E-27 2.23205E-04-9.95870E-14-7.34954E-14
 -1        77 2.95577E-04-7.25203E-04 2.36099E-25-7.74690E-06-5.78628E-14-3.53644E-13
 -1        78 1.63383E-04 2.49205E-05 9.81075E-26-5.81102E-04 1.55747E-14-2.26812E-13
 -1        79-4.18349E-04 2.66979E-03 1.48930E-25-1.12571E-03 1.09306E-13-2.65208E-13
 -1        80-1.38235E-03 6.32175E-03 4.45577E-26-1.11845E-03 2.15283E-13-3.05899E-14
 -1        81-2.04436E-03 8.82382E-03 2.64352E-25-4.49468E-04 1.63845E-13 3.53659E-13
 -1        82-1.95583E-03 8.82144E-03 4.23197E-25 3.22679E-04 9.64225E-15 4.63623E-13
 -1        83-1.43822E-03 7.08258E-03 3.16180E-25 6.60143E-04-9.16444E-14 3.93156E-13
 -1        84-9.95247E-04 4.83049E-03 9.19749E-26 8.40487E-04-1.37566E-13 1.92574E-13
 -1        85-4.48565E-04 2.02892E-03-1.05101E-26 1.17891E-03-4.46371E-14-9.27200E-15
 -1        86 4.12526E-04-1.62877E-03 1.30323E-26 1.47924E-03 8.52106E-14-4.16620E-14
 -1        87 1.34820E-03-6.18588E-03 1.40309E-26 1.59326E-03 6.73034E-14 6.55933E-14
 -1        88 3.06734E-03-1.07862E-02 1.06146E-26 2.52127E-03 1.24749E-15 7.90186E-14
 -1        89-2.96770E-04 6.17455E-04 1.07761E-26 2.17657E-03-1.25311E-14 7.60804E-14
 -1        90-2.08798E-04 7.03896E-04 1.01745E-26 2.25997E-03 1.58327E-14 8.69901E-14
 -1        91-2.88276E-04 8.52210E-04 8.92130E-27 1.90449E-03 5.19646E-14-6.57517E-14
 -1        92-3.48566E-04 9.81916E-04 4.40824E-27 1.52141E-03 2.64480E-14-9.18379E-14
 -1        93-3.31683E-04 1.00755E-03 2.94351E-26 1.08319E-03-1.82241E-14 1.67428E-13
 -1        94-3.69442E-04 1.04684E-03 3.06091E-25 8.84274E-04-2.73566E-14 3.98198E-13
 -1        95-4.17962E-04 1.13662E-03 5.04736E-25 4.55512E-04-2.12988E-14 5.03587E-13
 -1        96-4.61338E-04 1.18001E-03 2.60802E-25-5.90698E-04 3.01533E-16 3.88171E-13
 -1        97-3.88137E-04 1.10669E-03-5.07590E-26-1.50494E-03 1.76266E-14-3.33282E-14
 -1        98-3.22029E-04 9.75375E-04 1.42042E-25-1.49406E-03 1.47558E-14-2.78427E-13
 -1        99-2.50552E-04 8.58600E-04 1.41941E-25-7.47577E-04-2.35301E-14-2.65652E-13
 -1       100-2.16592E-04 7.60256E-04 1.33306E-25-3.89734E-06 3.50293E-14-2.61406E-13
 -1       101-1.58743E-04 6.78773E-04 4.99639E-26 2.87582E-04 6.81506E-14-1.63101E-13
 -1       102-1.53264E-04 6.48624E-04-1.26519E-26 2.15972E-04-1.05480E-14-2.13085E-14
 -1       103-1.57126E-04 6.49883E-04 2.27211E-26 6.58134E-05-1.29943E-14 1.25684E-13
 -1       104-1.41448E-04 6.15540E-04 8.53289E-26-3.35014E-05-3.00067E-15 2.09694E-13
 -1       105-9.78909E-05 5.70097E-04 1.19681E-25-1.43813E-04 1.68060E-14 2.48278E-13
 -1       106-1.27137E-04 5.22782E-04 6.84704E-27-2.14269E-04 2.35235E-14 1.10776E-13
 -1       107-8.82559E-05 4.77578E-04 6.12500E-27-1.32267E-04 3.88146E-14-1.01869E-13
 -1       108-8.82559E-05 4.77578E-04 6.12509E-27-1.32267E-04 3.88147E-14-1.01869E-13
 -1       109-1.27137E-04 5.22782E-04 6.84656E-27-2.14269E-04 2.35236E-14 1.10775E-13
 -1       110-9.78909E-05 5.70097E-04 1.19682E-25-1.43813E-04 1.68060E-14 2.48279E-13
 -1       111-1.41448E-04 6.15540E-04 8.53286E-26-3.35014E-05-3.00065E-15 2.09694E-13
 -1       112-1.57126E-04 6.49883E-04 2.27213E-26 6.58134E-05-1.29943E-14 1.25684E-13
 -1       113-1.53264E-04 6.48624E-04-1.26519E-26 2.15972E-04-1.05480E-14-2.13085E-14
 -1       114-1.58743E-04 6.78773E-04 4.99641E-26 2.87582E-04 6.81506E-14-1.63101E-13
 -1       115-2.16592E-04 7.60256E-04 1.33306E-25-3.89734E-06 3.50293E-14-2.61405E-13
 -1       116-2.50552E-04 8.58600E-04 1.41942E-25-7.47577E-04-2.35301E-14-2.65652E-13
 -1       117-3.22029E-04 9.75375E-04 1.42041E-25-1.49406E-03 1.47558E-14-2.78426E-13
 -1       118-3.88137E-04 1.10669E-03-5.07587E-26-1.50494E-03 1.76266E-14-3.33286E-14
 -1       119-4.61338E-04 1.18001E-03 2.60802E-25-5.90698E-04 3.01571E-16 3.88171E-13
 -1       120-4.17962E-04 1.13662E-03 5.04736E-25 4.55512E-04-2.12988E-14 5.03587E-13
 -1       121-3.69442E-04 1.04684E-03 3.06091E-25 8.84274E-04-2.73565E-14 3.98199E-13
 -1       122-3.31683E-04 1.00755E-03 2.94353E-26 1.08319E-03-1.82241E-14 1.67428E-13
 -1       123-3.48566E-04 9.81916E-04 4.40872E-27 1.52141E-03 2.64479E-14-9.18398E-14
 -1       124-2.88276E-04 8.52210E-04 8.92121E-27 1.90449E-03 5.19646E-14-6.57514E-14
 -1       125-2.08798E-04 7.03896E-04 1.01745E-26 2.25997E-03 1.58327E-14 8.69900E-14
 -1       126-2.96770E-04 6.17455E-04 1.07761E-26 2.17657E-03-1.25311E-14 7.60805E-14
 -3
    1PSTEP                        36           9           1          
  100CL  109 9.00000E-02         126                     1    9           1
 -4  ERROR       1    1
 -5  STR(%)      1    1    0    0
 -1         1 6.14391E+01
 -1         2 6.14391E+01
 -1         3 6.64384E+00
 -1         4 6.64384E+00
 -1         5 3.15163E+01
 -1         6 3.15163E+01
 -1         7 6.70028E+01
 -1         8 6.70028E+01
 -1         9 3.15163E+01
 -1        10 3.15163E+01
 -1        11 6.70028E+01
 -1        12 6.70028E+01
 -1        13 6.14391E+01
 -1        14 5.37361E+01
 -1        15 4.32734E+01
 -1        16 5.46486E+01
 -1        17 7.72193E+01
 -1        18 7.72193E+01
 -1        19 7.56327E+01
 -1        20 7.43677E+01
 -1        21 7.43677E+01
 -1        22 4.88011E+01
 -1        23 3.68480E+01
 -1        24 3.68480E+01
 -1        25 3.45331E+01
 -1        26 1.85811E+01
 -1        27 4.30198E+01
 -1        28 5.17588E+01
 -1        29 5.17588E+01
 -1        30 4.50287E+01
 -1        31 6.64384E+00
 -1        32 6.14391E+01
 -1        33 5.37361E+01
 -1        34 4.32734E+01
 -1        35 5.46486E+01
 -1        36 7.72193E+01
 -1        37 7.72193E+01
 -1        38 7.56327E+01
 -1        39 7.43677E+01
 -1        40 7.43677E+01
 -1        41 4.88011E+01
 -1        42 3.68480E+01
 -1        43 3.68480E+01
 -1        44 3.45331E+01
 -1        45 1.85811E+01
 -1        46 4.30198E+01
 -1        47 5.17588E+01
 -1        48 5.17588E+01
 -1        49 4.50287E+01
 -1        50 6.64384E+00
 -1        51 3.15163E+01
 -1        52 1.47820E+01
 -1        53 1.84909E+01
 -1        54 1.84909E+01
 -1        55 1.44109E+01
 -1        56 2.71033E+01
 -1        57 6.80236E+01
 -1        58 7.76253E+01
 -1        59 7.76253E+01
 -1        60 3.19661E+01
 -1        61 4.91495E+01
 -1        62 4.97144E+01
 -1        63 5.03449E+01
 -1        64 5.03449E+01
 -1        65 4.70255E+01
 -1        66 3.26350E+01
 -1        67 5.58927E+01
 -1        68 6.33193E+01
 -1        69 6.70028E+01
 -1        70 3.15163E+01
 -1        71 1.47820E+01
 -1        72 1.84909E+01
 -1        73 1.84909E+01
 -1        74 1.44109E+01
 -1        75 2.71033E+01
 -1        76 6.80236E+01
 -1        77 7.76253E+01
 -1        78 7.76253E+01
 -1        79 3.19661E+01
 -1        80 4.91495E+01
 -1        81 4.97144E+01
 -1        82 5.03449E+01
 -1        83 5.03449E+01
 -1        84 4.70255E+01
 -1        85 3.26350E+01
 -1        86 5.58927E+01
 -1        87 6.33193E+01
 -1        88 6.70028E+01
 -1        89 6.70028E+01
 -1        90 6.33193E+01
 -1        91 5.58927E+01
 -1        92 5.46486E+01
 -1        93 7.72193E+01
 -1        94 7.72193E+01
 -1        95 7.56327E+01
 -1        96 7.43677E+01
 -1        97 7.43677E+01
 -1        98 4.88011E+01
 -1        99 7.76253E+01
 -1       100 7.76253E+01
 -1       101 6.80236E+01
 -1       102 2.71033E+01
 -1       103 4.30198E+01
 -1       104 5.17588E+01
 -1       105 5.17588E+01
 -1       106 4.50287E+01
 -1       107 3.15163E+01
 -1       108 3.15163E+01
 -1       109 4.50287E+01
 -1       110 5.17588E+01
 -1       111 5.17588E+01
 -1       112 4.30198E+01
 -1       113 2.71033E+01
 -1       114 6.80236E+01
 -1       115 7.76253E+01
 -1       116 7.76253E+01
 -1       117 4.88011E+01
 -1       118 7.43677E+01
 -1       119 7.43677E+01
 -1       120 7.56327E+01
 -1       121 7.72193E+01
 -1       122 7.72193E+01
 -1       123 5.46486E+01
 -1       124 5.58927E+01
 -1       125 6.33193E+01
 -1       126 6.70028E+01
 -3
    1PSTEP                        37          10           1          
  100CL  110 1.00000E-01         126                     1   10           1
 -4  DISP        4    1
 -5  D1          1    2    1    0
 -5  D2          1    2    2    0
 -5  D3          1    2    3    0
 -5  ALL         1    2    0    0    1ALL
 -1         1 0.00000E+00 0.00000E+00 0.00000E+00
 -1         2 0.00000E+00 0.00000E+00 0.00000E+00
 -1         3 7.90597E-03 5.06372E-04 0.00000E+00
 -1         4 7.90597E-03 5.06372E-04 0.00000E+00
 -1         5 7.89046E-03 9.33880E-04 0.00000E+00
 -1         6 7.89046E-03 9.33880E-04 0.00000E+00
 -1         7 0.00000E+00 0.00000E+00 0.00000E+00
 -1         8 0.00000E+00 0.00000E+00 0.00000E+00
 -1         9 7.89744E-03 7.35493E-04 0.00000E+00
 -1        10 7.89744E-03 7.35493E-04 0.00000E+00
 -1        11 0.00000E+00 0.00000E+00 0.00000E+00
 -1        12 0.00000E+00 0.00000E+00 0.00000E+00
 -1        13 8.00173E-04 7.60458E-04 0.00000E+00
 -1        14 2.01026E-03 1.30507E-03 0.00000E+00
 -1        15 3.58503E-03 1.60594E-03 0.00000E+00
 -1        16 5.29096E-03 1.70457E-03 0.00000E+00
 -1        17 6.95374E-03 1.63385E-03 0.00000E+00
 -1        18 8.37641E-03 1.44292E-03 0.00000E+00
 -1        19 9.47202E-03 1.18265E-03 0.00000E+00
 -1        20 1.02365E-02 8.59088E-04 0.00000E+00
 -1        21 1.05491E-02 4.97136E-04 0.00000E+00
 -1        22 1.03687E-02 2.05084E-04 0.00000E+00
 -1        23 9.88131E-03 8.99019E-05 0.00000E+00
 -1        24 9.39638E-03 1.50437E-04 0.00000E+00
 -1        25 9.08519E-03 2.89467E-04 0.00000E+00
 -1        26 8.93342E-03 4.08013E-04 0.00000E+00
 -1        27 8.83013E-03 4.67168E-04 0.00000E+00
 -1        28 8.71307E-03 4.80824E-04 0.00000E+00
 -1        29 8.55232E-03 4.77760E-04 0.00000E+00
 -1        30 8.35075E-03 4.77880E-04 0.00000E+00
 -1        31 8.13144E-03 4.88527E-04 0.00000E+00
 -1        32 8.00173E-04 7.60458E-04 0.00000E+00
 -1        33 2.01026E-03 1.30507E-03 0.00000E+00
 -1        34 3.58503E-03 1.60594E-03 0.00000E+00
 -1        35 5.29096E-03 1.70457E-03 0.00000E+00
 -1        36 6.95374E-03 1.63385E-03 0.00000E+00
 -1        37 8.37641E-03 1.44292E-03 0.00000E+00
 -1        38 9.47202E-03 1.18265E-03 0.00000E+00
 -1        39 1.02365E-02 8.59088E-04 0.00000E+00
 -1        40 1.05491E-02 4.97136E-04 0.00000E+00
 -1        41 1.03687E-02 2.05084E-04 0.00000E+00
 -1        42 9.88131E-03 8.99019E-05 0.00000E+00
 -1        43 9.39638E-03 1.50437E-04 0.00000E+00
 -1        44 9.08519E-03 2.89467E-04 0.00000E+00
 -1        45 8.93342E-03 4.08013E-04 0.00000E+00
 -1        46 8.83013E-03 4.67168E-04 0.00000E+00
 -1        47 8.71307E-03 4.80824E-04 0.00000E+00
 -1        48 8.55232E-03 4.77760E-04 0.00000E+00
 -1        49 8.35075E-03 4.77880E-04 0.00000E+00
 -1        50 8.13144E-03 4.88527E-04 0.00000E+00
 -1        51 8.11221E-03 9.15279E-04 0.00000E+00
 -1        52 8.32466E-03 8.86112E-04 0.00000E+00
 -1        53 8.51464E-03 8.40202E-04 0.00000E+00
 -1        54 8.67719E-03 7.79693E-04 0.00000E+00
 -1        55 8.79020E-03 7.31198E-04 0.00000E+00
 -1        56 8.88814E-03 7.23956E-04 0.00000E+00
 -1        57 9.03468E-03 7.71340E-04 0.00000E+00
 -1        58 9.34700E-03 8.38378E-04 0.00000E+00
 -1        59 9.82928E-03 8.28244E-04 0.00000E+00
 -1        60 1.03146E-02 6.39327E-04 0.00000E+00
 -1        61 1.04881E-02 2.63426E-04 0.00000E+00
 -1        62 1.01666E-02-1.91548E-04 0.00000E+00
 -1        63 9.38497E-03-6.12025E-04 0.00000E+00
 -1        64 8.27017E-03-9.69501E-04 0.00000E+00
 -1        65 6.83134E-03-1.24995E-03 0.00000E+00
 -1        66 5.16672E-03-1.39759E-03 0.00000E+00
 -1        67 3.46930E-03-1.36803E-03 0.00000E+00
 -1        68 1.90322E-03-1.13666E-03 0.00000E+00
 -1        69 7.18944E-04-6.70666E-04 0.00000E+00
 -1        70 8.11221E-03 9.15279E-04 0.00000E+00
 -1        71 8.32466E-03 8.86112E-04 0.00000E+00
 -1        72 8.51464E-03 8.40202E-04 0.00000E+00
 -1        73 8.67719E-03 7.79693E-04 0.00000E+00
 -1        74 8.79020E-03 7.31198E-04 0.00000E+00
 -1        75 8.88814E-03 7.23956E-04 0.00000E+00
 -1        76 9.03468E-03 7.71340E-04 0.00000E+00
 -1        77 9.34700E-03 8.38378E-04 0.00000E+00
 -1        78 9.82928E-03 8.28244E-04 0.00000E+00
 -1        79 1.03146E-02 6.39327E-04 0.00000E+00
 -1        80 1.04881E-02 2.63426E-04 0.00000E+00
 -1        81 1.01666E-02-1.91548E-04 0.00000E+00
 -1        82 9.38497E-03-6.12025E-04 0.00000E+00
 -1        83 8.27017E-03-9.69501E-04 0.00000E+00
 -1        84 6.83134E-03-1.24995E-03 0.00000E+00
 -1        85 5.16672E-03-1.39759E-03 0.00000E+00
 -1        86 3.46930E-03-1.36803E-03 0.00000E+00
 -1        87 1.90322E-03-1.13666E-03 0.00000E+00
 -1        88 7.18944E-04-6.70666E-04 0.00000E+00
 -1        89 5.92653E-04 3.84740E-05 0.00000E+00
 -1        90 1.88330E-03 8.62010E-05 0.00000E+00
 -1        91 3.49314E-03 1.21141E-04 0.00000E+00
 -1        92 5.23672E-03 1.52378E-04 0.00000E+00
 -1        93 6.93313E-03 1.90511E-04 0.00000E+00
 -1        94 8.38396E-03 2.36683E-04 0.00000E+00
 -1        95 9.50307E-03 2.85877E-04 0.00000E+00
 -1        96 1.02887E-02 3.34002E-04 0.00000E+00
 -1        97 1.06039E-02 3.81358E-04 0.00000E+00
 -1        98 1.03961E-02 4.24151E-04 0.00000E+00
 -1        99 9.86752E-03 4.60206E-04 0.00000E+00
 -1       100 9.35456E-03 4.93997E-04 0.00000E+00
 -1       101 9.03811E-03 5.29986E-04 0.00000E+00
 -1       102 8.89796E-03 5.67063E-04 0.00000E+00
 -1       103 8.80982E-03 6.00553E-04 0.00000E+00
 -1       104 8.70082E-03 6.30058E-04 0.00000E+00
 -1       105 8.53918E-03 6.59306E-04 0.00000E+00
 -1       106 8.33940E-03 6.84773E-04 0.00000E+00
 -1       107 8.12191E-03 7.07239E-04 0.00000E+00
 -1       108 8.12191E-03 7.07239E-04 0.00000E+00
 -1       109 8.33940E-03 6.84773E-04 0.00000E+00
 -1       110 8.53918E-03 6.59306E-04 0.00000E+00
 -1       111 8.70082E-03 6.30058E-04 0.00000E+00
 -1       112 8.80982E-03 6.00553E-04 0.00000E+00
 -1       113 8.89796E-03 5.67063E-04 0.00000E+00
 -1       114 9.03811E-03 5.29986E-04 0.00000E+00
 -1       115 9.35456E-03 4.93997E-04 0.00000E+00
 -1       116 9.86752E-03 4.60206E-04 0.00000E+00
 -1       117 1.03961E-02 4.24151E-04 0.00000E+00
 -1       118 1.06039E-02 3.81358E-04 0.00000E+00
 -1       119 1.02887E-02 3.34002E-04 0.00000E+00
 -1       120 9.50307E-03 2.85877E-04 0.00000E+00
 -1       121 8.38396E-03 2.36683E-04 0.00000E+00
 -1       122 6.93313E-03 1.90511E-04 0.00000E+00
 -1       123 5.23672E-03 1.52378E-04 0.00000E+00
 -1       124 3.49314E-03 1.21141E-04 0.00000E+00
 -1       125 1.88330E-03 8.62010E-05 0.00000E+00
 -1       126 5.92653E-04 3.84740E-05 0.00000E+00
 -3
    1PSTEP                        38          10           1          
  100CL  110 1.00000E-01         126                     1   10           1
 -4  STRESS      6    1
 -5  SXX         1    4    1    1
 -5  SYY         1    4    2    2
 -5  SZZ         1    4    3    3
 -5  SXY         1    4    1    2
 -5  SYZ         1    4    2    3
 -5  SZX         1    4    3    1
 -1         1 3.58339E+03 8.40317E+03 3.51246E+03 2.58419E+03 1.57387E-10 1.95084E-10
 -1         2 3.58339E+03 8.40317E+03 3.51246E+03 2.58419E+03 1.57387E-10 1.95084E-10
 -1         3-1.51503E+00 1.60937E+02 4.77936E+01 1.08721E+01-5.02965E-08-8.45189E-08
 -1         4-1.51503E+00 1.60937E+02 4.77936E+01 1.08721E+01-5.02965E-08-8.45189E-08
 -1         5 1.77699E+01 1.74730E+02 5.76939E+01-7.22669E+01 1.69516E-08-6.19405E-08
 -1         6 1.77699E+01 1.74730E+02 5.76939E+01-7.22669E+01 1.69517E-08-6.19405E-08
 -1         7-3.03567E+03-7.06367E+03-3.09212E+03 2.11598E+03 1.39527E-10-1.25461E-10
 -1         8-3.03567E+03-7.06367E+03-3.09212E+03 2.11598E+03 1.39527E-10-1.25459E-10
 -1         9 5.44606E+01 2.76053E+02 9.90535E+01-3.34947E+01-3.12029E-08-7.09662E-08
 -1        10 5.44606E+01 2.76053E+02 9.90535E+01-3.34947E+01-3.12029E-08-7.09662E-08
 -1        11 2.29272E+02 4.10269E+02 1.93688E+02 1.82651E+03 1.15746E-10 3.05266E-11
 -1        12 2.29272E+02 4.10269E+02 1.93688E+02 1.82651E+03 1.15746E-10 3.05230E-11
 -1        13 9.24382E+02 6.30844E+03 2.12821E+03 9.33431E+02 3.95798E-08 6.22807E-08
 -1        14 8.66971E+02 4.27969E+03 1.52309E+03 5.86469E+02 2.96998E-08 8.70793E-08
 -1        15 3.26176E+02 2.10764E+03 7.23473E+02 5.10192E+02 1.40743E-08 7.96847E-08
 -1        16-1.01836E+02 2.93667E+02 5.60263E+01 4.13913E+02 9.96051E-09 1.07157E-07
 -1        17-4.71168E+02-1.16483E+03-4.92735E+02 2.94889E+02 1.77880E-08 1.06619E-07
 -1        18-7.19313E+02-2.15205E+03-8.65807E+02 1.44192E+02 1.73480E-08 1.52321E-07
 -1        19-8.80917E+02-2.85231E+03-1.12726E+03 8.35696E+01-1.80980E-08 1.75139E-07
 -1        20-9.70707E+02-3.37441E+03-1.31447E+03 2.86545E+01-6.49405E-08 1.21627E-07
 -1        21-9.10833E+02-3.23481E+03-1.25448E+03-1.53948E+02-1.04035E-07 4.91895E-08
 -1        22-6.27764E+02-2.04167E+03-8.06090E+02-3.48094E+02-1.01403E-07-7.79158E-08
 -1        23-2.42672E+02-3.29731E+02-1.72989E+02-3.55123E+02-2.67088E-08-1.58792E-07
 -1        24 3.46233E+01 9.06339E+02 2.80792E+02-1.70860E+02 4.61298E-08-1.33165E-07
 -1        25 9.74602E+01 1.18438E+03 3.82764E+02 2.52285E+01 6.18947E-08-3.59946E-08
 -1        26 3.16240E+01 7.99649E+02 2.48477E+02 9.60776E+01 2.29370E-08 3.82274E-08
 -1        27-4.84060E+01 3.01454E+02 7.56989E+01 7.10988E+01-1.59067E-08 2.29297E-08
 -1        28-1.04309E+02 3.79154E+00-3.01822E+01 3.16591E+01-1.70764E-08-1.48224E-08
 -1        29-1.43156E+02-7.14774E+01-6.44053E+01 1.04146E+00-1.29464E-08-7.34755E-09
 -1        30-9.05882E+01 1.22398E+01-2.35133E+01-1.11453E+01-1.45922E-08-3.72943E-08
 -1        31-2.92697E+01 1.16956E+02 2.62831E+01-1.16473E+01-3.08911E-08-4.18377E-08
 -1        32 9.24382E+02 6.30844E+03 2.12821E+03 9.33431E+02 3.95798E-08 6.22807E-08
 -1        33 8.66971E+02 4.27969E+03 1.52309E+03 5.86469E+02 2.96998E-08 8.70793E-08
 -1        34 3.26176E+02 2.10764E+03 7.23473E+02 5.10192E+02 1.40743E-08 7.96847E-08
 -1        35-1.01836E+02 2.93667E+02 5.60263E+01 4.13913E+02 9.96052E-09 1.07157E-07
 -1        36-4.71168E+02-1.16483E+03-4.92735E+02 2.94889E+02 1.77880E-08 1.06619E-07
 -1        37-7.19313E+02-2.15205E+03-8.65807E+02 1.44192E+02 1.73481E-08 1.52320E-07
 -1        38-8.80917E+02-2.85231E+03-1.12726E+03 8.35696E+01-1.80980E-08 1.75138E-07
 -1        39-9.70707E+02-3.37441E+03-1.31447E+03 2.86545E+01-6.49405E-08 1.21627E-07
 -1        40-9.10833E+02-3.23481E+03-1.25448E+03-1.53948E+02-1.04035E-07 4.91893E-08
 -1        41-6.27764E+02-2.04167E+03-8.06090E+02-3.48094E+02-1.01403E-07-7.79158E-08
 -1        42-2.42672E+02-3.29731E+02-1.72989E+02-3.55123E+02-2.67088E-08-1.58792E-07
 -1        43 3.46233E+01 9.06339E+02 2.80792E+02-1.70860E+02 4.61298E-08-1.33165E-07
 -1        44 9.74602E+01 1.18438E+03 3.82764E+02 2.52285E+01 6.18947E-08-3.59945E-08
 -1        45 3.16240E+01 7.99649E+02 2.48477E+02 9.60776E+01 2.29370E-08 3.82272E-08
 -1        46-4.84060E+01 3.01454E+02 7.56989E+01 7.10988E+01-1.59067E-08 2.29297E-08
 -1        47-1.04309E+02 3.79154E+00-3.01822E+01 3.16591E+01-1.70764E-08-1.48224E-08
 -1        48-1.43156E+02-7.14774E+01-6.44053E+01 1.04146E+00-1.29464E-08-7.34776E-09
 -1        49-9.05882E+01 1.22398E+01-2.35133E+01-1.11453E+01-1.45923E-08-3.72943E-08
 -1        50-2.92697E+01 1.16956E+02 2.62831E+01-1.16473E+01-3.08911E-08-4.18375E-08
 -1        51 1.28297E+01 2.19472E+02 6.96228E+01-2.83440E+01 1.98054E-08-4.24629E-08
 -1        52 2.09056E+01 3.43021E+02 1.09020E+02-2.58197E-01 3.01794E-08-3.42053E-08
 -1        53-1.35921E+01 4.65749E+02 1.35350E+02 1.34398E+01 3.20150E-08-3.10194E-08
 -1        54 5.01885E-01 4.82310E+02 1.44514E+02 3.58218E+01 2.01794E-08-1.13710E-08
 -1        55-8.04404E+01 2.12382E+02 3.94280E+01 7.70899E+01 5.32996E-09 9.12412E-09
 -1        56-1.95538E+02-2.57966E+02-1.36188E+02 1.06636E+02-3.24310E-08 2.81039E-08
 -1        57-2.91719E+02-6.22165E+02-2.74623E+02 3.74970E+01-4.78940E-08-5.31483E-08
 -1        58-1.89056E+02-3.20040E+02-1.53246E+02-1.62699E+02-2.60518E-08-1.08645E-07
 -1        59 7.96964E+01 9.26806E+02 2.99701E+02-3.61421E+02 2.16794E-08-1.74407E-07
 -1        60 4.44264E+02 2.70418E+03 9.35250E+02-3.59415E+02 7.77179E-08-6.93271E-08
 -1        61 6.82600E+02 3.99827E+03 1.38679E+03-1.32787E+02 8.74152E-08 5.60403E-08
 -1        62 7.60440E+02 4.25607E+03 1.48599E+03 9.96266E+01 6.20821E-08 1.49676E-07
 -1        63 6.62966E+02 3.82140E+03 1.33013E+03 1.85732E+02 1.65963E-08 1.89172E-07
 -1        64 4.95254E+02 3.17795E+03 1.09064E+03 2.52692E+02-3.14823E-08 1.57964E-07
 -1        65 2.50945E+02 2.18980E+03 7.25739E+02 3.73407E+02-3.96107E-08 1.08772E-07
 -1        66-6.47548E+01 7.07221E+02 1.90578E+02 4.16621E+02-2.81644E-08 7.70090E-08
 -1        67-4.69113E+02-1.14703E+03-4.87466E+02 4.26474E+02-2.02564E-08 9.88408E-08
 -1        68-1.12032E+03-3.38042E+03-1.36252E+03 4.33772E+02-2.20482E-08 8.78432E-08
 -1        69-1.13470E+03-5.34956E+03-1.97453E+03 6.98616E+02-2.65924E-08 5.50453E-08
 -1        70 1.28297E+01 2.19472E+02 6.96228E+01-2.83440E+01 1.98054E-08-4.24629E-08
 -1        71 2.09056E+01 3.43021E+02 1.09020E+02-2.58197E-01 3.01794E-08-3.42053E-08
 -1        72-1.35921E+01 4.65749E+02 1.35350E+02 1.34398E+01 3.20150E-08-3.10195E-08
 -1        73 5.01885E-01 4.82310E+02 1.44514E+02 3.58218E+01 2.01794E-08-1.13700E-08
 -1        74-8.04404E+01 2.12382E+02 3.94280E+01 7.70899E+01 5.32990E-09 9.12387E-09
 -1        75-1.95538E+02-2.57966E+02-1.36188E+02 1.06636E+02-3.24310E-08 2.81038E-08
 -1        76-2.91719E+02-6.22165E+02-2.74623E+02 3.74970E+01-4.78940E-08-5.31487E-08
 -1        77-1.89056E+02-3.20040E+02-1.53246E+02-1.62699E+02-2.60518E-08-1.08644E-07
 -1        78 7.96964E+01 9.26805E+02 2.99701E+02-3.61421E+02 2.16794E-08-1.74407E-07
 -1        79 4.44264E+02 2.70418E+03 9.35250E+02-3.59415E+02 7.77179E-08-6.93259E-08
 -1        80 6.82600E+02 3.99827E+03 1.38679E+03-1.32787E+02 8.74152E-08 5.60390E-08
 -1        81 7.60440E+02 4.25607E+03 1.48599E+03 9.96266E+01 6.20821E-08 1.49676E-07
 -1        82 6.62966E+02 3.82140E+03 1.33013E+03 1.85732E+02 1.65963E-08 1.89172E-07
 -1        83 4.95254E+02 3.17795E+03 1.09064E+03 2.52692E+02-3.14823E-08 1.57964E-07
 -1        84 2.50945E+02 2.18980E+03 7.25739E+02 3.73407E+02-3.96107E-08 1.08774E-07
 -1        85-6.47548E+01 7.07221E+02 1.90578E+02 4.16621E+02-2.81644E-08 7.70079E-08
 -1        86-4.69113E+02-1.14703E+03-4.87466E+02 4.26474E+02-2.02564E-08 9.88409E-08
 -1        87-1.12032E+03-3.38042E+03-1.36252E+03 4.33772E+02-2.20482E-08 8.78432E-08
 -1        88-1.13470E+03-5.34956E+03-1.97453E+03 6.98616E+02-2.65924E-08 5.50453E-08
 -1        89-9.16072E+01 3.56949E+02 8.04968E+01 7.00010E+02 6.30307E-09 4.85156E-08
 -1        90-8.25137E+01 4.49169E+02 1.10697E+02 7.13833E+02 2.12705E-09 9.48414E-08
 -1        91-6.22409E+01 4.57784E+02 1.17738E+02 5.93137E+02-9.35239E-09 8.49864E-08
 -1        92-7.69318E+01 4.84824E+02 1.21136E+02 5.29989E+02-9.77561E-09 9.45717E-08
 -1        93-9.74162E+01 5.10927E+02 1.23139E+02 4.15212E+02-3.02220E-09 1.04998E-07
 -1        94-1.00971E+02 4.99568E+02 1.19525E+02 2.50230E+02-3.35631E-09 1.62806E-07
 -1        95-1.03299E+02 4.46203E+02 1.03902E+02 1.74640E+02 5.59291E-10 1.89566E-07
 -1        96-9.98745E+01 3.90623E+02 8.81256E+01 7.99839E+01-4.00373E-09 1.50409E-07
 -1        97-1.06480E+02 3.42838E+02 7.09342E+01-1.93995E+02-1.41769E-08 5.81714E-08
 -1        98-8.64845E+01 3.10114E+02 6.66337E+01-4.66348E+02-1.41385E-08-8.66587E-08
 -1        99-8.19978E+01 2.84144E+02 5.99865E+01-4.68490E+02 3.36304E-10-1.82056E-07
 -1       100-7.86652E+01 2.83843E+02 6.09952E+01-2.19183E+02 7.43020E-09-1.33090E-07
 -1       101-9.34460E+01 2.86147E+02 5.75445E+01 3.80264E+01-3.64453E-09-4.36128E-08
 -1       102-7.79572E+01 2.79118E+02 6.01993E+01 1.34456E+02-5.14387E-09 4.31408E-08
 -1       103-6.75159E+01 2.49809E+02 5.45478E+01 1.02605E+02 2.64396E-09 2.22631E-08
 -1       104-5.43608E+01 2.37165E+02 5.47274E+01 4.30511E+01-1.31169E-10-9.03108E-09
 -1       105-7.14012E+01 2.12965E+02 4.23867E+01 1.06459E+00 3.06336E-09-1.49762E-08
 -1       106-2.31492E+01 2.04601E+02 5.43772E+01-1.43826E+01 8.37938E-09-3.80795E-08
 -1       107 2.08902E+01 2.36124E+02 7.70317E+01-2.38787E+01-1.35217E-08-4.24016E-08
 -1       108 2.08902E+01 2.36124E+02 7.70317E+01-2.38787E+01-1.35217E-08-4.24021E-08
 -1       109-2.31492E+01 2.04601E+02 5.43772E+01-1.43826E+01 8.37939E-09-3.80794E-08
 -1       110-7.14012E+01 2.12965E+02 4.23867E+01 1.06459E+00 3.06337E-09-1.49761E-08
 -1       111-5.43608E+01 2.37165E+02 5.47274E+01 4.30511E+01-1.31134E-10-9.03147E-09
 -1       112-6.75159E+01 2.49809E+02 5.45478E+01 1.02605E+02 2.64392E-09 2.22632E-08
 -1       113-7.79572E+01 2.79118E+02 6.01993E+01 1.34456E+02-5.14387E-09 4.31411E-08
 -1       114-9.34460E+01 2.86147E+02 5.75445E+01 3.80264E+01-3.64452E-09-4.36133E-08
 -1       115-7.86652E+01 2.83843E+02 6.09952E+01-2.19183E+02 7.43016E-09-1.33090E-07
 -1       116-8.19978E+01 2.84144E+02 5.99865E+01-4.68490E+02 3.36310E-10-1.82056E-07
 -1       117-8.64845E+01 3.10114E+02 6.66337E+01-4.66348E+02-1.41385E-08-8.66590E-08
 -1       118-1.06480E+02 3.42838E+02 7.09342E+01-1.93995E+02-1.41769E-08 5.81721E-08
 -1       119-9.98745E+01 3.90623E+02 8.81256E+01 7.99839E+01-4.00373E-09 1.50409E-07
 -1       120-1.03299E+02 4.46203E+02 1.03902E+02 1.74640E+02 5.59297E-10 1.89566E-07
 -1       121-1.00971E+02 4.99568E+02 1.19525E+02 2.50230E+02-3.35631E-09 1.62808E-07
 -1       122-9.74162E+01 5.10927E+02 1.23139E+02 4.15212E+02-3.02219E-09 1.04998E-07
 -1       123-7.69318E+01 4.84824E+02 1.21136E+02 5.29989E+02-9.77559E-09 9.45723E-08
 -1       124-6.22409E+01 4.57784E+02 1.17738E+02 5.93137E+02-9.35239E-09 8.49864E-08
 -1       125-8.25137E+01 4.49169E+02 1.10697E+02 7.13833E+02 2.12706E-09 9.48414E-08
 -1       126-9.16072E+01 3.56949E+02 8.04968E+01 7.00010E+02 6.30307E-09 4.85157E-08
 -3
    1PSTEP                        39          10           1          
  100CL  110 1.00000E-01         126                     1   10           1
 -4  TOSTRAIN    6    1
 -5  EXX         1    4    1    1
 -5  EYY         1    4    2    2
 -5  EZZ         1    4    3    3
 -5  EXY         1    4    1    2
 -5  EYZ         1    4    2    3
 -5  EZX         1    4    3    1
 -1         1-1.87419E-05 1.54337E-02-1.80173E-26 8.00157E-03-1.08019E-18 4.34903E-16
 -1         2-1.87419E-05 1.54337E-02-1.80173E-26 8.00157E-03-1.08019E-18 4.34903E-16
 -1         3-1.59958E-04 3.67099E-04 1.94762E-25 3.77157E-05-1.62128E-13-2.75436E-13
 -1         4-1.59958E-04 3.67099E-04 1.94762E-25 3.77157E-05-1.62128E-13-2.75436E-13
 -1         5-1.31842E-04 3.81905E-04 7.74751E-26-2.32577E-04 5.58571E-14-2.01062E-13
 -1         6-1.31842E-04 3.81905E-04 7.74752E-26-2.32577E-04 5.58575E-14-2.01062E-13
 -1         7-1.73380E-05-1.32370E-02-1.26800E-26 7.18930E-03 3.01979E-19-2.89582E-16
 -1         8-1.73380E-05-1.32370E-02-1.26800E-26 7.18930E-03 3.02056E-19-2.89576E-16
 -1         9-1.45900E-04 5.75309E-04 1.17963E-25-1.05579E-04-1.00345E-13-2.31077E-13
 -1        10-1.45900E-04 5.75309E-04 1.17963E-25-1.05579E-04-1.00345E-13-2.31077E-13
 -1        11-1.80400E-05 8.21933E-04-7.72757E-27 5.92639E-03-3.38495E-19 6.59019E-17
 -1        12-1.80400E-05 8.21933E-04-7.72757E-27 5.92639E-03-3.38640E-19 6.58901E-17
 -1        13-4.05105E-03 1.33347E-02 9.79907E-26 2.69542E-03 1.29270E-13 1.99653E-13
 -1        14-2.24421E-03 8.88230E-03 1.73303E-25 1.59711E-03 1.02291E-13 2.79888E-13
 -1        15-1.39645E-03 4.54261E-03 1.34471E-25 1.46596E-03 5.31632E-14 2.57282E-13
 -1        16-6.02602E-04 8.47721E-04 2.41622E-25 1.29898E-03 4.31154E-14 3.47140E-13
 -1        17 3.28393E-06-2.13461E-03 2.41775E-25 1.02521E-03 6.80060E-14 3.44923E-13
 -1        18 4.39410E-04-4.18167E-03 4.88971E-25 5.85319E-04 6.87222E-14 4.94177E-13
 -1        19 7.78106E-04-5.64638E-03 6.42896E-25 3.90790E-04-4.89766E-14 5.71155E-13
 -1        20 1.09471E-03-6.76827E-03 3.68013E-25 1.76208E-04-2.08801E-13 3.98279E-13
 -1        21 1.09458E-03-6.50992E-03 2.16101E-25-4.88255E-04-3.40751E-13 1.60595E-13
 -1        22 5.55458E-04-4.03769E-03 2.74610E-25-1.15898E-03-3.30331E-13-2.55718E-13
 -1        23-2.48892E-04-4.97946E-04 5.15508E-25-1.15932E-03-8.31089E-14-5.17213E-13
 -1        24-8.12456E-04 2.03089E-03 3.88203E-25-5.34804E-04 1.52470E-13-4.31670E-13
 -1        25-9.29875E-04 2.59073E-03 6.35605E-26 9.87939E-05 2.01042E-13-1.16058E-13
 -1        26-7.03966E-04 1.78195E-03 2.47599E-26 3.18888E-04 7.39692E-14 1.24448E-13
 -1        27-4.02561E-04 7.30863E-04 1.03466E-26 2.33505E-04-5.18533E-14 7.44233E-14
 -1        28-2.40653E-04 1.09862E-04 7.09257E-27 1.03822E-04-5.53471E-14-4.83428E-14
 -1        29-2.56244E-04-2.28224E-05 1.94258E-27 4.25916E-06-4.19910E-14-2.40429E-14
 -1        30-2.18429E-04 1.16534E-04 3.00021E-26-3.47940E-05-4.69172E-14-1.21438E-13
 -1        31-1.80932E-04 2.94835E-04 5.17781E-26-3.57344E-05-9.97649E-14-1.36435E-13
 -1        32-4.05105E-03 1.33347E-02 9.79907E-26 2.69542E-03 1.29270E-13 1.99653E-13
 -1        33-2.24421E-03 8.88230E-03 1.73303E-25 1.59711E-03 1.02291E-13 2.79888E-13
 -1        34-1.39645E-03 4.54261E-03 1.34471E-25 1.46596E-03 5.31632E-14 2.57282E-13
 -1        35-6.02602E-04 8.47721E-04 2.41621E-25 1.29898E-03 4.31154E-14 3.47139E-13
 -1        36 3.28393E-06-2.13461E-03 2.41775E-25 1.02521E-03 6.80060E-14 3.44923E-13
 -1        37 4.39410E-04-4.18167E-03 4.88968E-25 5.85319E-04 6.87226E-14 4.94176E-13
 -1        38 7.78106E-04-5.64638E-03 6.42890E-25 3.90790E-04-4.89768E-14 5.71152E-13
 -1        39 1.09471E-03-6.76827E-03 3.68013E-25 1.76208E-04-2.08801E-13 3.98279E-13
 -1        40 1.09458E-03-6.50992E-03 2.16101E-25-4.88255E-04-3.40751E-13 1.60595E-13
 -1        41 5.55458E-04-4.03769E-03 2.74610E-25-1.15898E-03-3.30331E-13-2.55718E-13
 -1        42-2.48892E-04-4.97946E-04 5.15508E-25-1.15932E-03-8.31089E-14-5.17213E-13
 -1        43-8.12456E-04 2.03089E-03 3.88203E-25-5.34804E-04 1.52471E-13-4.31670E-13
 -1        44-9.29875E-04 2.59073E-03 6.35605E-26 9.87939E-05 2.01042E-13-1.16058E-13
 -1        45-7.03966E-04 1.78195E-03 2.47597E-26 3.18888E-04 7.39692E-14 1.24447E-13
 -1        46-4.02561E-04 7.30863E-04 1.03465E-26 2.33505E-04-5.18532E-14 7.44231E-14
 -1        47-2.40653E-04 1.09862E-04 7.09258E-27 1.03822E-04-5.53472E-14-4.83428E-14
 -1        48-2.56244E-04-2.28224E-05 1.94272E-27 4.25916E-06-4.19911E-14-2.40436E-14
 -1        49-2.18429E-04 1.16534E-04 3.00022E-26-3.47940E-05-4.69172E-14-1.21438E-13
 -1        50-1.80932E-04 2.94835E-04 5.17777E-26-3.57344E-05-9.97648E-14-1.36434E-13
 -1        51-1.85410E-04 4.87205E-04 4.16032E-26-8.92090E-05 6.48996E-14-1.37728E-13
 -1        52-2.86495E-04 7.59147E-04 4.20330E-26 3.33189E-06 9.84362E-14-1.10776E-13
 -1        53-4.84126E-04 1.07096E-03 3.73303E-26 4.91191E-05 1.04279E-13-1.00466E-13
 -1        54-4.67920E-04 1.09451E-03 7.98459E-27 1.20822E-04 6.56038E-14-3.67806E-14
 -1        55-3.88790E-04 5.59805E-04-2.16588E-27 2.52808E-04 1.72329E-14 2.97011E-14
 -1        56-1.91547E-04-3.98220E-04 2.07428E-26 3.46136E-04-1.05772E-13 9.11282E-14
 -1        57-5.72476E-05-1.13193E-03 8.32853E-26 1.16623E-04-1.55089E-13-1.73555E-13
 -1        58-1.27647E-04-5.35766E-04 2.41685E-25-5.30550E-04-8.23150E-14-3.53916E-13
 -1        59-7.37706E-04 2.04040E-03 6.16936E-25-1.14653E-03 7.43514E-14-5.66171E-13
 -1        60-1.62204E-03 5.69000E-03 1.43990E-25-1.12470E-03 2.51664E-13-2.23562E-13
 -1        61-2.31533E-03 8.35207E-03 1.43704E-25-4.50798E-04 2.81527E-13 1.81544E-13
 -1        62-2.38853E-03 8.85902E-03 5.16293E-25 2.00649E-04 2.04558E-13 4.83745E-13
 -1        63-2.20173E-03 7.99126E-03 7.52302E-25 4.10886E-04 6.43592E-14 6.13207E-13
 -1        64-1.98470E-03 6.72852E-03 5.37625E-25 6.00262E-04-8.90812E-14 5.15570E-13
 -1        65-1.61975E-03 4.77378E-03 2.73252E-25 1.01933E-03-1.17752E-13 3.57318E-13
 -1        66-9.18921E-04 1.74791E-03 1.38061E-25 1.26864E-03-8.35227E-14 2.53341E-13
 -1        67-3.45377E-05-2.07173E-03 2.14230E-25 1.45676E-03-5.63962E-14 3.23562E-13
 -1        68 6.91705E-04-6.56673E-03 1.70306E-25 1.61378E-03-6.52471E-14 2.88003E-13
 -1        69 2.61629E-03-1.11210E-02 6.78681E-26 2.52923E-03-8.52101E-14 1.80807E-13
 -1        70-1.85410E-04 4.87205E-04 4.16032E-26-8.92090E-05 6.48997E-14-1.37728E-13
 -1        71-2.86495E-04 7.59147E-04 4.20330E-26 3.33189E-06 9.84362E-14-1.10776E-13
 -1        72-4.84126E-04 1.07096E-03 3.73303E-26 4.91191E-05 1.04279E-13-1.00466E-13
 -1        73-4.67920E-04 1.09451E-03 7.98432E-27 1.20822E-04 6.56038E-14-3.67774E-14
 -1        74-3.88790E-04 5.59805E-04-2.16583E-27 2.52808E-04 1.72328E-14 2.97003E-14
 -1        75-1.91547E-04-3.98220E-04 2.07429E-26 3.46136E-04-1.05772E-13 9.11278E-14
 -1        76-5.72476E-05-1.13193E-03 8.32872E-26 1.16623E-04-1.55089E-13-1.73556E-13
 -1        77-1.27647E-04-5.35766E-04 2.41679E-25-5.30550E-04-8.23149E-14-3.53913E-13
 -1        78-7.37706E-04 2.04040E-03 6.16939E-25-1.14653E-03 7.43514E-14-5.66172E-13
 -1        79-1.62204E-03 5.69000E-03 1.43989E-25-1.12470E-03 2.51664E-13-2.23558E-13
 -1        80-2.31533E-03 8.35207E-03 1.43703E-25-4.50798E-04 2.81527E-13 1.81540E-13
 -1        81-2.38853E-03 8.85902E-03 5.16292E-25 2.00649E-04 2.04558E-13 4.83745E-13
 -1        82-2.20173E-03 7.99126E-03 7.52306E-25 4.10886E-04 6.43592E-14 6.13209E-13
 -1        83-1.98470E-03 6.72852E-03 5.37622E-25 6.00262E-04-8.90812E-14 5.15568E-13
 -1        84-1.61975E-03 4.77378E-03 2.73258E-25 1.01933E-03-1.17752E-13 3.57323E-13
 -1        85-9.18921E-04 1.74791E-03 1.38057E-25 1.26864E-03-8.35229E-14 2.53338E-13
 -1        86-3.45377E-05-2.07173E-03 2.14230E-25 1.45676E-03-5.63962E-14 3.23562E-13
 -1        87 6.91705E-04-6.56673E-03 1.70306E-25 1.61378E-03-6.52471E-14 2.88003E-13
 -1        88 2.61629E-03-1.11210E-02 6.78681E-26 2.52923E-03-8.52101E-14 1.80807E-13
 -1        89-7.17381E-04 1.05061E-03 3.87796E-26 2.24695E-03 2.27238E-14 1.57340E-13
 -1        90-7.76251E-04 1.24710E-03 1.83931E-25 2.26806E-03 1.44703E-14 3.08062E-13
 -1        91-7.15492E-04 1.22380E-03 1.53140E-25 1.86792E-03-2.20725E-14 2.77183E-13
 -1        92-7.60761E-04 1.28536E-03 1.89437E-25 1.65695E-03-2.21827E-14 3.08419E-13
 -1        93-8.08232E-04 1.34048E-03 2.24636E-25 1.28571E-03 3.14341E-17 3.41570E-13
 -1        94-7.72646E-04 1.28727E-03 5.52656E-25 7.62414E-04 1.87864E-15 5.29497E-13
 -1        95-7.11814E-04 1.15667E-03 7.56643E-25 5.33262E-04 1.29266E-14 6.16250E-13
 -1        96-6.46910E-04 1.02179E-03 4.46743E-25 2.42154E-04-7.74295E-15 4.89180E-13
 -1        97-6.10379E-04 9.11454E-04-8.52245E-27-6.32737E-04-4.54733E-14 1.89193E-13
 -1        98-5.33290E-04 8.18726E-04 8.25008E-26-1.50696E-03-4.46695E-14-2.82072E-13
 -1        99-4.93299E-04 7.52487E-04 6.79962E-25-1.51074E-03 5.39944E-15-5.91856E-13
 -1       100-4.70052E-04 7.34146E-04 3.53033E-25-7.02863E-04 2.70824E-14-4.32475E-13
 -1       101-4.93561E-04 7.42586E-04 2.28592E-27 1.29267E-04-1.11578E-14-1.41841E-13
 -1       102-4.47756E-04 7.08495E-04 2.33937E-26 4.39860E-04-1.71578E-14 1.40216E-13
 -1       103-3.95675E-04 6.32067E-04 7.61444E-27 3.35624E-04 8.39463E-15 7.23920E-14
 -1       104-3.54286E-04 5.91462E-04-1.25715E-27 1.42527E-04-3.34860E-16-2.93591E-14
 -1       105-3.70185E-04 5.53856E-04 1.54164E-27 6.78737E-06 1.01318E-14-4.86519E-14
 -1       106-2.52462E-04 4.88131E-04 2.85876E-26-4.36561E-05 2.77240E-14-1.23660E-13
 -1       107-1.83171E-04 5.17083E-04 3.66148E-26-7.44936E-05-4.33266E-14-1.38000E-13
 -1       108-1.83171E-04 5.17083E-04 3.66156E-26-7.44936E-05-4.33268E-14-1.38001E-13
 -1       109-2.52462E-04 4.88131E-04 2.85874E-26-4.36561E-05 2.77240E-14-1.23660E-13
 -1       110-3.70185E-04 5.53856E-04 1.54154E-27 6.78737E-06 1.01319E-14-4.86514E-14
 -1       111-3.54286E-04 5.91462E-04-1.25705E-27 1.42527E-04-3.34740E-16-2.93604E-14
 -1       112-3.95675E-04 6.32067E-04 7.61450E-27 3.35624E-04 8.39451E-15 7.23926E-14
 -1       113-4.47756E-04 7.08495E-04 2.33936E-26 4.39860E-04-1.71578E-14 1.40216E-13
 -1       114-4.93561E-04 7.42586E-04 2.28651E-27 1.29267E-04-1.11578E-14-1.41843E-13
 -1       115-4.70052E-04 7.34146E-04 3.53034E-25-7.02863E-04 2.70823E-14-4.32475E-13
 -1       116-4.93299E-04 7.52487E-04 6.79962E-25-1.51074E-03 5.39946E-15-5.91856E-13
 -1       117-5.33290E-04 8.18726E-04 8.25008E-26-1.50696E-03-4.46696E-14-2.82073E-13
 -1       118-6.10379E-04 9.11454E-04-8.52185E-27-6.32737E-04-4.54733E-14 1.89195E-13
 -1       119-6.46910E-04 1.02179E-03 4.46744E-25 2.42154E-04-7.74294E-15 4.89180E-13
 -1       120-7.11814E-04 1.15667E-03 7.56639E-25 5.33262E-04 1.29266E-14 6.16248E-13
 -1       121-7.72646E-04 1.28727E-03 5.52665E-25 7.62414E-04 1.87873E-15 5.29501E-13
 -1       122-8.08232E-04 1.34048E-03 2.24635E-25 1.28571E-03 3.14547E-17 3.41570E-13
 -1       123-7.60761E-04 1.28536E-03 1.89439E-25 1.65695E-03-2.21826E-14 3.08421E-13
 -1       124-7.15492E-04 1.22380E-03 1.53139E-25 1.86792E-03-2.20725E-14 2.77183E-13
 -1       125-7.76251E-04 1.24710E-03 1.83931E-25 2.26806E-03 1.44703E-14 3.08062E-13
 -1       126-7.17381E-04 1.05061E-03 3.87797E-26 2.24695E-03 2.27238E-14 1.57340E-13
 -3
    1PSTEP                        40          10           1          
  100CL  110 1.00000E-01         126                     1   10           1
 -4  ERROR       1    1
 -5  STR(%)      1    1    0    0
 -1         1 6.06262E+01
 -1         2 6.06262E+01
 -1         3 1.45720E+01
 -1         4 1.45720E+01
 -1         5 1.53039E+01
 -1         6 1.53039E+01
 -1         7 6.68835E+01
 -1         8 6.68835E+01
 -1         9 1.53039E+01
 -1        10 1.53039E+01
 -1        11 6.68835E+01
 -1        12 6.68835E+01
 -1        13 6.06262E+01
 -1        14 5.14117E+01
 -1        15 4.34061E+01
 -1        16 6.84822E+01
 -1        17 7.71904E+01
 -1        18 7.89943E+01
 -1        19 7.89943E+01
 -1        20 7.36331E+01
 -1        21 6.96237E+01
 -1        22 6.96237E+01
 -1        23 4.12731E+01
 -1        24 4.24189E+01
 -1        25 4.24189E+01
 -1        26 3.80016E+01
 -1        27 3.83155E+01
 -1        28 8.16917E+01
 -1        29 8.16917E+01
 -1        30 7.14045E+01
 -1        31 2.69141E+01
 -1        32 6.06262E+01
 -1        33 5.14117E+01
 -1        34 4.34061E+01
 -1        35 6.84822E+01
 -1        36 7.71904E+01
 -1        37 7.89943E+01
 -1        38 7.89943E+01
 -1        39 7.36331E+01
 -1        40 6.96237E+01
 -1        41 6.96237E+01
 -1        42 4.12731E+01
 -1        43 4.24189E+01
 -1        44 4.24189E+01
 -1        45 3.80016E+01
 -1        46 3.83155E+01
 -1        47 8.16917E+01
 -1        48 8.16917E+01
 -1        49 7.14045E+01
 -1        50 2.69141E+01
 -1        51 1.53039E+01
 -1        52 2.54701E+01
 -1        53 2.65271E+01
 -1        54 2.65271E+01
 -1        55 4.75252E+01
 -1        56 6.91647E+01
 -1        57 7.77938E+01
 -1        58 7.77938E+01
 -1        59 3.53886E+01
 -1        60 5.30603E+01
 -1        61 5.30603E+01
 -1        62 5.32002E+01
 -1        63 5.32002E+01
 -1        64 5.01570E+01
 -1        65 4.56419E+01
 -1        66 4.73090E+01
 -1        67 5.83684E+01
 -1        68 6.52548E+01
 -1        69 6.68835E+01
 -1        70 1.53039E+01
 -1        71 2.54701E+01
 -1        72 2.65271E+01
 -1        73 2.65271E+01
 -1        74 4.75252E+01
 -1        75 6.91647E+01
 -1        76 7.77938E+01
 -1        77 7.77938E+01
 -1        78 3.53886E+01
 -1        79 5.30603E+01
 -1        80 5.30603E+01
 -1        81 5.32002E+01
 -1        82 5.32002E+01
 -1        83 5.01570E+01
 -1        84 4.56419E+01
 -1        85 4.73090E+01
 -1        86 5.83684E+01
 -1        87 6.52548E+01
 -1        88 6.68835E+01
 -1        89 6.68835E+01
 -1        90 6.52548E+01
 -1        91 5.83684E+01
 -1        92 6.84822E+01
 -1        93 7.71904E+01
 -1        94 7.89943E+01
 -1        95 7.89943E+01
 -1        96 7.36331E+01
 -1        97 6.96237E+01
 -1        98 6.96237E+01
 -1        99 4.12731E+01
 -1       100 7.77938E+01
 -1       101 7.77938E+01
 -1       102 6.91647E+01
 -1       103 4.75252E+01
 -1       104 8.16917E+01
 -1       105 8.16917E+01
 -1       106 7.14045E+01
 -1       107 2.69141E+01
 -1       108 2.69141E+01
 -1       109 7.14045E+01
 -1       110 8.16917E+01
 -1       111 8.16917E+01
 -1       112 4.75252E+01
 -1       113 6.91647E+01
 -1       114 7.77938E+01
 -1       115 7.77938E+01
 -1       116 4.12731E+01
 -1       117 6.96237E+01
 -1       118 6.96237E+01
 -1       119 7.36331E+01
 -1       120 7.89943E+01
 -1       121 7.89943E+01
 -1       122 7.71904E+01
 -1       123 6.84822E+01
 -1       124 5.83684E+01
 -1       125 6.52548E+01
 -1       126 6.68835E+01
 -3
    1PSTEP                        41          11           1          
  100CL  111 1.10000E-01         126                     1   11           1
 -4  DISP        4    1
 -5  D1          1    2    1    0
 -5  D2          1    2    2    0
 -5  D3          1    2    3    0
 -5  ALL         1    2    0    0    1ALL
 -1         1 0.00000E+00 0.00000E+00 0.00000E+00
 -1         2 0.00000E+00 0.00000E+00 0.00000E+00
 -1         3 9.18604E-03 5.36808E-04 0.00000E+00
 -1         4 9.18604E-03 5.36808E-04 0.00000E+00
 -1         5 9.19339E-03 9.96085E-04 0.00000E+00
 -1         6 9.19339E-03 9.96085E-04 0.00000E+00
 -1         7 0.00000E+00 0.00000E+00 0.00000E+00
 -1         8 0.00000E+00 0.00000E+00 0.00000E+00
 -1         9 9.18598E-03 7.77997E-04 0.00000E+00
 -1        10 9.18598E-03 7.77997E-04 0.00000E+00
 -1        11 0.00000E+00 0.00000E+00 0.00000E+00
 -1        12 0.00000E+00 0.00000E+00 0.00000E+00
 -1        13 8.40757E-04 8.26114E-04 0.00000E+00
 -1        14 2.11225E-03 1.43424E-03 0.00000E+00
 -1        15 3.79434E-03 1.78835E-03 0.00000E+00
 -1        16 5.63251E-03 1.93461E-03 0.00000E+00
 -1        17 7.44621E-03 1.90283E-03 0.00000E+00
 -1        18 9.08973E-03 1.72912E-03 0.00000E+00
 -1        19 1.04108E-02 1.46422E-03 0.00000E+00
 -1        20 1.13750E-02 1.15428E-03 0.00000E+00
 -1        21 1.19806E-02 8.01675E-04 0.00000E+00
 -1        22 1.21255E-02 4.32724E-04 0.00000E+00
 -1        23 1.17873E-02 1.56455E-04 0.00000E+00
 -1        24 1.11841E-02 7.47820E-05 0.00000E+00
 -1        25 1.06243E-02 1.71956E-04 0.00000E+00
 -1        26 1.02753E-02 3.34483E-04 0.00000E+00
 -1        27 1.01032E-02 4.57981E-04 0.00000E+00
 -1        28 9.98280E-03 5.11919E-04 0.00000E+00
 -1        29 9.83207E-03 5.23018E-04 0.00000E+00
 -1        30 9.64784E-03 5.23020E-04 0.00000E+00
 -1        31 9.42607E-03 5.27917E-04 0.00000E+00
 -1        32 8.40757E-04 8.26114E-04 0.00000E+00
 -1        33 2.11225E-03 1.43424E-03 0.00000E+00
 -1        34 3.79434E-03 1.78835E-03 0.00000E+00
 -1        35 5.63251E-03 1.93461E-03 0.00000E+00
 -1        36 7.44621E-03 1.90283E-03 0.00000E+00
 -1        37 9.08973E-03 1.72912E-03 0.00000E+00
 -1        38 1.04108E-02 1.46422E-03 0.00000E+00
 -1        39 1.13750E-02 1.15428E-03 0.00000E+00
 -1        40 1.19806E-02 8.01675E-04 0.00000E+00
 -1        41 1.21255E-02 4.32724E-04 0.00000E+00
 -1        42 1.17873E-02 1.56455E-04 0.00000E+00
 -1        43 1.11841E-02 7.47820E-05 0.00000E+00
 -1        44 1.06243E-02 1.71956E-04 0.00000E+00
 -1        45 1.02753E-02 3.34483E-04 0.00000E+00
 -1        46 1.01032E-02 4.57981E-04 0.00000E+00
 -1        47 9.98280E-03 5.11919E-04 0.00000E+00
 -1        48 9.83207E-03 5.23018E-04 0.00000E+00
 -1        49 9.64784E-03 5.23020E-04 0.00000E+00
 -1        50 9.42607E-03 5.27917E-04 0.00000E+00
 -1        51 9.42663E-03 9.76775E-04 0.00000E+00
 -1        52 9.65344E-03 9.30200E-04 0.00000E+00
 -1        53 9.83575E-03 8.79143E-04 0.00000E+00
 -1        54 9.97800E-03 8.39806E-04 0.00000E+00
 -1        55 1.00968E-02 8.34845E-04 0.00000E+00
 -1        56 1.02666E-02 8.91828E-04 0.00000E+00
 -1        57 1.06078E-02 9.84819E-04 0.00000E+00
 -1        58 1.11628E-02 1.01170E-03 0.00000E+00
 -1        59 1.17675E-02 8.57419E-04 0.00000E+00
 -1        60 1.21070E-02 5.04109E-04 0.00000E+00
 -1        61 1.19587E-02 5.70258E-05 0.00000E+00
 -1        62 1.13402E-02-3.71887E-04 0.00000E+00
 -1        63 1.03539E-02-7.61305E-04 0.00000E+00
 -1        64 9.00784E-03-1.10897E-03 0.00000E+00
 -1        65 7.34742E-03-1.36270E-03 0.00000E+00
 -1        66 5.52529E-03-1.47424E-03 0.00000E+00
 -1        67 3.68430E-03-1.41842E-03 0.00000E+00
 -1        68 2.01572E-03-1.17645E-03 0.00000E+00
 -1        69 7.70079E-04-6.95453E-04 0.00000E+00
 -1        70 9.42663E-03 9.76775E-04 0.00000E+00
 -1        71 9.65344E-03 9.30200E-04 0.00000E+00
 -1        72 9.83575E-03 8.79143E-04 0.00000E+00
 -1        73 9.97800E-03 8.39806E-04 0.00000E+00
 -1        74 1.00968E-02 8.34845E-04 0.00000E+00
 -1        75 1.02666E-02 8.91828E-04 0.00000E+00
 -1        76 1.06078E-02 9.84819E-04 0.00000E+00
 -1        77 1.11628E-02 1.01170E-03 0.00000E+00
 -1        78 1.17675E-02 8.57419E-04 0.00000E+00
 -1        79 1.21070E-02 5.04109E-04 0.00000E+00
 -1        80 1.19587E-02 5.70258E-05 0.00000E+00
 -1        81 1.13402E-02-3.71887E-04 0.00000E+00
 -1        82 1.03539E-02-7.61305E-04 0.00000E+00
 -1        83 9.00784E-03-1.10897E-03 0.00000E+00
 -1        84 7.34742E-03-1.36270E-03 0.00000E+00
 -1        85 5.52529E-03-1.47424E-03 0.00000E+00
 -1        86 3.68430E-03-1.41842E-03 0.00000E+00
 -1        87 2.01572E-03-1.17645E-03 0.00000E+00
 -1        88 7.70079E-04-6.95453E-04 0.00000E+00
 -1        89 6.11064E-04 6.39835E-05 0.00000E+00
 -1        90 1.96656E-03 1.31223E-04 0.00000E+00
 -1        91 3.68451E-03 1.88110E-04 0.00000E+00
 -1        92 5.56561E-03 2.32164E-04 0.00000E+00
 -1        93 7.41735E-03 2.70180E-04 0.00000E+00
 -1        94 9.09073E-03 3.10011E-04 0.00000E+00
 -1        95 1.04424E-02 3.51843E-04 0.00000E+00
 -1        96 1.14260E-02 3.91533E-04 0.00000E+00
 -1        97 1.20466E-02 4.29497E-04 0.00000E+00
 -1        98 1.21829E-02 4.69008E-04 0.00000E+00
 -1        99 1.18149E-02 5.07707E-04 0.00000E+00
 -1       100 1.11666E-02 5.44129E-04 0.00000E+00
 -1       101 1.05814E-02 5.80089E-04 0.00000E+00
 -1       102 1.02314E-02 6.14508E-04 0.00000E+00
 -1       103 1.00787E-02 6.47064E-04 0.00000E+00
 -1       104 9.97175E-03 6.78238E-04 0.00000E+00
 -1       105 9.83019E-03 7.04670E-04 0.00000E+00
 -1       106 9.64538E-03 7.28779E-04 0.00000E+00
 -1       107 9.42304E-03 7.55251E-04 0.00000E+00
 -1       108 9.42304E-03 7.55251E-04 0.00000E+00
 -1       109 9.64538E-03 7.28779E-04 0.00000E+00
 -1       110 9.83019E-03 7.04670E-04 0.00000E+00
 -1       111 9.97175E-03 6.78238E-04 0.00000E+00
 -1       112 1.00787E-02 6.47064E-04 0.00000E+00
 -1       113 1.02314E-02 6.14508E-04 0.00000E+00
 -1       114 1.05814E-02 5.80089E-04 0.00000E+00
 -1       115 1.11666E-02 5.44129E-04 0.00000E+00
 -1       116 1.18149E-02 5.07707E-04 0.00000E+00
 -1       117 1.21829E-02 4.69008E-04 0.00000E+00
 -1       118 1.20466E-02 4.29497E-04 0.00000E+00
 -1       119 1.14260E-02 3.91533E-04 0.00000E+00
 -1       120 1.04424E-02 3.51843E-04 0.00000E+00
 -1       121 9.09073E-03 3.10011E-04 0.00000E+00
 -1       122 7.41735E-03 2.70180E-04 0.00000E+00
 -1       123 5.56561E-03 2.32164E-04 0.00000E+00
 -1       124 3.68451E-03 1.88110E-04 0.00000E+00
 -1       125 1.96656E-03 1.31223E-04 0.00000E+00
 -1       126 6.11064E-04 6.39835E-05 0.00000E+00
 -3
    1PSTEP                        42          11           1          
  100CL  111 1.10000E-01         126                     1   11           1
 -4  STRESS      6    1
 -5  SXX         1    4    1    1
 -5  SYY         1    4    2    2
 -5  SZZ         1    4    3    3
 -5  SXY         1    4    1    2
 -5  SYZ         1    4    2    3
 -5  SZX         1    4    3    1
 -1         1 3.89167E+03 9.14636E+03 3.81375E+03 2.72616E+03 1.54682E-10 1.50249E-10
 -1         2 3.89167E+03 9.14636E+03 3.81375E+03 2.72616E+03 1.54682E-10 1.50249E-10
 -1         3 4.92795E+01 1.04402E+02 4.60978E+01 3.45326E+00 3.44143E-08 7.42655E-09
 -1         4 4.92795E+01 1.04402E+02 4.60978E+01 3.45326E+00 3.44143E-08 7.42667E-09
 -1         5 1.76944E+02 2.49882E+02 1.27964E+02-4.68438E+01-7.90275E-08 6.47855E-08
 -1         6 1.76944E+02 2.49882E+02 1.27964E+02-4.68437E+01-7.90275E-08 6.47850E-08
 -1         7-3.14036E+03-7.31771E+03-3.20453E+03 2.26431E+03 9.50676E-11-1.00838E-10
 -1         8-3.14036E+03-7.31771E+03-3.20453E+03 2.26431E+03 9.50657E-11-1.00838E-10
 -1         9 1.53027E+02 2.70364E+02 1.26928E+02-2.31516E+01 1.42766E-08 1.83280E-08
 -1        10 1.53027E+02 2.70364E+02 1.26928E+02-2.31516E+01 1.42766E-08 1.83279E-08
 -1        11 3.49179E+02 6.82626E+02 3.12308E+02 1.88690E+03 9.97489E-11 2.52379E-12
 -1        12 3.49179E+02 6.82626E+02 3.12308E+02 1.88690E+03 9.97525E-11 2.52379E-12
 -1        13 1.00013E+03 6.94187E+03 2.33238E+03 9.76700E+02 1.59561E-08 6.02214E-08
 -1        14 9.72154E+02 4.87451E+03 1.72726E+03 5.97732E+02 3.07871E-08 6.66817E-08
 -1        15 4.26720E+02 2.63391E+03 9.08709E+02 5.33940E+02 2.42145E-08 1.37328E-07
 -1        16 3.75412E+01 7.78988E+02 2.42791E+02 3.94752E+02-6.07678E-09 1.75089E-07
 -1        17-3.38981E+02-8.11432E+02-3.46410E+02 2.87170E+02-2.03952E-08 1.39605E-07
 -1        18-6.68911E+02-2.02669E+03-8.12788E+02 1.73942E+02-2.24838E-08 1.01685E-07
 -1        19-7.86033E+02-2.73492E+03-1.06321E+03 7.03331E+01-2.75053E-08 8.09759E-08
 -1        20-8.84178E+02-3.21209E+03-1.23836E+03 4.95987E+01-3.76329E-08 6.19750E-08
 -1        21-9.27799E+02-3.52242E+03-1.34717E+03-5.58824E-02-3.79768E-08 2.89041E-08
 -1        22-8.62554E+02-3.17674E+03-1.22245E+03-1.83326E+02-3.39510E-08-1.81449E-08
 -1        23-4.96339E+02-1.76415E+03-6.82551E+02-3.61354E+02-2.91406E-08-6.75511E-08
 -1        24-1.05002E+02 4.50440E+01-1.92412E+01-3.45145E+02-1.46951E-08-7.72810E-08
 -1        25 1.69020E+02 1.23463E+03 4.18897E+02-1.46975E+02-9.63129E-09-1.14075E-08
 -1        26 2.00000E+02 1.35647E+03 4.64707E+02 5.67445E+01-5.68678E-09-2.90023E-08
 -1        27 1.50195E+02 8.50359E+02 2.99185E+02 1.30968E+02-9.25350E-09-2.09822E-08
 -1        28 3.45096E+01 3.03629E+02 1.01239E+02 9.44652E+01-2.54531E-08-4.58379E-08
 -1        29 9.96516E+00 5.59711E+01 1.97679E+01 4.35632E+01-1.04269E-08-1.12209E-07
 -1        30-8.74724E+00 2.14815E+01 3.81970E+00 8.41844E+00 1.79765E-08-7.07010E-08
 -1        31 7.38639E+00 6.83051E+01 2.27067E+01-1.11244E+01 3.08000E-08-2.16182E-08
 -1        32 1.00013E+03 6.94187E+03 2.33238E+03 9.76700E+02 1.59561E-08 6.02214E-08
 -1        33 9.72154E+02 4.87451E+03 1.72726E+03 5.97732E+02 3.07871E-08 6.66817E-08
 -1        34 4.26720E+02 2.63391E+03 9.08709E+02 5.33940E+02 2.42145E-08 1.37328E-07
 -1        35 3.75412E+01 7.78988E+02 2.42791E+02 3.94752E+02-6.07678E-09 1.75089E-07
 -1        36-3.38981E+02-8.11432E+02-3.46410E+02 2.87170E+02-2.03952E-08 1.39605E-07
 -1        37-6.68911E+02-2.02669E+03-8.12788E+02 1.73942E+02-2.24838E-08 1.01686E-07
 -1        38-7.86033E+02-2.73492E+03-1.06321E+03 7.03331E+01-2.75053E-08 8.09749E-08
 -1        39-8.84178E+02-3.21209E+03-1.23836E+03 4.95987E+01-3.76329E-08 6.19750E-08
 -1        40-9.27799E+02-3.52242E+03-1.34717E+03-5.58824E-02-3.79768E-08 2.89041E-08
 -1        41-8.62554E+02-3.17674E+03-1.22245E+03-1.83326E+02-3.39510E-08-1.81449E-08
 -1        42-4.96339E+02-1.76415E+03-6.82551E+02-3.61354E+02-2.91406E-08-6.75510E-08
 -1        43-1.05002E+02 4.50440E+01-1.92412E+01-3.45145E+02-1.46951E-08-7.72810E-08
 -1        44 1.69020E+02 1.23463E+03 4.18897E+02-1.46975E+02-9.63130E-09-1.14077E-08
 -1        45 2.00000E+02 1.35647E+03 4.64707E+02 5.67445E+01-5.68678E-09-2.90024E-08
 -1        46 1.50195E+02 8.50359E+02 2.99185E+02 1.30968E+02-9.25351E-09-2.09823E-08
 -1        47 3.45096E+01 3.03629E+02 1.01239E+02 9.44652E+01-2.54531E-08-4.58377E-08
 -1        48 9.96516E+00 5.59711E+01 1.97679E+01 4.35632E+01-1.04268E-08-1.12209E-07
 -1        49-8.74724E+00 2.14815E+01 3.81970E+00 8.41844E+00 1.79765E-08-7.07007E-08
 -1        50 7.38639E+00 6.83051E+01 2.27067E+01-1.11244E+01 3.08000E-08-2.16195E-08
 -1        51 1.98517E+02 3.79405E+02 1.73194E+02-2.66094E+01-6.10846E-08-4.92822E-08
 -1        52 3.18393E+02 5.69917E+02 2.66121E+02-1.01934E+01-5.03008E-08-6.23767E-08
 -1        53 2.72669E+02 5.17534E+02 2.36748E+02 3.71935E+01-1.46363E-08-9.33968E-08
 -1        54 1.72548E+02 2.71216E+02 1.32978E+02 9.55500E+01 2.87802E-08-5.44255E-08
 -1        55 7.84147E+01-1.91675E+02-3.41459E+01 1.34339E+02 3.00330E-08-3.89954E-09
 -1        56 4.42776E+01-6.32186E+02-1.76944E+02 6.89737E+01 9.47846E-09-1.81319E-08
 -1        57 3.94911E+01-4.94359E+02-1.37162E+02-1.31616E+02-2.14062E-08-3.64437E-08
 -1        58 2.98729E+02 7.11325E+02 3.01186E+02-3.49496E+02-2.17243E-08-7.64648E-08
 -1        59 6.91681E+02 2.56123E+03 9.67591E+02-3.86730E+02 1.64867E-08-6.24127E-08
 -1        60 1.03786E+03 4.01190E+03 1.49786E+03-1.89874E+02 3.24050E-08-3.06537E-08
 -1        61 1.10381E+03 4.39290E+03 1.62961E+03 4.61756E+01 2.40581E-08 2.27217E-08
 -1        62 1.06366E+03 4.15472E+03 1.54849E+03 1.45958E+02 1.34465E-08 4.94802E-08
 -1        63 9.54877E+02 3.80109E+03 1.41205E+03 1.98071E+02 1.34592E-08 8.80718E-08
 -1        64 8.33958E+02 3.20932E+03 1.20178E+03 2.96803E+02 2.67562E-08 1.01366E-07
 -1        65 5.40224E+02 2.08633E+03 7.82380E+02 3.62152E+02 2.31898E-08 1.25173E-07
 -1        66 1.90553E+02 5.85896E+02 2.31297E+02 3.93235E+02-1.02325E-08 1.66809E-07
 -1        67-2.37055E+02-1.17761E+03-4.26830E+02 4.39178E+02-4.74223E-08 1.44863E-07
 -1        68-8.26553E+02-3.34715E+03-1.26409E+03 4.20579E+02-4.66423E-08 6.98969E-08
 -1        69-8.54268E+02-5.39426E+03-1.90413E+03 7.13373E+02-2.03797E-08 3.41367E-08
 -1        70 1.98517E+02 3.79405E+02 1.73194E+02-2.66094E+01-6.10847E-08-4.92820E-08
 -1        71 3.18393E+02 5.69917E+02 2.66121E+02-1.01934E+01-5.03009E-08-6.23773E-08
 -1        72 2.72669E+02 5.17534E+02 2.36748E+02 3.71935E+01-1.46363E-08-9.33966E-08
 -1        73 1.72548E+02 2.71216E+02 1.32978E+02 9.55500E+01 2.87802E-08-5.44249E-08
 -1        74 7.84147E+01-1.91675E+02-3.41459E+01 1.34339E+02 3.00329E-08-3.89853E-09
 -1        75 4.42776E+01-6.32186E+02-1.76944E+02 6.89737E+01 9.47847E-09-1.81319E-08
 -1        76 3.94911E+01-4.94359E+02-1.37162E+02-1.31616E+02-2.14062E-08-3.64439E-08
 -1        77 2.98729E+02 7.11325E+02 3.01186E+02-3.49496E+02-2.17242E-08-7.64647E-08
 -1        78 6.91681E+02 2.56123E+03 9.67591E+02-3.86730E+02 1.64867E-08-6.24137E-08
 -1        79 1.03786E+03 4.01190E+03 1.49786E+03-1.89874E+02 3.24050E-08-3.06517E-08
 -1        80 1.10381E+03 4.39290E+03 1.62961E+03 4.61756E+01 2.40581E-08 2.27202E-08
 -1        81 1.06366E+03 4.15472E+03 1.54849E+03 1.45958E+02 1.34465E-08 4.94802E-08
 -1        82 9.54877E+02 3.80109E+03 1.41205E+03 1.98071E+02 1.34593E-08 8.80721E-08
 -1        83 8.33958E+02 3.20932E+03 1.20178E+03 2.96803E+02 2.67562E-08 1.01365E-07
 -1        84 5.40224E+02 2.08633E+03 7.82380E+02 3.62152E+02 2.31898E-08 1.25173E-07
 -1        85 1.90553E+02 5.85896E+02 2.31297E+02 3.93235E+02-1.02325E-08 1.66809E-07
 -1        86-2.37055E+02-1.17761E+03-4.26830E+02 4.39178E+02-4.74224E-08 1.44863E-07
 -1        87-8.26553E+02-3.34715E+03-1.26409E+03 4.20579E+02-4.66423E-08 6.98969E-08
 -1        88-8.54268E+02-5.39426E+03-1.90413E+03 7.13373E+02-2.03797E-08 3.41367E-08
 -1        89 8.55550E+01 6.32269E+02 2.15755E+02 6.91041E+02-3.28174E-09 3.93307E-08
 -1        90 1.09420E+02 7.30736E+02 2.52407E+02 7.23144E+02-2.91454E-09 6.42062E-08
 -1        91 1.11936E+02 7.16673E+02 2.47272E+02 6.15933E+02-1.23217E-08 1.49371E-07
 -1        92 1.23049E+02 6.70656E+02 2.36789E+02 5.10053E+02-1.10091E-08 1.70373E-07
 -1        93 1.07691E+02 6.22804E+02 2.18411E+02 4.09452E+02-3.03041E-10 1.37702E-07
 -1        94 9.16842E+01 5.71865E+02 1.99087E+02 2.95446E+02 3.88945E-09 1.01808E-07
 -1        95 9.15706E+01 4.99546E+02 1.78196E+02 1.73922E+02-6.59540E-09 8.44257E-08
 -1        96 9.38842E+01 4.23071E+02 1.56800E+02 1.22882E+02-1.25531E-08 5.05945E-08
 -1        97 9.28514E+01 3.81642E+02 1.43663E+02 1.99258E+01-6.38319E-09 2.80551E-08
 -1        98 9.36617E+01 3.75892E+02 1.41228E+02-2.47214E+02-2.25845E-09-2.10167E-08
 -1        99 1.04816E+02 3.83382E+02 1.46063E+02-4.87171E+02-5.65127E-09-6.85644E-08
 -1       100 1.04759E+02 3.82992E+02 1.45582E+02-4.58735E+02-2.29898E-08-8.20790E-08
 -1       101 1.07550E+02 3.70053E+02 1.42609E+02-1.89734E+02-1.22993E-08-2.08113E-08
 -1       102 1.19763E+02 3.52076E+02 1.41168E+02 8.36178E+01 9.45166E-09-2.36591E-08
 -1       103 1.16331E+02 3.33179E+02 1.34652E+02 1.80236E+02 1.04946E-09-9.54049E-09
 -1       104 1.10135E+02 3.03086E+02 1.23798E+02 1.22021E+02 1.84941E-09-5.42193E-08
 -1       105 1.40835E+02 2.85504E+02 1.27795E+02 4.56025E+01-6.24382E-09-1.15137E-07
 -1       106 1.53260E+02 2.91831E+02 1.33430E+02-2.33456E-01-2.25026E-08-7.58864E-08
 -1       107 1.24572E+02 2.74346E+02 1.19594E+02-1.65809E+01 1.64696E-10-3.42148E-08
 -1       108 1.24572E+02 2.74346E+02 1.19594E+02-1.65809E+01 1.64726E-10-3.42141E-08
 -1       109 1.53260E+02 2.91831E+02 1.33430E+02-2.33456E-01-2.25026E-08-7.58866E-08
 -1       110 1.40835E+02 2.85504E+02 1.27795E+02 4.56025E+01-6.24384E-09-1.15137E-07
 -1       111 1.10135E+02 3.03086E+02 1.23798E+02 1.22021E+02 1.84939E-09-5.42200E-08
 -1       112 1.16331E+02 3.33179E+02 1.34652E+02 1.80236E+02 1.04948E-09-9.54079E-09
 -1       113 1.19763E+02 3.52076E+02 1.41168E+02 8.36178E+01 9.45163E-09-2.36591E-08
 -1       114 1.07550E+02 3.70053E+02 1.42609E+02-1.89734E+02-1.22993E-08-2.08109E-08
 -1       115 1.04759E+02 3.82992E+02 1.45582E+02-4.58735E+02-2.29899E-08-8.20790E-08
 -1       116 1.04816E+02 3.83382E+02 1.46063E+02-4.87171E+02-5.65127E-09-6.85642E-08
 -1       117 9.36617E+01 3.75892E+02 1.41228E+02-2.47214E+02-2.25845E-09-2.10171E-08
 -1       118 9.28514E+01 3.81642E+02 1.43663E+02 1.99258E+01-6.38319E-09 2.80556E-08
 -1       119 9.38842E+01 4.23071E+02 1.56800E+02 1.22882E+02-1.25531E-08 5.05945E-08
 -1       120 9.15706E+01 4.99546E+02 1.78196E+02 1.73922E+02-6.59545E-09 8.44252E-08
 -1       121 9.16842E+01 5.71865E+02 1.99087E+02 2.95446E+02 3.88950E-09 1.01808E-07
 -1       122 1.07691E+02 6.22804E+02 2.18411E+02 4.09452E+02-3.03049E-10 1.37702E-07
 -1       123 1.23049E+02 6.70656E+02 2.36789E+02 5.10053E+02-1.10091E-08 1.70373E-07
 -1       124 1.11936E+02 7.16673E+02 2.47272E+02 6.15933E+02-1.23216E-08 1.49371E-07
 -1       125 1.09420E+02 7.30736E+02 2.52407E+02 7.23144E+02-2.91456E-09 6.42062E-08
 -1       126 8.55550E+01 6.32269E+02 2.15755E+02 6.91041E+02-3.28176E-09 3.93307E-08
 -3
    1PSTEP                        43          11           1          
  100CL  111 1.10000E-01         126                     1   11           1
 -4  TOSTRAIN    6    1
 -5  EXX         1    4    1    1
 -5  EYY         1    4    2    2
 -5  EZZ         1    4    3    3
 -5  EXY         1    4    1    2
 -5  EYZ         1    4    2    3
 -5  EZX         1    4    3    1
 -1         1-2.10438E-05 1.67786E-02-1.31372E-26 8.40740E-03-2.62787E-19 2.71931E-16
 -1         2-2.10438E-05 1.67786E-02-1.31372E-26 8.40740E-03-2.62787E-19 2.71931E-16
 -1         3 1.04532E-05 1.89331E-04 2.16863E-26 1.20883E-05 1.11696E-13 2.46717E-14
 -1         4 1.04532E-05 1.89331E-04 2.16862E-26 1.20883E-05 1.11696E-13 2.46721E-14
 -1         5 1.57681E-04 3.97135E-04 1.37865E-25-1.50960E-04-2.57581E-13 2.09264E-13
 -1         6 1.57681E-04 3.97135E-04 1.37866E-25-1.50960E-04-2.57581E-13 2.09263E-13
 -1         7-2.01226E-05-1.37135E-02-5.48783E-27 7.70064E-03 5.53624E-19-2.34678E-16
 -1         8-2.01226E-05-1.37135E-02-5.48783E-27 7.70064E-03 5.47346E-19-2.34678E-16
 -1         9 8.40669E-05 4.66257E-04-1.74223E-26-7.33263E-05 4.60944E-14 5.97645E-14
 -1        10 8.40669E-05 4.66257E-04-1.74222E-26-7.33263E-05 4.60944E-14 5.97642E-14
 -1        11-2.05832E-05 1.33452E-03-5.17364E-27 6.11049E-03 1.33536E-19-1.54572E-17
 -1        12-2.05832E-05 1.33452E-03-5.17364E-27 6.11049E-03 1.45249E-19-1.54574E-17
 -1        13-4.48257E-03 1.46640E-02 7.19552E-26 2.78198E-03 5.37491E-14 1.94422E-13
 -1        14-2.57631E-03 1.01098E-02 9.97119E-26 1.56928E-03 1.04360E-13 2.13427E-13
 -1        15-1.68354E-03 5.63743E-03 3.92864E-25 1.48004E-03 9.22528E-14 4.43150E-13
 -1        16-7.57708E-04 1.81348E-03 6.43442E-25 1.19087E-03-3.83397E-16 5.69512E-13
 -1        17-4.48374E-05-1.45360E-03 4.15205E-25 9.83095E-04-5.15621E-14 4.56086E-13
 -1        18 4.20372E-04-3.93375E-03 2.24051E-25 6.94434E-04-6.40030E-14 3.32937E-13
 -1        19 8.74904E-04-5.46786E-03 1.51912E-25 3.73805E-04-8.41379E-14 2.65527E-13
 -1        20 1.13184E-03-6.47821E-03 1.06615E-25 2.80247E-04-1.20289E-13 2.03605E-13
 -1        21 1.34164E-03-7.15586E-03 3.96340E-26 6.23469E-05-1.23949E-13 9.50097E-14
 -1        22 1.14455E-03-6.42173E-03 2.01420E-26-6.07476E-04-1.11317E-13-5.92676E-14
 -1        23 5.76213E-04-3.52517E-03 1.08509E-25-1.20966E-03-9.36465E-14-2.20616E-13
 -1        24-3.04841E-04 2.23972E-04 1.22861E-25-1.11842E-03-4.54244E-14-2.51797E-13
 -1        25-8.25467E-04 2.64368E-03-3.73800E-27-4.47855E-04-3.08942E-14-3.73612E-14
 -1        26-8.61969E-04 2.87907E-03 1.70304E-26 2.04737E-04-1.79029E-14-9.43374E-14
 -1        27-4.82065E-04 1.78039E-03 8.79088E-27 4.32253E-04-2.97547E-14-6.82714E-14
 -1        28-2.15307E-04 6.54349E-04 4.57942E-26 3.09059E-04-8.21590E-14-1.49200E-13
 -1        29-3.10120E-05 1.16662E-04 2.56336E-25 1.42019E-04-3.25553E-14-3.64792E-13
 -1        30-4.07626E-05 5.72826E-05 9.82347E-26 2.77900E-05 5.93610E-14-2.29547E-13
 -1        31-5.01554E-05 1.48540E-04 2.02314E-26-3.52202E-05 1.00398E-13-6.97973E-14
 -1        32-4.48257E-03 1.46640E-02 7.19552E-26 2.78198E-03 5.37491E-14 1.94422E-13
 -1        33-2.57631E-03 1.01098E-02 9.97119E-26 1.56928E-03 1.04360E-13 2.13427E-13
 -1        34-1.68354E-03 5.63743E-03 3.92864E-25 1.48004E-03 9.22529E-14 4.43150E-13
 -1        35-7.57708E-04 1.81348E-03 6.43442E-25 1.19087E-03-3.83394E-16 5.69512E-13
 -1        36-4.48374E-05-1.45360E-03 4.15206E-25 9.83095E-04-5.15621E-14 4.56086E-13
 -1        37 4.20372E-04-3.93375E-03 2.24054E-25 6.94434E-04-6.40030E-14 3.32939E-13
 -1        38 8.74904E-04-5.46786E-03 1.51909E-25 3.73805E-04-8.41380E-14 2.65524E-13
 -1        39 1.13184E-03-6.47821E-03 1.06615E-25 2.80247E-04-1.20289E-13 2.03605E-13
 -1        40 1.34164E-03-7.15586E-03 3.96340E-26 6.23469E-05-1.23949E-13 9.50097E-14
 -1        41 1.14455E-03-6.42173E-03 2.01420E-26-6.07476E-04-1.11317E-13-5.92676E-14
 -1        42 5.76213E-04-3.52517E-03 1.08509E-25-1.20966E-03-9.36465E-14-2.20616E-13
 -1        43-3.04841E-04 2.23972E-04 1.22861E-25-1.11842E-03-4.54244E-14-2.51797E-13
 -1        44-8.25467E-04 2.64368E-03-3.73790E-27-4.47855E-04-3.08942E-14-3.73617E-14
 -1        45-8.61969E-04 2.87907E-03 1.70306E-26 2.04737E-04-1.79029E-14-9.43379E-14
 -1        46-4.82065E-04 1.78039E-03 8.79100E-27 4.32253E-04-2.97547E-14-6.82716E-14
 -1        47-2.15307E-04 6.54349E-04 4.57937E-26 3.09059E-04-8.21590E-14-1.49200E-13
 -1        48-3.10120E-05 1.16662E-04 2.56335E-25 1.42019E-04-3.25552E-14-3.64792E-13
 -1        49-4.07626E-05 5.72826E-05 9.82349E-26 2.77900E-05 5.93609E-14-2.29547E-13
 -1        50-5.01554E-05 1.48540E-04 2.02336E-26-3.52202E-05 1.00398E-13-6.98016E-14
 -1        51 8.14729E-05 6.69656E-04 9.39281E-26-8.37093E-05-1.97616E-13-1.61002E-13
 -1        52 1.69276E-04 9.85209E-04 1.28177E-25-2.97604E-05-1.62411E-13-2.03237E-13
 -1        53 1.17291E-04 9.09652E-04 1.77309E-25 1.23328E-04-4.64440E-14-3.03498E-13
 -1        54 1.30117E-04 4.46539E-04 6.75511E-26 3.11196E-04 9.40394E-14-1.76561E-13
 -1        55 3.67881E-04-5.15748E-04 1.10039E-26 4.33500E-04 9.76837E-14-1.23915E-14
 -1        56 7.17548E-04-1.48441E-03 5.76743E-27 2.11849E-04 3.11693E-14-5.87542E-14
 -1        57 5.61412E-04-1.15567E-03 3.18606E-26-4.40941E-04-6.87215E-14-1.19012E-13
 -1        58-3.39789E-05 1.34343E-03 1.28064E-25-1.11601E-03-6.81670E-14-2.49150E-13
 -1        59-9.26332E-04 5.13680E-03 8.09938E-26-1.20174E-03 5.46196E-14-2.02082E-13
 -1        60-1.52070E-03 8.04549E-03 2.95585E-26-6.01070E-04 1.04250E-13-9.92677E-14
 -1        61-1.73247E-03 8.83326E-03 1.28586E-26 6.97168E-05 7.78059E-14 7.30948E-14
 -1        62-1.60156E-03 8.34762E-03 4.89773E-26 3.13809E-04 4.56523E-14 1.59798E-13
 -1        63-1.52358E-03 7.67276E-03 1.62758E-25 4.27834E-04 4.96004E-14 2.84691E-13
 -1        64-1.25598E-03 6.48684E-03 2.27863E-25 7.32239E-04 9.54725E-14 3.26235E-13
 -1        65-8.65169E-04 4.26709E-03 3.33244E-25 9.99895E-04 8.81111E-14 4.03607E-13
 -1        66-2.23920E-04 1.22939E-03 5.82309E-25 1.22721E-03-1.47377E-14 5.42834E-13
 -1        67 5.10161E-04-2.35609E-03 4.75473E-25 1.53021E-03-1.39409E-13 4.76116E-13
 -1        68 1.31888E-03-6.77374E-03 1.31181E-25 1.60315E-03-1.46937E-13 2.31792E-13
 -1        69 3.28538E-03-1.14935E-02 2.69355E-26 2.60551E-03-6.56576E-14 1.12377E-13
 -1        70 8.14729E-05 6.69656E-04 9.39285E-26-8.37093E-05-1.97616E-13-1.61001E-13
 -1        71 1.69276E-04 9.85209E-04 1.28179E-25-2.97604E-05-1.62412E-13-2.03239E-13
 -1        72 1.17291E-04 9.09652E-04 1.77309E-25 1.23328E-04-4.64439E-14-3.03497E-13
 -1        73 1.30117E-04 4.46539E-04 6.75494E-26 3.11196E-04 9.40393E-14-1.76559E-13
 -1        74 3.67881E-04-5.15748E-04 1.10035E-26 4.33500E-04 9.76836E-14-1.23882E-14
 -1        75 7.17548E-04-1.48441E-03 5.76739E-27 2.11849E-04 3.11693E-14-5.87541E-14
 -1        76 5.61412E-04-1.15567E-03 3.18607E-26-4.40941E-04-6.87215E-14-1.19012E-13
 -1        77-3.39789E-05 1.34343E-03 1.28064E-25-1.11601E-03-6.81667E-14-2.49150E-13
 -1        78-9.26332E-04 5.13680E-03 8.09966E-26-1.20174E-03 5.46197E-14-2.02085E-13
 -1        79-1.52070E-03 8.04549E-03 2.95573E-26-6.01070E-04 1.04250E-13-9.92613E-14
 -1        80-1.73247E-03 8.83326E-03 1.28583E-26 6.97168E-05 7.78059E-14 7.30899E-14
 -1        81-1.60156E-03 8.34762E-03 4.89773E-26 3.13809E-04 4.56523E-14 1.59798E-13
 -1        82-1.52358E-03 7.67276E-03 1.62759E-25 4.27834E-04 4.96008E-14 2.84692E-13
 -1        83-1.25598E-03 6.48684E-03 2.27858E-25 7.32239E-04 9.54722E-14 3.26232E-13
 -1        84-8.65169E-04 4.26709E-03 3.33245E-25 9.99895E-04 8.81113E-14 4.03607E-13
 -1        85-2.23920E-04 1.22939E-03 5.82315E-25 1.22721E-03-1.47375E-14 5.42837E-13
 -1        86 5.10161E-04-2.35609E-03 4.75470E-25 1.53021E-03-1.39410E-13 4.76115E-13
 -1        87 1.31888E-03-6.77374E-03 1.31181E-25 1.60315E-03-1.46937E-13 2.31792E-13
 -1        88 3.28538E-03-1.14935E-02 2.69355E-26 2.60551E-03-6.56576E-14 1.12377E-13
 -1        89-5.98594E-04 1.51871E-03 2.75649E-26 2.20791E-03-8.74160E-15 1.28057E-13
 -1        90-6.28715E-04 1.71424E-03 6.81803E-26 2.28270E-03-3.95372E-15 2.08873E-13
 -1        91-5.86691E-04 1.65713E-03 4.57425E-25 1.92528E-03-2.44255E-14 4.86597E-13
 -1        92-4.90814E-04 1.51742E-03 6.14166E-25 1.58583E-03-1.68610E-14 5.54645E-13
 -1        93-4.55003E-04 1.40076E-03 3.94661E-25 1.26776E-03 1.36081E-14 4.47271E-13
 -1        94-4.17803E-04 1.27728E-03 2.14217E-25 9.10592E-04 2.20265E-14 3.30332E-13
 -1        95-3.24336E-04 1.09134E-03 1.47299E-25 5.32980E-04-1.52813E-14 2.74792E-13
 -1        96-2.34858E-04 9.07484E-04 5.18905E-26 3.81491E-04-3.81930E-14 1.65031E-13
 -1        97-1.95417E-04 8.10061E-04 8.81833E-27 5.74955E-05-1.99981E-14 9.13129E-14
 -1        98-1.88079E-04 7.93330E-04-2.80301E-27-8.00716E-04-7.27821E-15-6.83227E-14
 -1        99-1.75060E-04 8.05099E-04 9.36091E-26-1.57273E-03-1.67940E-14-2.22972E-13
 -1       100-1.69410E-04 7.99994E-04 1.46333E-25-1.47839E-03-7.21638E-14-2.67615E-13
 -1       101-1.32027E-04 7.50161E-04 4.18897E-27-6.07998E-04-3.93893E-14-6.79881E-14
 -1       102-7.22104E-05 6.84108E-04 1.21745E-26 2.75406E-04 3.10969E-14-7.67210E-14
 -1       103-5.70917E-05 6.40799E-04-3.75862E-27 5.87153E-04 3.50500E-15-3.09946E-14
 -1       104-4.25952E-05 5.79339E-04 4.97424E-26 3.97829E-04 6.58156E-15-1.76159E-13
 -1       105 4.31397E-05 5.10921E-04 2.70536E-25 1.49605E-04-1.89450E-14-3.74141E-13
 -1       106 6.42566E-05 5.14249E-04 1.21159E-25 1.09508E-06-7.20738E-14-2.46839E-13
 -1       107 1.56587E-05 5.02838E-04 7.74606E-27-5.16156E-05 1.03124E-15-1.11164E-13
 -1       108 1.56587E-05 5.02838E-04 7.74508E-27-5.16156E-05 1.03133E-15-1.11162E-13
 -1       109 6.42566E-05 5.14249E-04 1.21160E-25 1.09508E-06-7.20738E-14-2.46839E-13
 -1       110 4.31397E-05 5.10921E-04 2.70536E-25 1.49605E-04-1.89450E-14-3.74141E-13
 -1       111-4.25952E-05 5.79339E-04 4.97439E-26 3.97829E-04 6.58150E-15-1.76161E-13
 -1       112-5.70917E-05 6.40799E-04-3.75866E-27 5.87153E-04 3.50508E-15-3.09955E-14
 -1       113-7.22104E-05 6.84108E-04 1.21745E-26 2.75406E-04 3.10968E-14-7.67211E-14
 -1       114-1.32027E-04 7.50161E-04 4.18857E-27-6.07998E-04-3.93893E-14-6.79867E-14
 -1       115-1.69410E-04 7.99994E-04 1.46333E-25-1.47839E-03-7.21638E-14-2.67615E-13
 -1       116-1.75060E-04 8.05099E-04 9.36086E-26-1.57273E-03-1.67940E-14-2.22972E-13
 -1       117-1.88079E-04 7.93330E-04-2.80281E-27-8.00716E-04-7.27821E-15-6.83237E-14
 -1       118-1.95417E-04 8.10061E-04 8.81873E-27 5.74955E-05-1.99981E-14 9.13146E-14
 -1       119-2.34858E-04 9.07484E-04 5.18905E-26 3.81491E-04-3.81929E-14 1.65031E-13
 -1       120-3.24336E-04 1.09134E-03 1.47297E-25 5.32980E-04-1.52815E-14 2.74790E-13
 -1       121-4.17803E-04 1.27728E-03 2.14217E-25 9.10592E-04 2.20266E-14 3.30333E-13
 -1       122-4.55003E-04 1.40076E-03 3.94659E-25 1.26776E-03 1.36080E-14 4.47270E-13
 -1       123-4.90814E-04 1.51742E-03 6.14165E-25 1.58583E-03-1.68610E-14 5.54645E-13
 -1       124-5.86691E-04 1.65713E-03 4.57425E-25 1.92528E-03-2.44255E-14 4.86597E-13
 -1       125-6.28715E-04 1.71424E-03 6.81803E-26 2.28270E-03-3.95377E-15 2.08873E-13
 -1       126-5.98594E-04 1.51871E-03 2.75649E-26 2.20791E-03-8.74165E-15 1.28057E-13
 -3
    1PSTEP                        44          11           1          
  100CL  111 1.10000E-01         126                     1   11           1
 -4  ERROR       1    1
 -5  STR(%)      1    1    0    0
 -1         1 5.88146E+01
 -1         2 5.88146E+01
 -1         3 2.51368E+01
 -1         4 2.51368E+01
 -1         5 4.33832E+00
 -1         6 4.33832E+00
 -1         7 7.12325E+01
 -1         8 7.12325E+01
 -1         9 2.51368E+01
 -1        10 2.51368E+01
 -1        11 7.12325E+01
 -1        12 7.12325E+01
 -1        13 5.88146E+01
 -1        14 5.02296E+01
 -1        15 4.17181E+01
 -1        16 4.93464E+01
 -1        17 7.32845E+01
 -1        18 7.97236E+01
 -1        19 7.97236E+01
 -1        20 7.26806E+01
 -1        21 6.98264E+01
 -1        22 6.79550E+01
 -1        23 7.01158E+01
 -1        24 7.01158E+01
 -1        25 4.40406E+01
 -1        26 4.40406E+01
 -1        27 3.74976E+01
 -1        28 3.54339E+01
 -1        29 5.63412E+01
 -1        30 5.63412E+01
 -1        31 4.27250E+01
 -1        32 5.88146E+01
 -1        33 5.02296E+01
 -1        34 4.17181E+01
 -1        35 4.93464E+01
 -1        36 7.32845E+01
 -1        37 7.97236E+01
 -1        38 7.97236E+01
 -1        39 7.26806E+01
 -1        40 6.98264E+01
 -1        41 6.79550E+01
 -1        42 7.01158E+01
 -1        43 7.01158E+01
 -1        44 4.40406E+01
 -1        45 4.40406E+01
 -1        46 3.74976E+01
 -1        47 3.54339E+01
 -1        48 5.63412E+01
 -1        49 5.63412E+01
 -1        50 4.27250E+01
 -1        51 1.67886E+01
 -1        52 2.03350E+01
 -1        53 2.03350E+01
 -1        54 2.89031E+01
 -1        55 6.40949E+01
 -1        56 1.03071E+02
 -1        57 1.03071E+02
 -1        58 4.84732E+01
 -1        59 4.99154E+01
 -1        60 5.20298E+01
 -1        61 5.26370E+01
 -1        62 5.26370E+01
 -1        63 5.05593E+01
 -1        64 4.75705E+01
 -1        65 4.03668E+01
 -1        66 4.68192E+01
 -1        67 7.37267E+01
 -1        68 7.37267E+01
 -1        69 7.34702E+01
 -1        70 1.67886E+01
 -1        71 2.03350E+01
 -1        72 2.03350E+01
 -1        73 2.89031E+01
 -1        74 6.40949E+01
 -1        75 1.03071E+02
 -1        76 1.03071E+02
 -1        77 4.84732E+01
 -1        78 4.99154E+01
 -1        79 5.20298E+01
 -1        80 5.26370E+01
 -1        81 5.26370E+01
 -1        82 5.05593E+01
 -1        83 4.75705E+01
 -1        84 4.03668E+01
 -1        85 4.68192E+01
 -1        86 7.37267E+01
 -1        87 7.37267E+01
 -1        88 7.34702E+01
 -1        89 7.34702E+01
 -1        90 7.37267E+01
 -1        91 7.37267E+01
 -1        92 4.93464E+01
 -1        93 7.32845E+01
 -1        94 7.97236E+01
 -1        95 7.97236E+01
 -1        96 7.26806E+01
 -1        97 6.98264E+01
 -1        98 6.79550E+01
 -1        99 7.01158E+01
 -1       100 7.01158E+01
 -1       101 1.03071E+02
 -1       102 1.03071E+02
 -1       103 6.40949E+01
 -1       104 3.54339E+01
 -1       105 5.63412E+01
 -1       106 5.63412E+01
 -1       107 4.27250E+01
 -1       108 4.27250E+01
 -1       109 5.63412E+01
 -1       110 5.63412E+01
 -1       111 3.54339E+01
 -1       112 6.40949E+01
 -1       113 1.03071E+02
 -1       114 1.03071E+02
 -1       115 7.01158E+01
 -1       116 7.01158E+01
 -1       117 6.79550E+01
 -1       118 6.98264E+01
 -1       119 7.26806E+01
 -1       120 7.97236E+01
 -1       121 7.97236E+01
 -1       122 7.32845E+01
 -1       123 4.93464E+01
 -1       124 7.37267E+01
 -1       125 7.37267E+01
 -1       126 7.34702E+01
 -3
    1PSTEP                        45          12           1          
  100CL  112 1.20000E-01         126                     1   12           1
 -4  DISP        4    1
 -5  D1          1    2    1    0
 -5  D2          1    2    2    0
 -5  D3          1    2    3    0
 -5  ALL         1    2    0    0    1ALL
 -1         1 0.00000E+00 0.00000E+00 0.00000E+00
 -1         2 0.00000E+00 0.00000E+00 0.00000E+00
 -1         3 1.05750E-02 5.97215E-04 0.00000E+00
 -1         4 1.05750E-02 5.97215E-04 0.00000E+00
 -1         5 1.05667E-02 9.95513E-04 0.00000E+00
 -1         6 1.05667E-02 9.95513E-04 0.00000E+00
 -1         7 0.00000E+00 0.00000E+00 0.00000E+00
 -1         8 0.00000E+00 0.00000E+00 0.00000E+00
 -1         9 1.05700E-02 8.07265E-04 0.00000E+00
 -1        10 1.05700E-02 8.07265E-04 0.00000E+00
 -1        11 0.00000E+00 0.00000E+00 0.00000E+00
 -1        12 0.00000E+00 0.00000E+00 0.00000E+00
 -1        13 8.77535E-04 8.87127E-04 0.00000E+00
 -1        14 2.22107E-03 1.54973E-03 0.00000E+00
 -1        15 4.00680E-03 1.94538E-03 0.00000E+00
 -1        16 5.97964E-03 2.12224E-03 0.00000E+00
 -1        17 7.94622E-03 2.12337E-03 0.00000E+00
 -1        18 9.78000E-03 1.98483E-03 0.00000E+00
 -1        19 1.13666E-02 1.72856E-03 0.00000E+00
 -1        20 1.25710E-02 1.39784E-03 0.00000E+00
 -1        21 1.33552E-02 1.04741E-03 0.00000E+00
 -1        22 1.37472E-02 6.91151E-04 0.00000E+00
 -1        23 1.36869E-02 3.50036E-04 0.00000E+00
 -1        24 1.31947E-02 1.12666E-04 0.00000E+00
 -1        25 1.24866E-02 6.58704E-05 0.00000E+00
 -1        26 1.18650E-02 1.90608E-04 0.00000E+00
 -1        27 1.14754E-02 3.73719E-04 0.00000E+00
 -1        28 1.12811E-02 5.11879E-04 0.00000E+00
 -1        29 1.11572E-02 5.73360E-04 0.00000E+00
 -1        30 1.09990E-02 5.84392E-04 0.00000E+00
 -1        31 1.07890E-02 5.85557E-04 0.00000E+00
 -1        32 8.77535E-04 8.87127E-04 0.00000E+00
 -1        33 2.22107E-03 1.54973E-03 0.00000E+00
 -1        34 4.00680E-03 1.94538E-03 0.00000E+00
 -1        35 5.97964E-03 2.12224E-03 0.00000E+00
 -1        36 7.94622E-03 2.12337E-03 0.00000E+00
 -1        37 9.78000E-03 1.98483E-03 0.00000E+00
 -1        38 1.13666E-02 1.72856E-03 0.00000E+00
 -1        39 1.25710E-02 1.39784E-03 0.00000E+00
 -1        40 1.33552E-02 1.04741E-03 0.00000E+00
 -1        41 1.37472E-02 6.91151E-04 0.00000E+00
 -1        42 1.36869E-02 3.50036E-04 0.00000E+00
 -1        43 1.31947E-02 1.12666E-04 0.00000E+00
 -1        44 1.24866E-02 6.58704E-05 0.00000E+00
 -1        45 1.18650E-02 1.90608E-04 0.00000E+00
 -1        46 1.14754E-02 3.73719E-04 0.00000E+00
 -1        47 1.12811E-02 5.11879E-04 0.00000E+00
 -1        48 1.11572E-02 5.73360E-04 0.00000E+00
 -1        49 1.09990E-02 5.84392E-04 0.00000E+00
 -1        50 1.07890E-02 5.85557E-04 0.00000E+00
 -1        51 1.07739E-02 9.79954E-04 0.00000E+00
 -1        52 1.09742E-02 9.44921E-04 0.00000E+00
 -1        53 1.11325E-02 9.03853E-04 0.00000E+00
 -1        54 1.12572E-02 9.05344E-04 0.00000E+00
 -1        55 1.14460E-02 9.83511E-04 0.00000E+00
 -1        56 1.18316E-02 1.10656E-03 0.00000E+00
 -1        57 1.24498E-02 1.16998E-03 0.00000E+00
 -1        58 1.31553E-02 1.05634E-03 0.00000E+00
 -1        59 1.36464E-02 7.42125E-04 0.00000E+00
 -1        60 1.37039E-02 3.15851E-04 0.00000E+00
 -1        61 1.33033E-02-1.29155E-04 0.00000E+00
 -1        62 1.25026E-02-5.66925E-04 0.00000E+00
 -1        63 1.12800E-02-9.73916E-04 0.00000E+00
 -1        64 9.67350E-03-1.29216E-03 0.00000E+00
 -1        65 7.81896E-03-1.49269E-03 0.00000E+00
 -1        66 5.83410E-03-1.56994E-03 0.00000E+00
 -1        67 3.86431E-03-1.49459E-03 0.00000E+00
 -1        68 2.09299E-03-1.22517E-03 0.00000E+00
 -1        69 7.60526E-04-7.11794E-04 0.00000E+00
 -1        70 1.07739E-02 9.79954E-04 0.00000E+00
 -1        71 1.09742E-02 9.44921E-04 0.00000E+00
 -1        72 1.11325E-02 9.03853E-04 0.00000E+00
 -1        73 1.12572E-02 9.05344E-04 0.00000E+00
 -1        74 1.14460E-02 9.83511E-04 0.00000E+00
 -1        75 1.18316E-02 1.10656E-03 0.00000E+00
 -1        76 1.24498E-02 1.16998E-03 0.00000E+00
 -1        77 1.31553E-02 1.05634E-03 0.00000E+00
 -1        78 1.36464E-02 7.42125E-04 0.00000E+00
 -1        79 1.37039E-02 3.15851E-04 0.00000E+00
 -1        80 1.33033E-02-1.29155E-04 0.00000E+00
 -1        81 1.25026E-02-5.66925E-04 0.00000E+00
 -1        82 1.12800E-02-9.73916E-04 0.00000E+00
 -1        83 9.67350E-03-1.29216E-03 0.00000E+00
 -1        84 7.81896E-03-1.49269E-03 0.00000E+00
 -1        85 5.83410E-03-1.56994E-03 0.00000E+00
 -1        86 3.86431E-03-1.49459E-03 0.00000E+00
 -1        87 2.09299E-03-1.22517E-03 0.00000E+00
 -1        88 7.60526E-04-7.11794E-04 0.00000E+00
 -1        89 6.30860E-04 8.42313E-05 0.00000E+00
 -1        90 2.06901E-03 1.68949E-04 0.00000E+00
 -1        91 3.88857E-03 2.29427E-04 0.00000E+00
 -1        92 5.90099E-03 2.79163E-04 0.00000E+00
 -1        93 7.90738E-03 3.17185E-04 0.00000E+00
 -1        94 9.77858E-03 3.45720E-04 0.00000E+00
 -1        95 1.13971E-02 3.75472E-04 0.00000E+00
 -1        96 1.26214E-02 4.14312E-04 0.00000E+00
 -1        97 1.34161E-02 4.58774E-04 0.00000E+00
 -1        98 1.38127E-02 5.03784E-04 0.00000E+00
 -1        99 1.37418E-02 5.47723E-04 0.00000E+00
 -1       100 1.32152E-02 5.86228E-04 0.00000E+00
 -1       101 1.24644E-02 6.18086E-04 0.00000E+00
 -1       102 1.18174E-02 6.48227E-04 0.00000E+00
 -1       103 1.14301E-02 6.79144E-04 0.00000E+00
 -1       104 1.12539E-02 7.08491E-04 0.00000E+00
 -1       105 1.11439E-02 7.36776E-04 0.00000E+00
 -1       106 1.09900E-02 7.63629E-04 0.00000E+00
 -1       107 1.07827E-02 7.84473E-04 0.00000E+00
 -1       108 1.07827E-02 7.84473E-04 0.00000E+00
 -1       109 1.09900E-02 7.63629E-04 0.00000E+00
 -1       110 1.11439E-02 7.36776E-04 0.00000E+00
 -1       111 1.12539E-02 7.08491E-04 0.00000E+00
 -1       112 1.14301E-02 6.79144E-04 0.00000E+00
 -1       113 1.18174E-02 6.48227E-04 0.00000E+00
 -1       114 1.24644E-02 6.18086E-04 0.00000E+00
 -1       115 1.32152E-02 5.86228E-04 0.00000E+00
 -1       116 1.37418E-02 5.47723E-04 0.00000E+00
 -1       117 1.38127E-02 5.03784E-04 0.00000E+00
 -1       118 1.34161E-02 4.58774E-04 0.00000E+00
 -1       119 1.26214E-02 4.14312E-04 0.00000E+00
 -1       120 1.13971E-02 3.75472E-04 0.00000E+00
 -1       121 9.77858E-03 3.45720E-04 0.00000E+00
 -1       122 7.90738E-03 3.17185E-04 0.00000E+00
 -1       123 5.90099E-03 2.79163E-04 0.00000E+00
 -1       124 3.88857E-03 2.29427E-04 0.00000E+00
 -1       125 2.06901E-03 1.68949E-04 0.00000E+00
 -1       126 6.30860E-04 8.42313E-05 0.00000E+00
 -3
    1PSTEP                        46          12           1          
  100CL  112 1.20000E-01         126                     1   12           1
 -4  STRESS      6    1
 -5  SXX         1    4    1    1
 -5  SYY         1    4    2    2
 -5  SZZ         1    4    3    3
 -5  SXY         1    4    1    2
 -5  SYZ         1    4    2    3
 -5  SZX         1    4    3    1
 -1         1 4.17803E+03 9.83898E+03 4.09344E+03 2.85613E+03-2.68243E-11-3.23560E-12
 -1         2 4.17803E+03 9.83898E+03 4.09344E+03 2.85613E+03-2.68243E-11-3.23560E-12
 -1         3 6.92506E+00 1.09366E+02 3.48746E+01-1.24781E+01 9.93854E-08 1.12363E-07
 -1         4 6.92506E+00 1.09366E+02 3.48746E+01-1.24781E+01 9.93854E-08 1.12363E-07
 -1         5 4.23431E+01 1.58134E+02 6.01033E+01-5.88412E+01-8.62900E-08 8.54721E-08
 -1         6 4.23431E+01 1.58134E+02 6.01033E+01-5.88412E+01-8.62900E-08 8.54716E-08
 -1         7-3.21923E+03-7.49241E+03-3.28170E+03 2.23239E+03 1.23692E-11-6.12665E-11
 -1         8-3.21923E+03-7.49241E+03-3.28170E+03 2.23239E+03 1.23692E-11-6.12665E-11
 -1         9 6.71100E+01 2.32811E+02 8.99060E+01-4.22514E+01-7.51607E-09 9.79013E-08
 -1        10 6.71100E+01 2.32811E+02 8.99060E+01-4.22514E+01-7.51602E-09 9.79022E-08
 -1        11 4.46050E+02 8.99311E+02 4.06738E+02 1.94940E+03-1.40102E-11-1.75213E-11
 -1        12 4.46050E+02 8.99311E+02 4.06738E+02 1.94940E+03-1.40102E-11-1.75213E-11
 -1        13 1.10172E+03 7.52635E+03 2.52950E+03 1.02885E+03 7.47612E-09-1.11237E-08
 -1        14 1.16324E+03 5.41338E+03 1.94055E+03 6.39047E+02 1.19436E-08 4.68359E-08
 -1        15 5.67089E+02 3.05221E+03 1.07376E+03 5.52998E+02 8.41928E-09 8.02104E-08
 -1        16 1.39391E+02 1.14795E+03 3.83222E+02 4.11253E+02-9.03635E-09 9.06708E-08
 -1        17-1.95000E+02-3.99027E+02-1.79085E+02 2.85691E+02-4.53360E-08 8.47225E-08
 -1        18-4.85539E+02-1.69866E+03-6.58246E+02 1.97804E+02-5.99161E-08-1.18195E-08
 -1        19-7.27837E+02-2.71043E+03-1.03861E+03 1.02637E+02-3.19192E-08-5.66589E-08
 -1        20-8.72891E+02-3.25405E+03-1.24806E+03 9.30419E+00 1.40365E-08-5.58540E-08
 -1        21-9.19277E+02-3.43782E+03-1.31800E+03-1.63512E+01 4.44006E-08-5.29540E-08
 -1        22-8.93821E+02-3.41313E+03-1.30339E+03-6.98671E+01 4.17494E-08 1.49706E-08
 -1        23-7.27855E+02-2.82805E+03-1.07532E+03-2.35275E+02-1.14197E-09 9.97018E-08
 -1        24-3.84389E+02-1.38628E+03-5.34450E+02-3.83234E+02-4.35964E-08 7.60579E-08
 -1        25 3.75058E+00 3.74064E+02 1.11916E+02-3.48598E+02-4.39278E-08-3.03711E-08
 -1        26 2.38229E+02 1.48169E+03 5.13103E+02-1.53994E+02-2.62019E-08-6.55781E-08
 -1        27 2.69351E+02 1.54402E+03 5.41238E+02 3.75074E+01-1.48301E-08-8.45015E-08
 -1        28 1.73149E+02 9.58721E+02 3.38367E+02 1.14379E+02-1.84594E-10-1.11789E-07
 -1        29 2.80646E+01 3.33758E+02 1.08316E+02 6.85902E+01 9.25410E-09-8.19323E-08
 -1        30-6.35711E+01 2.91980E+01-1.03403E+01-1.50702E+01 3.33464E-08-5.48943E-08
 -1        31-3.13530E+01 4.64062E+01 4.50709E+00-4.04302E+01 7.14662E-08 6.03357E-09
 -1        32 1.10172E+03 7.52635E+03 2.52950E+03 1.02885E+03 7.47612E-09-1.11237E-08
 -1        33 1.16324E+03 5.41338E+03 1.94055E+03 6.39047E+02 1.19436E-08 4.68359E-08
 -1        34 5.67089E+02 3.05221E+03 1.07376E+03 5.52998E+02 8.41928E-09 8.02104E-08
 -1        35 1.39391E+02 1.14795E+03 3.83222E+02 4.11253E+02-9.03635E-09 9.06711E-08
 -1        36-1.95000E+02-3.99027E+02-1.79085E+02 2.85691E+02-4.53360E-08 8.47225E-08
 -1        37-4.85539E+02-1.69866E+03-6.58246E+02 1.97804E+02-5.99162E-08-1.18193E-08
 -1        38-7.27837E+02-2.71043E+03-1.03861E+03 1.02637E+02-3.19192E-08-5.66582E-08
 -1        39-8.72891E+02-3.25405E+03-1.24806E+03 9.30419E+00 1.40365E-08-5.58540E-08
 -1        40-9.19277E+02-3.43782E+03-1.31800E+03-1.63512E+01 4.44006E-08-5.29541E-08
 -1        41-8.93821E+02-3.41313E+03-1.30339E+03-6.98671E+01 4.17494E-08 1.49708E-08
 -1        42-7.27855E+02-2.82805E+03-1.07532E+03-2.35275E+02-1.14195E-09 9.97021E-08
 -1        43-3.84389E+02-1.38628E+03-5.34450E+02-3.83234E+02-4.35964E-08 7.60578E-08
 -1        44 3.75058E+00 3.74064E+02 1.11916E+02-3.48598E+02-4.39278E-08-3.03711E-08
 -1        45 2.38229E+02 1.48169E+03 5.13103E+02-1.53994E+02-2.62019E-08-6.55781E-08
 -1        46 2.69351E+02 1.54402E+03 5.41238E+02 3.75074E+01-1.48301E-08-8.45015E-08
 -1        47 1.73149E+02 9.58721E+02 3.38367E+02 1.14379E+02-1.84607E-10-1.11789E-07
 -1        48 2.80646E+01 3.33758E+02 1.08316E+02 6.85902E+01 9.25411E-09-8.19330E-08
 -1        49-6.35711E+01 2.91980E+01-1.03403E+01-1.50702E+01 3.33464E-08-5.48943E-08
 -1        50-3.13530E+01 4.64062E+01 4.50709E+00-4.04302E+01 7.14662E-08 6.03385E-09
 -1        51 2.83417E+01 2.38132E+02 7.98609E+01-2.59832E+01-8.27339E-08 9.80699E-09
 -1        52 1.11101E+01 3.42655E+02 1.05963E+02 5.61792E+00-5.36212E-08-6.16670E-08
 -1        53-2.82564E+01 1.64580E+02 4.07790E+01 7.83615E+01-2.63135E-08-9.05151E-08
 -1        54-1.43770E+02-4.07689E+02-1.65734E+02 1.23714E+02-1.88784E-08-7.16359E-08
 -1        55-2.78230E+02-9.92886E+02-3.82410E+02 5.51032E+01-9.90560E-09-7.91048E-08
 -1        56-2.38837E+02-9.00996E+02-3.43116E+02-1.30843E+02 1.25608E-08-7.41687E-08
 -1        57 1.99624E+01 2.58937E+02 8.22961E+01-3.41025E+02 3.85378E-08 1.47485E-09
 -1        58 3.93293E+02 2.08615E+03 7.37582E+02-4.05509E+02 2.68342E-08 3.40215E-08
 -1        59 6.99668E+02 3.60042E+03 1.27568E+03-2.54662E+02-2.67208E-08 1.06890E-07
 -1        60 8.52185E+02 4.25460E+03 1.51341E+03-4.50799E+01-5.80216E-08 3.87943E-08
 -1        61 8.83987E+02 4.34774E+03 1.55059E+03 6.03738E+01-4.29128E-08-6.01683E-08
 -1        62 8.31482E+02 4.20920E+03 1.49400E+03 1.28609E+02-9.88851E-09-6.09039E-08
 -1        63 7.17714E+02 3.69868E+03 1.31025E+03 2.43639E+02 2.71142E-08-6.36240E-08
 -1        64 5.15035E+02 2.76189E+03 9.74326E+02 3.25346E+02 4.86217E-08 1.17474E-08
 -1        65 2.38727E+02 1.62132E+03 5.54148E+02 3.65666E+02 3.51541E-08 1.06762E-07
 -1        66-1.35787E+02 2.52921E+02 3.38695E+01 4.02397E+02 1.03374E-08 1.01555E-07
 -1        67-5.41561E+02-1.47888E+03-6.09206E+02 4.32161E+02-6.29420E-09 7.31448E-08
 -1        68-1.19630E+03-3.74355E+03-1.49611E+03 4.41932E+02-2.15263E-08 4.39047E-08
 -1        69-1.27318E+03-5.77660E+03-2.14779E+03 7.15733E+02-2.12408E-08 2.21955E-09
 -1        70 2.83417E+01 2.38132E+02 7.98609E+01-2.59832E+01-8.27339E-08 9.80807E-09
 -1        71 1.11101E+01 3.42655E+02 1.05963E+02 5.61792E+00-5.36211E-08-6.16670E-08
 -1        72-2.82564E+01 1.64580E+02 4.07790E+01 7.83615E+01-2.63135E-08-9.05149E-08
 -1        73-1.43770E+02-4.07689E+02-1.65734E+02 1.23714E+02-1.88784E-08-7.16361E-08
 -1        74-2.78230E+02-9.92886E+02-3.82410E+02 5.51032E+01-9.90559E-09-7.91044E-08
 -1        75-2.38837E+02-9.00996E+02-3.43116E+02-1.30843E+02 1.25608E-08-7.41687E-08
 -1        76 1.99624E+01 2.58937E+02 8.22961E+01-3.41025E+02 3.85378E-08 1.47383E-09
 -1        77 3.93293E+02 2.08615E+03 7.37582E+02-4.05509E+02 2.68342E-08 3.40217E-08
 -1        78 6.99668E+02 3.60042E+03 1.27568E+03-2.54662E+02-2.67209E-08 1.06890E-07
 -1        79 8.52185E+02 4.25460E+03 1.51341E+03-4.50799E+01-5.80216E-08 3.87940E-08
 -1        80 8.83987E+02 4.34774E+03 1.55059E+03 6.03738E+01-4.29128E-08-6.01673E-08
 -1        81 8.31482E+02 4.20920E+03 1.49400E+03 1.28609E+02-9.88846E-09-6.09038E-08
 -1        82 7.17714E+02 3.69868E+03 1.31025E+03 2.43639E+02 2.71142E-08-6.36243E-08
 -1        83 5.15035E+02 2.76189E+03 9.74326E+02 3.25346E+02 4.86218E-08 1.17473E-08
 -1        84 2.38727E+02 1.62132E+03 5.54148E+02 3.65666E+02 3.51541E-08 1.06762E-07
 -1        85-1.35787E+02 2.52921E+02 3.38695E+01 4.02397E+02 1.03374E-08 1.01555E-07
 -1        86-5.41561E+02-1.47888E+03-6.09206E+02 4.32161E+02-6.29406E-09 7.31449E-08
 -1        87-1.19630E+03-3.74355E+03-1.49611E+03 4.41932E+02-2.15263E-08 4.39047E-08
 -1        88-1.27318E+03-5.77660E+03-2.14779E+03 7.15733E+02-2.12408E-08 2.21956E-09
 -1        89-5.90554E+01 7.39597E+02 2.04941E+02 7.31750E+02-5.78751E-09-5.20312E-09
 -1        90 3.01197E+01 8.07344E+02 2.52260E+02 7.56840E+02-5.99464E-09 4.73204E-08
 -1        91 2.35391E+01 7.53141E+02 2.31933E+02 6.18461E+02 3.92815E-09 7.56132E-08
 -1        92 1.31389E+01 6.93021E+02 2.10437E+02 5.17334E+02 3.57552E-09 1.12593E-07
 -1        93 2.62887E+01 5.91930E+02 1.84531E+02 4.14244E+02-4.88627E-09 9.18862E-08
 -1        94 1.68606E+01 4.96471E+02 1.53853E+02 3.36219E+02-1.12267E-08 2.44928E-09
 -1        95 1.23299E+00 4.55383E+02 1.37399E+02 2.22540E+02-7.59792E-09-6.99508E-08
 -1        96-1.27813E+01 4.35326E+02 1.27866E+02 8.78636E+01 1.22177E-09-6.78175E-08
 -1        97-1.10775E+01 4.07431E+02 1.20600E+02 2.51348E+01 4.03137E-09-5.64182E-08
 -1        98-1.30166E+01 3.77744E+02 1.10450E+02-7.57072E+01-2.59935E-09 2.98483E-08
 -1        99-6.08231E+00 3.56230E+02 1.04935E+02-3.17218E+02-1.90860E-08 1.06832E-07
 -1       100 8.19120E+00 3.30786E+02 1.01023E+02-5.15786E+02-1.60188E-09 6.98602E-08
 -1       101 1.33164E+01 3.05687E+02 9.49230E+01-4.54226E+02 4.28260E-09-2.81996E-08
 -1       102 2.95236E+00 2.87727E+02 8.66718E+01-1.83700E+02-1.24071E-08-6.64027E-08
 -1       103-3.78204E+00 2.70634E+02 7.98918E+01 7.04318E+01-3.29871E-09-8.57924E-08
 -1       104 9.00543E+00 2.60479E+02 8.07610E+01 1.64810E+02-1.44493E-08-9.04466E-08
 -1       105-2.36992E+00 2.44012E+02 7.23720E+01 1.02121E+02-1.71374E-08-7.91383E-08
 -1       106-1.80554E+01 2.04968E+02 5.59907E+01-1.42479E+00-3.48668E-09-6.42133E-08
 -1       107 2.61183E+01 2.06574E+02 6.97539E+01-3.97914E+01-6.57176E-09-3.88851E-10
 -1       108 2.61183E+01 2.06574E+02 6.97539E+01-3.97914E+01-6.57173E-09-3.89247E-10
 -1       109-1.80554E+01 2.04968E+02 5.59907E+01-1.42479E+00-3.48667E-09-6.42128E-08
 -1       110-2.36992E+00 2.44012E+02 7.23720E+01 1.02121E+02-1.71374E-08-7.91386E-08
 -1       111 9.00543E+00 2.60479E+02 8.07610E+01 1.64810E+02-1.44492E-08-9.04464E-08
 -1       112-3.78204E+00 2.70634E+02 7.98918E+01 7.04318E+01-3.29872E-09-8.57926E-08
 -1       113 2.95236E+00 2.87727E+02 8.66718E+01-1.83700E+02-1.24071E-08-6.64027E-08
 -1       114 1.33164E+01 3.05687E+02 9.49230E+01-4.54226E+02 4.28261E-09-2.81996E-08
 -1       115 8.19120E+00 3.30786E+02 1.01023E+02-5.15786E+02-1.60188E-09 6.98604E-08
 -1       116-6.08231E+00 3.56230E+02 1.04935E+02-3.17218E+02-1.90861E-08 1.06831E-07
 -1       117-1.30166E+01 3.77744E+02 1.10450E+02-7.57072E+01-2.59939E-09 2.98478E-08
 -1       118-1.10775E+01 4.07431E+02 1.20600E+02 2.51348E+01 4.03138E-09-5.64179E-08
 -1       119-1.27813E+01 4.35326E+02 1.27866E+02 8.78636E+01 1.22176E-09-6.78176E-08
 -1       120 1.23299E+00 4.55383E+02 1.37399E+02 2.22540E+02-7.59791E-09-6.99505E-08
 -1       121 1.68606E+01 4.96471E+02 1.53853E+02 3.36219E+02-1.12267E-08 2.45026E-09
 -1       122 2.62887E+01 5.91930E+02 1.84531E+02 4.14244E+02-4.88624E-09 9.18862E-08
 -1       123 1.31389E+01 6.93021E+02 2.10437E+02 5.17334E+02 3.57549E-09 1.12593E-07
 -1       124 2.35391E+01 7.53141E+02 2.31933E+02 6.18461E+02 3.92814E-09 7.56132E-08
 -1       125 3.01197E+01 8.07344E+02 2.52260E+02 7.56840E+02-5.99463E-09 4.73204E-08
 -1       126-5.90554E+01 7.39597E+02 2.04941E+02 7.31750E+02-5.78751E-09-5.20312E-09
 -3
    1PSTEP                        47          12           1          
  100CL  112 1.20000E-01         126                     1   12           1
 -4  TOSTRAIN    6    1
 -5  EXX         1    4    1    1
 -5  EYY         1    4    2    2
 -5  EZZ         1    4    3    3
 -5  EXY         1    4    1    2
 -5  EYZ         1    4    2    3
 -5  EZX         1    4    3    1
 -1         1-2.34345E-05 1.80300E-02-5.08815E-28 8.77518E-03 1.05938E-19 3.41283E-17
 -1         2-2.34345E-05 1.80300E-02-5.08815E-28 8.77518E-03 1.05938E-19 3.41283E-17
 -1         3-9.11862E-05 2.42324E-04 3.92336E-25-3.91224E-05 3.21357E-13 3.66565E-13
 -1         4-9.11862E-05 2.42324E-04 3.92335E-25-3.91224E-05 3.21357E-13 3.66563E-13
 -1         5-5.92915E-05 3.19801E-04 2.68905E-25-1.89625E-04-2.81357E-13 2.76603E-13
 -1         6-5.92915E-05 3.19801E-04 2.68904E-25-1.89625E-04-2.81357E-13 2.76601E-13
 -1         7-2.17274E-05-1.40403E-02-1.51215E-27 7.60511E-03 5.81808E-19-1.91408E-16
 -1         8-2.17274E-05-1.40403E-02-1.51215E-27 7.60511E-03 5.81808E-19-1.91408E-16
 -1         9-7.52389E-05 4.64977E-04 1.38408E-25-1.34960E-04-2.56805E-14 3.18036E-13
 -1        10-7.52389E-05 4.64977E-04 1.38411E-25-1.34960E-04-2.56804E-14 3.18039E-13
 -1        11-2.25810E-05 1.74297E-03-5.57488E-29 6.30845E-03 3.71975E-19-5.24551E-17
 -1        12-2.25810E-05 1.74297E-03-5.57488E-29 6.30845E-03 3.71975E-19-5.24551E-17
 -1        13-4.80974E-03 1.58595E-02-3.14729E-27 2.89708E-03 2.32299E-14-3.65822E-14
 -1        14-2.66285E-03 1.11336E-02 4.01574E-26 1.64474E-03 4.22748E-14 1.50729E-13
 -1        15-1.77499E-03 6.44965E-03 1.34973E-25 1.49057E-03 3.59482E-14 2.59342E-13
 -1        16-8.92785E-04 2.55856E-03 1.71093E-25 1.20244E-03-1.84355E-14 2.95625E-13
 -1        17-1.24668E-04-6.49749E-04 1.71105E-25 9.49914E-04-1.37467E-13 2.80888E-13
 -1        18 5.07045E-04-3.35345E-03 4.93226E-26 7.75139E-04-1.96801E-13-3.17389E-14
 -1        19 9.72171E-04-5.45913E-03 7.89880E-26 5.11857E-04-1.09464E-13-1.81408E-13
 -1        20 1.19779E-03-6.58643E-03 6.41907E-26 1.84773E-04 4.23650E-14-1.82689E-13
 -1        21 1.28097E-03-6.97021E-03 8.66623E-26 4.36346E-05 1.43579E-13-1.74067E-13
 -1        22 1.31235E-03-6.93870E-03 1.10776E-26-2.00204E-04 1.37258E-13 4.82969E-14
 -1        23 1.10226E-03-5.74664E-03 1.89761E-25-7.99845E-04-4.97690E-15 3.24399E-13
 -1        24 4.53108E-04-2.76280E-03 1.32732E-25-1.28183E-03-1.44544E-13 2.45654E-13
 -1        25-3.82129E-04 8.69651E-04 2.99057E-26-1.11934E-03-1.41544E-13-1.00582E-13
 -1        26-9.08981E-04 3.13658E-03 1.01523E-25-4.60952E-04-8.28440E-14-2.13923E-13
 -1        27-8.86366E-04 3.23626E-03 1.52938E-25 1.47078E-04-4.63067E-14-2.74824E-13
 -1        28-5.35183E-04 2.00373E-03 2.58969E-25 3.80071E-04 8.54668E-16-3.63252E-13
 -1        29-2.59720E-04 7.29510E-04 1.37441E-25 2.25324E-04 3.09176E-14-2.66199E-13
 -1        30-1.73686E-04 1.28867E-04 7.12520E-26-4.79601E-05 1.09002E-13-1.78041E-13
 -1        31-1.17682E-04 1.37207E-04 5.74120E-26-1.30333E-04 2.32145E-13 2.05960E-14
 -1        32-4.80974E-03 1.58595E-02-3.14729E-27 2.89708E-03 2.32299E-14-3.65822E-14
 -1        33-2.66285E-03 1.11336E-02 4.01574E-26 1.64474E-03 4.22748E-14 1.50729E-13
 -1        34-1.77499E-03 6.44965E-03 1.34973E-25 1.49057E-03 3.59482E-14 2.59342E-13
 -1        35-8.92785E-04 2.55856E-03 1.71094E-25 1.20244E-03-1.84355E-14 2.95626E-13
 -1        36-1.24668E-04-6.49749E-04 1.71105E-25 9.49914E-04-1.37467E-13 2.80888E-13
 -1        37 5.07045E-04-3.35345E-03 4.93223E-26 7.75139E-04-1.96802E-13-3.17384E-14
 -1        38 9.72171E-04-5.45913E-03 7.89865E-26 5.11857E-04-1.09464E-13-1.81406E-13
 -1        39 1.19779E-03-6.58643E-03 6.41907E-26 1.84773E-04 4.23650E-14-1.82689E-13
 -1        40 1.28097E-03-6.97021E-03 8.66623E-26 4.36346E-05 1.43579E-13-1.74067E-13
 -1        41 1.31235E-03-6.93870E-03 1.10777E-26-2.00204E-04 1.37258E-13 4.82977E-14
 -1        42 1.10226E-03-5.74664E-03 1.89762E-25-7.99845E-04-4.97687E-15 3.24400E-13
 -1        43 4.53108E-04-2.76280E-03 1.32732E-25-1.28183E-03-1.44544E-13 2.45653E-13
 -1        44-3.82129E-04 8.69651E-04 2.99058E-26-1.11934E-03-1.41544E-13-1.00582E-13
 -1        45-9.08981E-04 3.13658E-03 1.01523E-25-4.60952E-04-8.28440E-14-2.13922E-13
 -1        46-8.86366E-04 3.23626E-03 1.52938E-25 1.47078E-04-4.63067E-14-2.74824E-13
 -1        47-5.35183E-04 2.00373E-03 2.58969E-25 3.80071E-04 8.54624E-16-3.63252E-13
 -1        48-2.59720E-04 7.29510E-04 1.37443E-25 2.25324E-04 3.09176E-14-2.66201E-13
 -1        49-1.73686E-04 1.28867E-04 7.12518E-26-4.79601E-05 1.09002E-13-1.78041E-13
 -1        50-1.17682E-04 1.37207E-04 5.74121E-26-1.30333E-04 2.32145E-13 2.05969E-14
 -1        51-1.68137E-04 5.14348E-04 1.05328E-25-8.16673E-05-2.68825E-13 3.07794E-14
 -1        52-3.08415E-04 7.67786E-04 1.19584E-25 2.20779E-05-1.73372E-13-2.01054E-13
 -1        53-2.23083E-04 3.99961E-04 1.84269E-25 2.56784E-04-8.44870E-14-2.94452E-13
 -1        54 7.35451E-05-7.91053E-04 1.13956E-25 3.99098E-04-6.05028E-14-2.33079E-13
 -1        55 3.36766E-04-1.99212E-03 1.33198E-25 1.64650E-04-3.07002E-14-2.57401E-13
 -1        56 3.24878E-04-1.81022E-03 1.05675E-25-4.45293E-04 4.31300E-14-2.40732E-13
 -1        57-2.32221E-04 5.91525E-04 1.24175E-26-1.09480E-03 1.25112E-13 6.43319E-15
 -1        58-1.15464E-03 4.36207E-03 1.79806E-26-1.25475E-03 8.56239E-14 1.11491E-13
 -1        59-1.90133E-03 7.45346E-03 2.33312E-25-7.79308E-04-8.73160E-14 3.46568E-13
 -1        60-2.17102E-03 8.76182E-03 6.28231E-26-1.84091E-04-1.85868E-13 1.26591E-13
 -1        61-2.18767E-03 8.94143E-03 8.75089E-26 6.19749E-05-1.40135E-13-1.93630E-13
 -1        62-2.18573E-03 8.69188E-03 7.67790E-26 1.97619E-04-3.56596E-14-1.97007E-13
 -1        63-1.97955E-03 7.68276E-03 8.43865E-26 5.20443E-04 8.17188E-14-2.08956E-13
 -1        64-1.56455E-03 5.80183E-03 1.21777E-26 8.04831E-04 1.57964E-13 3.27253E-14
 -1        65-1.11222E-03 3.51962E-03 2.43164E-25 1.01399E-03 1.26138E-13 3.42330E-13
 -1        66-6.53269E-04 8.01751E-04 2.17324E-25 1.25540E-03 4.57215E-14 3.28648E-13
 -1        67 1.07046E-04-2.74020E-03 1.10028E-25 1.51572E-03-1.23379E-14 2.38597E-13
 -1        68 8.60373E-04-7.31087E-03 4.53059E-26 1.69422E-03-6.67449E-14 1.45122E-13
 -1        69 2.70636E-03-1.19560E-02 5.29342E-27 2.62924E-03-7.00642E-14 8.63181E-15
 -1        70-1.68137E-04 5.14348E-04 1.05329E-25-8.16673E-05-2.68825E-13 3.07829E-14
 -1        71-3.08415E-04 7.67786E-04 1.19584E-25 2.20779E-05-1.73372E-13-2.01054E-13
 -1        72-2.23083E-04 3.99961E-04 1.84268E-25 2.56784E-04-8.44870E-14-2.94451E-13
 -1        73 7.35451E-05-7.91053E-04 1.13956E-25 3.99098E-04-6.05028E-14-2.33080E-13
 -1        74 3.36766E-04-1.99212E-03 1.33197E-25 1.64650E-04-3.07002E-14-2.57400E-13
 -1        75 3.24878E-04-1.81022E-03 1.05675E-25-4.45293E-04 4.31300E-14-2.40732E-13
 -1        76-2.32221E-04 5.91525E-04 1.24176E-26-1.09480E-03 1.25112E-13 6.42987E-15
 -1        77-1.15464E-03 4.36207E-03 1.79809E-26-1.25475E-03 8.56240E-14 1.11492E-13
 -1        78-1.90133E-03 7.45346E-03 2.33311E-25-7.79308E-04-8.73162E-14 3.46567E-13
 -1        79-2.17102E-03 8.76182E-03 6.28235E-26-1.84091E-04-1.85868E-13 1.26590E-13
 -1        80-2.18767E-03 8.94143E-03 8.75073E-26 6.19749E-05-1.40135E-13-1.93627E-13
 -1        81-2.18573E-03 8.69188E-03 7.67789E-26 1.97619E-04-3.56594E-14-1.97007E-13
 -1        82-1.97955E-03 7.68276E-03 8.43872E-26 5.20443E-04 8.17188E-14-2.08956E-13
 -1        83-1.56455E-03 5.80183E-03 1.21778E-26 8.04831E-04 1.57964E-13 3.27249E-14
 -1        84-1.11222E-03 3.51962E-03 2.43164E-25 1.01399E-03 1.26138E-13 3.42329E-13
 -1        85-6.53269E-04 8.01751E-04 2.17326E-25 1.25540E-03 4.57215E-14 3.28649E-13
 -1        86 1.07046E-04-2.74020E-03 1.10028E-25 1.51572E-03-1.23375E-14 2.38597E-13
 -1        87 8.60373E-04-7.31087E-03 4.53059E-26 1.69422E-03-6.67449E-14 1.45122E-13
 -1        88 2.70636E-03-1.19560E-02 5.29343E-27 2.62924E-03-7.00642E-14 8.63182E-15
 -1        89-1.05169E-03 1.92023E-03-4.53495E-27 2.32471E-03-1.90137E-14-1.65486E-14
 -1        90-9.01240E-04 1.98307E-03 4.08636E-26 2.37299E-03-1.52561E-14 1.54399E-13
 -1        91-8.33971E-04 1.83658E-03 1.17188E-25 1.91373E-03 2.11235E-14 2.45161E-13
 -1        92-7.73027E-04 1.68511E-03 2.64318E-25 1.58761E-03 2.50451E-14 3.65282E-13
 -1        93-6.18446E-04 1.41791E-03 1.58494E-25 1.27088E-03-5.07267E-15 2.99088E-13
 -1        94-5.28755E-04 1.19322E-03-3.12242E-26 1.03551E-03-3.61433E-14 9.23662E-15
 -1        95-5.03687E-04 1.09431E-03 9.24825E-26 6.80104E-04-3.07408E-14-2.26599E-13
 -1        96-4.93972E-04 1.04151E-03 9.69176E-26 2.55821E-04-4.08485E-16-2.20490E-13
 -1        97-4.53350E-04 9.68704E-04 4.78907E-26 6.52947E-05 1.08594E-14-1.83541E-13
 -1        98-4.29335E-04 9.00951E-04-1.38625E-26-2.50308E-04-8.04344E-15 9.70762E-14
 -1        99-3.99536E-04 8.49229E-04 2.35477E-25-1.02400E-03-6.32859E-14 3.46887E-13
 -1       100-3.50764E-04 7.86512E-04 7.80079E-26-1.66248E-03-7.33781E-15 2.26965E-13
 -1       101-3.07175E-04 7.18083E-04-9.55955E-27-1.46230E-03 1.48885E-14-9.14592E-14
 -1       102-2.92052E-04 6.67049E-04 9.17094E-26-5.87265E-04-3.83145E-14-2.16231E-13
 -1       103-2.74800E-04 6.20313E-04 1.54748E-25 2.33985E-04-8.99914E-15-2.78909E-13
 -1       104-2.30819E-04 5.80560E-04 1.75293E-25 5.37908E-04-4.57569E-14-2.94109E-13
 -1       105-2.41401E-04 5.55064E-04 1.36461E-25 3.33992E-04-5.48053E-14-2.57368E-13
 -1       106-2.41051E-04 4.83725E-04 7.32248E-26-2.05631E-06-1.05767E-14-2.08756E-13
 -1       107-1.42910E-04 4.45255E-04-4.38793E-26-1.26826E-04-2.13454E-14-1.35180E-15
 -1       108-1.42910E-04 4.45255E-04-4.38796E-26-1.26826E-04-2.13453E-14-1.35309E-15
 -1       109-2.41051E-04 4.83725E-04 7.32238E-26-2.05631E-06-1.05767E-14-2.08755E-13
 -1       110-2.41401E-04 5.55064E-04 1.36462E-25 3.33992E-04-5.48054E-14-2.57369E-13
 -1       111-2.30819E-04 5.80560E-04 1.75292E-25 5.37908E-04-4.57567E-14-2.94109E-13
 -1       112-2.74800E-04 6.20313E-04 1.54748E-25 2.33985E-04-8.99919E-15-2.78910E-13
 -1       113-2.92052E-04 6.67049E-04 9.17092E-26-5.87265E-04-3.83146E-14-2.16231E-13
 -1       114-3.07175E-04 7.18083E-04-9.55985E-27-1.46230E-03 1.48885E-14-9.14591E-14
 -1       115-3.50764E-04 7.86512E-04 7.80081E-26-1.66248E-03-7.33781E-15 2.26966E-13
 -1       116-3.99536E-04 8.49229E-04 2.35475E-25-1.02400E-03-6.32859E-14 3.46885E-13
 -1       117-4.29335E-04 9.00951E-04-1.38626E-26-2.50308E-04-8.04356E-15 9.70748E-14
 -1       118-4.53350E-04 9.68704E-04 4.78903E-26 6.52947E-05 1.08594E-14-1.83540E-13
 -1       119-4.93972E-04 1.04151E-03 9.69178E-26 2.55821E-04-4.08516E-16-2.20490E-13
 -1       120-5.03687E-04 1.09431E-03 9.24813E-26 6.80104E-04-3.07407E-14-2.26598E-13
 -1       121-5.28755E-04 1.19322E-03-3.12242E-26 1.03551E-03-3.61432E-14 9.23982E-15
 -1       122-6.18446E-04 1.41791E-03 1.58494E-25 1.27088E-03-5.07256E-15 2.99088E-13
 -1       123-7.73027E-04 1.68511E-03 2.64316E-25 1.58761E-03 2.50449E-14 3.65281E-13
 -1       124-8.33971E-04 1.83658E-03 1.17188E-25 1.91373E-03 2.11234E-14 2.45161E-13
 -1       125-9.01240E-04 1.98307E-03 4.08637E-26 2.37299E-03-1.52561E-14 1.54399E-13
 -1       126-1.05169E-03 1.92023E-03-4.53496E-27 2.32471E-03-1.90137E-14-1.65486E-14
 -3
    1PSTEP                        48          12           1          
  100CL  112 1.20000E-01         126                     1   12           1
 -4  ERROR       1    1
 -5  STR(%)      1    1    0    0
 -1         1 5.75064E+01
 -1         2 5.75064E+01
 -1         3 2.06854E+01
 -1         4 2.06854E+01
 -1         5 1.73177E+01
 -1         6 1.73177E+01
 -1         7 7.18332E+01
 -1         8 7.18332E+01
 -1         9 2.06854E+01
 -1        10 2.06854E+01
 -1        11 7.18332E+01
 -1        12 7.18332E+01
 -1        13 5.75064E+01
 -1        14 4.83900E+01
 -1        15 4.26319E+01
 -1        16 2.94015E+01
 -1        17 7.03160E+01
 -1        18 7.90594E+01
 -1        19 7.90594E+01
 -1        20 7.41193E+01
 -1        21 6.96395E+01
 -1        22 7.12850E+01
 -1        23 7.12850E+01
 -1        24 6.59672E+01
 -1        25 5.32256E+01
 -1        26 4.72847E+01
 -1        27 4.72847E+01
 -1        28 4.28466E+01
 -1        29 3.73770E+01
 -1        30 5.13761E+01
 -1        31 5.13761E+01
 -1        32 5.75064E+01
 -1        33 4.83900E+01
 -1        34 4.26319E+01
 -1        35 2.94015E+01
 -1        36 7.03160E+01
 -1        37 7.90594E+01
 -1        38 7.90594E+01
 -1        39 7.41193E+01
 -1        40 6.96395E+01
 -1        41 7.12850E+01
 -1        42 7.12850E+01
 -1        43 6.59672E+01
 -1        44 5.32256E+01
 -1        45 4.72847E+01
 -1        46 4.72847E+01
 -1        47 4.28466E+01
 -1        48 3.73770E+01
 -1        49 5.13761E+01
 -1        50 5.13761E+01
 -1        51 1.73760E+01
 -1        52 1.73760E+01
 -1        53 4.85010E+01
 -1        54 7.41256E+01
 -1        55 7.65032E+01
 -1        56 7.65032E+01
 -1        57 4.38299E+01
 -1        58 4.89675E+01
 -1        59 5.38473E+01
 -1        60 5.38473E+01
 -1        61 5.28473E+01
 -1        62 5.20770E+01
 -1        63 5.19681E+01
 -1        64 4.96179E+01
 -1        65 3.93523E+01
 -1        66 6.23487E+01
 -1        67 6.93307E+01
 -1        68 7.22044E+01
 -1        69 7.22044E+01
 -1        70 1.73760E+01
 -1        71 1.73760E+01
 -1        72 4.85010E+01
 -1        73 7.41256E+01
 -1        74 7.65032E+01
 -1        75 7.65032E+01
 -1        76 4.38299E+01
 -1        77 4.89675E+01
 -1        78 5.38473E+01
 -1        79 5.38473E+01
 -1        80 5.28473E+01
 -1        81 5.20770E+01
 -1        82 5.19681E+01
 -1        83 4.96179E+01
 -1        84 3.93523E+01
 -1        85 6.23487E+01
 -1        86 6.93307E+01
 -1        87 7.22044E+01
 -1        88 7.22044E+01
 -1        89 7.22044E+01
 -1        90 7.22044E+01
 -1        91 6.93307E+01
 -1        92 6.23487E+01
 -1        93 7.03160E+01
 -1        94 7.90594E+01
 -1        95 7.90594E+01
 -1        96 7.41193E+01
 -1        97 6.96395E+01
 -1        98 7.12850E+01
 -1        99 7.12850E+01
 -1       100 6.59672E+01
 -1       101 5.32256E+01
 -1       102 7.65032E+01
 -1       103 7.65032E+01
 -1       104 7.41256E+01
 -1       105 4.85010E+01
 -1       106 5.13761E+01
 -1       107 5.13761E+01
 -1       108 5.13761E+01
 -1       109 5.13761E+01
 -1       110 4.85010E+01
 -1       111 7.41256E+01
 -1       112 7.65032E+01
 -1       113 7.65032E+01
 -1       114 5.32256E+01
 -1       115 6.59672E+01
 -1       116 7.12850E+01
 -1       117 7.12850E+01
 -1       118 6.96395E+01
 -1       119 7.41193E+01
 -1       120 7.90594E+01
 -1       121 7.90594E+01
 -1       122 7.03160E+01
 -1       123 6.23487E+01
 -1       124 6.93307E+01
 -1       125 7.22044E+01
 -1       126 7.22044E+01
 -3
    1PSTEP                        49          13           1          
  100CL  113 1.30000E-01         126                     1   13           1
 -4  DISP        4    1
 -5  D1          1    2    1    0
 -5  D2          1    2    2    0
 -5  D3          1    2    3    0
 -5  ALL         1    2    0    0    1ALL
 -1         1 0.00000E+00 0.00000E+00 0.00000E+00
 -1         2 0.00000E+00 0.00000E+00 0.00000E+00
 -1         3 1.20474E-02 6.74618E-04 0.00000E+00
 -1         4 1.20474E-02 6.74618E-04 0.00000E+00
 -1         5 1.20391E-02 9.59156E-04 0.00000E+00
 -1         6 1.20391E-02 9.59156E-04 0.00000E+00
 -1         7 0.00000E+00 0.00000E+00 0.00000E+00
 -1         8 0.00000E+00 0.00000E+00 0.00000E+00
 -1         9 1.20397E-02 8.30133E-04 0.00000E+00
 -1        10 1.20397E-02 8.30133E-04 0.00000E+00
 -1        11 0.00000E+00 0.00000E+00 0.00000E+00
 -1        12 0.00000E+00 0.00000E+00 0.00000E+00
 -1        13 9.16199E-04 9.29917E-04 0.00000E+00
 -1        14 2.32775E-03 1.63032E-03 0.00000E+00
 -1        15 4.21349E-03 2.05667E-03 0.00000E+00
 -1        16 6.31385E-03 2.26420E-03 0.00000E+00
 -1        17 8.46634E-03 2.29210E-03 0.00000E+00
 -1        18 1.05060E-02 2.17647E-03 0.00000E+00
 -1        19 1.23006E-02 1.94626E-03 0.00000E+00
 -1        20 1.37589E-02 1.62376E-03 0.00000E+00
 -1        21 1.47631E-02 1.25652E-03 0.00000E+00
 -1        22 1.53178E-02 8.97242E-04 0.00000E+00
 -1        23 1.54711E-02 5.55169E-04 0.00000E+00
 -1        24 1.52152E-02 2.44630E-04 0.00000E+00
 -1        25 1.45755E-02 4.42680E-05 0.00000E+00
 -1        26 1.37636E-02 3.42738E-05 0.00000E+00
 -1        27 1.30676E-02 1.94375E-04 0.00000E+00
 -1        28 1.26589E-02 4.04817E-04 0.00000E+00
 -1        29 1.24640E-02 5.54591E-04 0.00000E+00
 -1        30 1.23348E-02 6.24757E-04 0.00000E+00
 -1        31 1.21976E-02 6.56382E-04 0.00000E+00
 -1        32 9.16199E-04 9.29917E-04 0.00000E+00
 -1        33 2.32775E-03 1.63032E-03 0.00000E+00
 -1        34 4.21349E-03 2.05667E-03 0.00000E+00
 -1        35 6.31385E-03 2.26420E-03 0.00000E+00
 -1        36 8.46634E-03 2.29210E-03 0.00000E+00
 -1        37 1.05060E-02 2.17647E-03 0.00000E+00
 -1        38 1.23006E-02 1.94626E-03 0.00000E+00
 -1        39 1.37589E-02 1.62376E-03 0.00000E+00
 -1        40 1.47631E-02 1.25652E-03 0.00000E+00
 -1        41 1.53178E-02 8.97242E-04 0.00000E+00
 -1        42 1.54711E-02 5.55169E-04 0.00000E+00
 -1        43 1.52152E-02 2.44630E-04 0.00000E+00
 -1        44 1.45755E-02 4.42680E-05 0.00000E+00
 -1        45 1.37636E-02 3.42738E-05 0.00000E+00
 -1        46 1.30676E-02 1.94375E-04 0.00000E+00
 -1        47 1.26589E-02 4.04817E-04 0.00000E+00
 -1        48 1.24640E-02 5.54591E-04 0.00000E+00
 -1        49 1.23348E-02 6.24757E-04 0.00000E+00
 -1        50 1.21976E-02 6.56382E-04 0.00000E+00
 -1        51 1.21855E-02 9.44652E-04 0.00000E+00
 -1        52 1.23211E-02 9.32088E-04 0.00000E+00
 -1        53 1.24359E-02 9.57540E-04 0.00000E+00
 -1        54 1.26265E-02 1.05368E-03 0.00000E+00
 -1        55 1.30311E-02 1.20556E-03 0.00000E+00
 -1        56 1.37207E-02 1.30843E-03 0.00000E+00
 -1        57 1.45279E-02 1.23894E-03 0.00000E+00
 -1        58 1.51700E-02 9.70172E-04 0.00000E+00
 -1        59 1.54226E-02 5.77531E-04 0.00000E+00
 -1        60 1.52597E-02 1.39537E-04 0.00000E+00
 -1        61 1.46870E-02-3.22879E-04 0.00000E+00
 -1        62 1.36641E-02-7.87645E-04 0.00000E+00
 -1        63 1.21832E-02-1.19361E-03 0.00000E+00
 -1        64 1.03654E-02-1.49742E-03 0.00000E+00
 -1        65 8.30602E-03-1.68131E-03 0.00000E+00
 -1        66 6.15074E-03-1.72446E-03 0.00000E+00
 -1        67 4.05566E-03-1.60546E-03 0.00000E+00
 -1        68 2.17753E-03-1.30010E-03 0.00000E+00
 -1        69 7.98511E-04-7.54117E-04 0.00000E+00
 -1        70 1.21855E-02 9.44652E-04 0.00000E+00
 -1        71 1.23211E-02 9.32088E-04 0.00000E+00
 -1        72 1.24359E-02 9.57540E-04 0.00000E+00
 -1        73 1.26265E-02 1.05368E-03 0.00000E+00
 -1        74 1.30311E-02 1.20556E-03 0.00000E+00
 -1        75 1.37207E-02 1.30843E-03 0.00000E+00
 -1        76 1.45279E-02 1.23894E-03 0.00000E+00
 -1        77 1.51700E-02 9.70172E-04 0.00000E+00
 -1        78 1.54226E-02 5.77531E-04 0.00000E+00
 -1        79 1.52597E-02 1.39537E-04 0.00000E+00
 -1        80 1.46870E-02-3.22879E-04 0.00000E+00
 -1        81 1.36641E-02-7.87645E-04 0.00000E+00
 -1        82 1.21832E-02-1.19361E-03 0.00000E+00
 -1        83 1.03654E-02-1.49742E-03 0.00000E+00
 -1        84 8.30602E-03-1.68131E-03 0.00000E+00
 -1        85 6.15074E-03-1.72446E-03 0.00000E+00
 -1        86 4.05566E-03-1.60546E-03 0.00000E+00
 -1        87 2.17753E-03-1.30010E-03 0.00000E+00
 -1        88 7.98511E-04-7.54117E-04 0.00000E+00
 -1        89 6.44159E-04 8.02167E-05 0.00000E+00
 -1        90 2.14281E-03 1.69032E-04 0.00000E+00
 -1        91 4.06845E-03 2.31679E-04 0.00000E+00
 -1        92 6.20816E-03 2.72523E-04 0.00000E+00
 -1        93 8.39509E-03 3.06596E-04 0.00000E+00
 -1        94 1.04677E-02 3.39930E-04 0.00000E+00
 -1        95 1.23019E-02 3.75059E-04 0.00000E+00
 -1        96 1.37886E-02 4.16383E-04 0.00000E+00
 -1        97 1.48065E-02 4.66688E-04 0.00000E+00
 -1        98 1.53620E-02 5.19674E-04 0.00000E+00
 -1        99 1.55196E-02 5.67949E-04 0.00000E+00
 -1       100 1.52506E-02 6.09057E-04 0.00000E+00
 -1       101 1.45744E-02 6.43001E-04 0.00000E+00
 -1       102 1.37179E-02 6.72270E-04 0.00000E+00
 -1       103 1.30042E-02 7.00179E-04 0.00000E+00
 -1       104 1.26012E-02 7.29509E-04 0.00000E+00
 -1       105 1.24259E-02 7.58807E-04 0.00000E+00
 -1       106 1.23145E-02 7.83013E-04 0.00000E+00
 -1       107 1.21863E-02 8.06217E-04 0.00000E+00
 -1       108 1.21863E-02 8.06217E-04 0.00000E+00
 -1       109 1.23145E-02 7.83013E-04 0.00000E+00
 -1       110 1.24259E-02 7.58807E-04 0.00000E+00
 -1       111 1.26012E-02 7.29509E-04 0.00000E+00
 -1       112 1.30042E-02 7.00179E-04 0.00000E+00
 -1       113 1.37179E-02 6.72270E-04 0.00000E+00
 -1       114 1.45744E-02 6.43001E-04 0.00000E+00
 -1       115 1.52506E-02 6.09057E-04 0.00000E+00
 -1       116 1.55196E-02 5.67949E-04 0.00000E+00
 -1       117 1.53620E-02 5.19674E-04 0.00000E+00
 -1       118 1.48065E-02 4.66688E-04 0.00000E+00
 -1       119 1.37886E-02 4.16383E-04 0.00000E+00
 -1       120 1.23019E-02 3.75059E-04 0.00000E+00
 -1       121 1.04677E-02 3.39930E-04 0.00000E+00
 -1       122 8.39509E-03 3.06596E-04 0.00000E+00
 -1       123 6.20816E-03 2.72523E-04 0.00000E+00
 -1       124 4.06845E-03 2.31679E-04 0.00000E+00
 -1       125 2.14281E-03 1.69032E-04 0.00000E+00
 -1       126 6.44159E-04 8.02167E-05 0.00000E+00
 -3
    1PSTEP                        50          13           1          
  100CL  113 1.30000E-01         126                     1   13           1
 -4  STRESS      6    1
 -5  SXX         1    4    1    1
 -5  SYY         1    4    2    2
 -5  SZZ         1    4    3    3
 -5  SXY         1    4    1    2
 -5  SYZ         1    4    2    3
 -5  SZX         1    4    3    1
 -1         1 4.38198E+03 1.03261E+04 4.29053E+03 2.98892E+03 8.27695E-12 2.91984E-11
 -1         2 4.38198E+03 1.03261E+04 4.29053E+03 2.98892E+03 8.27695E-12 2.91984E-11
 -1         3 4.38408E+00 1.64428E+02 5.06078E+01 1.61952E+01 1.65685E-08 6.92689E-08
 -1         4 4.38408E+00 1.64428E+02 5.06078E+01 1.61952E+01 1.65685E-08 6.92692E-08
 -1         5 6.39568E+01 1.56456E+02 6.60877E+01-5.37123E+01-2.22369E-08 5.71781E-08
 -1         6 6.39568E+01 1.56456E+02 6.60877E+01-5.37123E+01-2.22369E-08 5.71785E-08
 -1         7-3.40875E+03-7.92712E+03-3.47715E+03 2.33827E+03-2.44714E-11 3.72584E-11
 -1         8-3.40875E+03-7.92712E+03-3.47715E+03 2.33827E+03-2.44714E-11 3.72584E-11
 -1         9 6.89329E+01 2.41782E+02 9.31407E+01-1.36379E+01-1.38686E-08 7.54261E-08
 -1        10 6.89329E+01 2.41782E+02 9.31407E+01-1.36379E+01-1.38686E-08 7.54255E-08
 -1        11 4.28875E+02 8.51837E+02 3.89020E+02 1.98974E+03-1.37292E-11 1.96218E-11
 -1        12 4.28875E+02 8.51837E+02 3.89020E+02 1.98974E+03-1.37292E-11 1.96218E-11
 -1        13 1.03602E+03 7.87812E+03 2.60974E+03 1.05639E+03 9.35062E-09 1.93786E-09
 -1        14 1.01160E+03 5.68196E+03 1.97196E+03 6.59864E+02 5.58631E-09-2.49483E-08
 -1        15 4.87403E+02 3.32822E+03 1.13057E+03 5.77592E+02-4.26700E-09-3.59909E-08
 -1        16 7.73994E+01 1.42673E+03 4.47230E+02 4.44891E+02-1.32135E-08-2.31249E-08
 -1        17-3.13007E+02-1.71687E+02-1.46455E+02 3.43407E+02-2.43105E-08-5.86833E-08
 -1        18-6.56700E+02-1.49925E+03-6.49228E+02 2.31304E+02-2.29466E-08-8.52345E-08
 -1        19-8.60721E+02-2.56417E+03-1.03357E+03 1.41666E+02-4.98809E-09-1.18293E-07
 -1        20-1.03586E+03-3.31861E+03-1.31677E+03 4.51338E+01 2.91039E-08-1.47130E-07
 -1        21-1.11115E+03-3.58157E+03-1.41972E+03-5.09152E+01 5.74013E-08-5.62652E-08
 -1        22-1.12031E+03-3.51886E+03-1.40306E+03-8.02941E+01 6.15488E-08 5.20820E-08
 -1        23-9.79593E+02-3.26036E+03-1.28208E+03-1.16343E+02 3.88402E-08 1.35377E-07
 -1        24-7.66084E+02-2.54409E+03-1.00003E+03-2.47859E+02-1.16665E-08 1.15878E-07
 -1        25-4.23550E+02-1.06923E+03-4.50346E+02-3.85848E+02-5.47416E-08 4.10029E-08
 -1        26-6.52081E+01 6.72027E+02 1.80119E+02-3.61776E+02-5.82395E-08-5.35983E-08
 -1        27 2.21088E+02 1.75721E+03 5.89483E+02-1.51853E+02-2.64877E-08-1.11744E-07
 -1        28 2.27725E+02 1.70047E+03 5.75033E+02 6.57847E+01 1.27785E-08-7.09672E-08
 -1        29 1.02091E+02 1.01837E+03 3.34772E+02 1.28431E+02 3.48727E-08-2.42351E-08
 -1        30 1.94606E+01 4.58923E+02 1.43203E+02 7.66386E+01 3.87677E-08 1.56922E-08
 -1        31-3.34961E+00 2.19927E+02 6.49006E+01 1.86609E+01 2.94997E-08 4.46282E-08
 -1        32 1.03602E+03 7.87812E+03 2.60974E+03 1.05639E+03 9.35062E-09 1.93786E-09
 -1        33 1.01160E+03 5.68196E+03 1.97196E+03 6.59864E+02 5.58630E-09-2.49483E-08
 -1        34 4.87403E+02 3.32822E+03 1.13057E+03 5.77592E+02-4.26700E-09-3.59909E-08
 -1        35 7.73994E+01 1.42673E+03 4.47230E+02 4.44891E+02-1.32135E-08-2.31247E-08
 -1        36-3.13007E+02-1.71687E+02-1.46455E+02 3.43407E+02-2.43105E-08-5.86833E-08
 -1        37-6.56700E+02-1.49925E+03-6.49228E+02 2.31304E+02-2.29466E-08-8.52353E-08
 -1        38-8.60721E+02-2.56417E+03-1.03357E+03 1.41666E+02-4.98810E-09-1.18293E-07
 -1        39-1.03586E+03-3.31861E+03-1.31677E+03 4.51338E+01 2.91040E-08-1.47130E-07
 -1        40-1.11115E+03-3.58157E+03-1.41972E+03-5.09152E+01 5.74013E-08-5.62652E-08
 -1        41-1.12031E+03-3.51886E+03-1.40306E+03-8.02941E+01 6.15488E-08 5.20820E-08
 -1        42-9.79593E+02-3.26036E+03-1.28208E+03-1.16343E+02 3.88402E-08 1.35377E-07
 -1        43-7.66084E+02-2.54409E+03-1.00003E+03-2.47859E+02-1.16665E-08 1.15878E-07
 -1        44-4.23550E+02-1.06923E+03-4.50346E+02-3.85848E+02-5.47415E-08 4.10024E-08
 -1        45-6.52081E+01 6.72027E+02 1.80119E+02-3.61776E+02-5.82395E-08-5.35986E-08
 -1        46 2.21088E+02 1.75721E+03 5.89483E+02-1.51853E+02-2.64877E-08-1.11744E-07
 -1        47 2.27725E+02 1.70047E+03 5.75033E+02 6.57847E+01 1.27785E-08-7.09668E-08
 -1        48 1.02091E+02 1.01837E+03 3.34772E+02 1.28431E+02 3.48727E-08-2.42349E-08
 -1        49 1.94606E+01 4.58923E+02 1.43203E+02 7.66386E+01 3.87678E-08 1.56917E-08
 -1        50-3.34961E+00 2.19927E+02 6.49006E+01 1.86609E+01 2.94997E-08 4.46292E-08
 -1        51 5.73876E+01 1.45312E+02 6.07883E+01-8.02955E+00-2.32705E-08 4.56683E-08
 -1        52 4.46959E+01-3.54878E+01 2.72088E+00 7.35274E+01-2.34524E-08 1.24938E-08
 -1        53-1.67583E+02-6.01676E+02-2.31231E+02 1.42185E+02-4.12535E-08-1.63881E-08
 -1        54-2.84194E+02-1.19862E+03-4.46399E+02 8.46826E+01-3.92839E-08-1.05133E-07
 -1        55-2.50237E+02-1.20002E+03-4.36983E+02-1.23378E+02-3.18240E-09-1.05958E-07
 -1        56 3.39238E+01-9.41293E+01-1.93428E+01-3.45431E+02 3.59695E-08-4.16387E-08
 -1        57 3.54667E+02 1.68244E+03 6.06529E+02-4.06555E+02 5.99180E-08 1.77407E-08
 -1        58 6.91955E+02 3.24977E+03 1.17065E+03-2.77612E+02 3.79291E-08 1.49764E-07
 -1        59 8.77624E+02 4.07868E+03 1.46991E+03-1.10728E+02-2.40535E-08 1.07760E-07
 -1        60 1.00290E+03 4.46081E+03 1.61928E+03-2.55410E+01-6.71796E-08 5.24545E-08
 -1        61 9.57223E+02 4.60594E+03 1.64741E+03 5.48433E+01-6.14860E-08-4.78576E-08
 -1        62 9.11462E+02 4.40557E+03 1.57486E+03 1.92009E+02-1.94762E-08-1.28789E-07
 -1        63 7.70783E+02 3.70956E+03 1.32940E+03 2.98441E+02 1.20986E-08-1.29439E-07
 -1        64 5.86624E+02 2.71580E+03 9.82097E+02 3.54649E+02 1.88405E-08-9.17974E-08
 -1        65 2.26879E+02 1.45128E+03 4.99951E+02 3.94608E+02 1.40384E-08-5.67115E-08
 -1        66-1.21888E+02-3.30694E+01-4.76228E+01 3.96656E+02 1.03415E-08-4.52633E-08
 -1        67-5.34525E+02-1.78752E+03-7.00371E+02 4.33489E+02 1.04950E-08-3.54279E-08
 -1        68-1.20050E+03-4.02116E+03-1.58274E+03 4.40565E+02 1.21493E-08-1.64847E-08
 -1        69-1.16510E+03-6.04195E+03-2.19815E+03 7.22563E+02 9.33872E-09-7.43451E-09
 -1        70 5.73876E+01 1.45312E+02 6.07883E+01-8.02955E+00-2.32705E-08 4.56678E-08
 -1        71 4.46959E+01-3.54878E+01 2.72088E+00 7.35274E+01-2.34523E-08 1.24939E-08
 -1        72-1.67583E+02-6.01676E+02-2.31231E+02 1.42185E+02-4.12536E-08-1.63884E-08
 -1        73-2.84194E+02-1.19862E+03-4.46399E+02 8.46826E+01-3.92839E-08-1.05134E-07
 -1        74-2.50237E+02-1.20002E+03-4.36983E+02-1.23378E+02-3.18241E-09-1.05958E-07
 -1        75 3.39238E+01-9.41294E+01-1.93428E+01-3.45431E+02 3.59695E-08-4.16387E-08
 -1        76 3.54667E+02 1.68244E+03 6.06529E+02-4.06555E+02 5.99181E-08 1.77404E-08
 -1        77 6.91955E+02 3.24977E+03 1.17065E+03-2.77612E+02 3.79291E-08 1.49763E-07
 -1        78 8.77624E+02 4.07868E+03 1.46991E+03-1.10728E+02-2.40535E-08 1.07762E-07
 -1        79 1.00290E+03 4.46081E+03 1.61928E+03-2.55410E+01-6.71796E-08 5.24548E-08
 -1        80 9.57223E+02 4.60594E+03 1.64741E+03 5.48433E+01-6.14860E-08-4.78584E-08
 -1        81 9.11462E+02 4.40557E+03 1.57486E+03 1.92009E+02-1.94762E-08-1.28789E-07
 -1        82 7.70783E+02 3.70956E+03 1.32940E+03 2.98441E+02 1.20986E-08-1.29439E-07
 -1        83 5.86624E+02 2.71580E+03 9.82097E+02 3.54649E+02 1.88405E-08-9.17972E-08
 -1        84 2.26879E+02 1.45128E+03 4.99951E+02 3.94608E+02 1.40384E-08-5.67130E-08
 -1        85-1.21888E+02-3.30694E+01-4.76228E+01 3.96656E+02 1.03414E-08-4.52635E-08
 -1        86-5.34525E+02-1.78752E+03-7.00371E+02 4.33489E+02 1.04951E-08-3.54280E-08
 -1        87-1.20050E+03-4.02116E+03-1.58274E+03 4.40565E+02 1.21493E-08-1.64847E-08
 -1        88-1.16510E+03-6.04195E+03-2.19815E+03 7.22563E+02 9.33872E-09-7.43452E-09
 -1        89-4.55686E+01 7.46445E+02 2.10810E+02 7.14957E+02 7.85017E-09-4.96614E-09
 -1        90-3.13029E+01 8.25396E+02 2.39062E+02 7.75524E+02 6.85956E-09-1.61153E-08
 -1        91-5.49590E+00 7.44273E+02 2.20569E+02 6.36837E+02-1.15294E-09-2.93389E-08
 -1        92-1.51254E+01 6.74043E+02 1.96244E+02 5.36054E+02-9.68518E-10-4.52243E-08
 -1        93-3.45024E+01 6.29905E+02 1.77454E+02 4.55288E+02-9.23796E-10-5.23259E-08
 -1        94-2.85164E+01 5.83780E+02 1.66218E+02 3.70876E+02-1.51393E-09-8.99247E-08
 -1        95-3.88796E+01 5.29937E+02 1.47840E+02 2.88289E+02 7.86695E-09-1.30078E-07
 -1        96-5.28041E+01 4.98019E+02 1.34531E+02 1.50289E+02 6.55911E-09-1.43143E-07
 -1        97-6.62406E+01 4.68845E+02 1.22332E+02-5.16210E+00-3.13565E-09-6.08936E-08
 -1        98-5.14989E+01 4.24456E+02 1.13874E+02-6.68333E+01-8.60034E-09 5.43859E-08
 -1        99-4.64429E+01 3.63623E+02 9.63232E+01-1.37138E+02 1.12291E-08 1.36074E-07
 -1       100-3.20199E+01 3.22573E+02 8.70834E+01-3.39869E+02 7.98704E-09 1.40149E-07
 -1       101-2.76890E+01 2.96787E+02 7.99988E+01-5.22924E+02-6.44744E-09 4.02338E-08
 -1       102-1.16366E+01 2.82499E+02 8.03625E+01-4.58064E+02-4.84893E-09-6.05188E-08
 -1       103-1.41095E+01 2.66960E+02 7.51925E+01-1.63854E+02-1.95322E-08-1.17034E-07
 -1       104-2.24431E+01 2.55953E+02 6.98782E+01 1.07792E+02-1.08004E-08-9.21586E-08
 -1       105-2.30142E+01 2.28500E+02 6.15771E+01 1.78403E+02 2.92353E-10-2.51473E-08
 -1       106 3.86945E+01 2.27169E+02 7.96640E+01 1.04099E+02-2.43293E-09 1.43871E-08
 -1       107 4.68490E+01 2.29212E+02 8.27499E+01 2.05084E+01-7.69424E-09 4.39761E-08
 -1       108 4.68490E+01 2.29212E+02 8.27499E+01 2.05084E+01-7.69424E-09 4.39750E-08
 -1       109 3.86945E+01 2.27169E+02 7.96640E+01 1.04099E+02-2.43295E-09 1.43868E-08
 -1       110-2.30142E+01 2.28500E+02 6.15771E+01 1.78403E+02 2.92382E-10-2.51468E-08
 -1       111-2.24431E+01 2.55953E+02 6.98782E+01 1.07792E+02-1.08004E-08-9.21592E-08
 -1       112-1.41095E+01 2.66960E+02 7.51925E+01-1.63854E+02-1.95322E-08-1.17034E-07
 -1       113-1.16366E+01 2.82499E+02 8.03625E+01-4.58064E+02-4.84889E-09-6.05190E-08
 -1       114-2.76890E+01 2.96787E+02 7.99988E+01-5.22924E+02-6.44748E-09 4.02347E-08
 -1       115-3.20199E+01 3.22573E+02 8.70834E+01-3.39869E+02 7.98704E-09 1.40149E-07
 -1       116-4.64429E+01 3.63623E+02 9.63232E+01-1.37138E+02 1.12291E-08 1.36074E-07
 -1       117-5.14989E+01 4.24456E+02 1.13874E+02-6.68333E+01-8.60029E-09 5.43858E-08
 -1       118-6.62406E+01 4.68845E+02 1.22332E+02-5.16210E+00-3.13568E-09-6.08935E-08
 -1       119-5.28041E+01 4.98019E+02 1.34531E+02 1.50289E+02 6.55908E-09-1.43143E-07
 -1       120-3.88796E+01 5.29937E+02 1.47840E+02 2.88289E+02 7.86697E-09-1.30078E-07
 -1       121-2.85164E+01 5.83780E+02 1.66218E+02 3.70876E+02-1.51396E-09-8.99248E-08
 -1       122-3.45024E+01 6.29905E+02 1.77454E+02 4.55288E+02-9.23807E-10-5.23256E-08
 -1       123-1.51254E+01 6.74043E+02 1.96244E+02 5.36054E+02-9.68539E-10-4.52246E-08
 -1       124-5.49590E+00 7.44273E+02 2.20569E+02 6.36837E+02-1.15294E-09-2.93388E-08
 -1       125-3.13029E+01 8.25396E+02 2.39062E+02 7.75524E+02 6.85955E-09-1.61153E-08
 -1       126-4.55686E+01 7.46445E+02 2.10810E+02 7.14957E+02 7.85018E-09-4.96613E-09
 -3
    1PSTEP                        51          13           1          
  100CL  113 1.30000E-01         126                     1   13           1
 -4  TOSTRAIN    6    1
 -5  EXX         1    4    1    1
 -5  EYY         1    4    2    2
 -5  EZZ         1    4    3    3
 -5  EXY         1    4    1    2
 -5  EYZ         1    4    2    3
 -5  EZX         1    4    3    1
 -1         1-2.64430E-05 1.89122E-02-2.70321E-28 9.16181E-03-5.56874E-19 8.87179E-17
 -1         2-2.64430E-05 1.89122E-02-2.70321E-28 9.16181E-03-5.56874E-19 8.87179E-17
 -1         3-1.49932E-04 3.69277E-04 1.01127E-25 5.41982E-05 5.31202E-14 2.25294E-13
 -1         4-1.49932E-04 3.69277E-04 1.01128E-25 5.41982E-05 5.31202E-14 2.25295E-13
 -1         5-7.94393E-06 2.94400E-04 7.78182E-26-1.73610E-04-7.27173E-14 1.85592E-13
 -1         6-7.94393E-06 2.94400E-04 7.78191E-26-1.73610E-04-7.27173E-14 1.85594E-13
 -1         7-2.40515E-05-1.48648E-02-5.21383E-28 7.98496E-03-4.85863E-19 1.00338E-16
 -1         8-2.40515E-05-1.48648E-02-5.21383E-28 7.98496E-03-4.85863E-19 1.00338E-16
 -1         9-7.89378E-05 4.82711E-04 1.18366E-25-4.26219E-05-4.57405E-14 2.44972E-13
 -1        10-7.89378E-05 4.82711E-04 1.18364E-25-4.26219E-05-4.57405E-14 2.44970E-13
 -1        11-2.52473E-05 1.66327E-03-2.88826E-28 6.44144E-03-4.43290E-19 6.87262E-17
 -1        12-2.52473E-05 1.66327E-03-2.88826E-28 6.44144E-03-4.43290E-19 6.87262E-17
 -1        13-5.30108E-03 1.67019E-02 2.66133E-28 2.93978E-03 2.99228E-14 5.60476E-15
 -1        14-3.27346E-03 1.18807E-02 1.20088E-26 1.64780E-03 1.56113E-14-8.15804E-14
 -1        15-2.23307E-03 7.15508E-03 2.70443E-26 1.50696E-03-1.79759E-14-1.16304E-13
 -1        16-1.31869E-03 3.26255E-03 1.02994E-26 1.25563E-03-4.57449E-14-7.32828E-14
 -1        17-6.35910E-04 3.04962E-06 7.97286E-26 1.09307E-03-8.65459E-14-1.87425E-13
 -1        18-9.18146E-05-2.71524E-03 1.59529E-25 8.54681E-04-8.50485E-14-2.74362E-13
 -1        19 5.15462E-04-4.97999E-03 2.90021E-25 6.39665E-04-2.85216E-14-3.84396E-13
 -1        20 8.81695E-04-6.56505E-03 4.55941E-25 3.29186E-04 8.38270E-14-4.81283E-13
 -1        21 9.87038E-04-7.11280E-03 8.91128E-26-3.94885E-05 1.85588E-13-1.86152E-13
 -1        22 9.07300E-04-6.96099E-03 8.89360E-26-2.05898E-04 2.03314E-13 1.68189E-13
 -1        23 9.66439E-04-6.50035E-03 4.00861E-25-3.86291E-04 1.27283E-13 4.40883E-13
 -1        24 7.31391E-04-5.05077E-03 2.65971E-25-8.55531E-04-4.09850E-14 3.76827E-13
 -1        25 4.76966E-05-1.99366E-03 6.21136E-26-1.28305E-03-1.80032E-13 1.30812E-13
 -1        26-8.34357E-04 1.61760E-03 9.96279E-26-1.14314E-03-1.86684E-13-1.77075E-13
 -1        27-1.21717E-03 3.77664E-03 2.66617E-25-4.40015E-04-8.20057E-14-3.64045E-13
 -1        28-1.13165E-03 3.62845E-03 9.67194E-26 2.44171E-04 4.28081E-14-2.30334E-13
 -1        29-7.54416E-04 2.20725E-03 2.63890E-26 4.27290E-04 1.13333E-13-7.83920E-14
 -1        30-4.00984E-04 1.02198E-03 2.63899E-26 2.52682E-04 1.25673E-13 5.13416E-14
 -1        31-2.21532E-04 5.02858E-04 5.26134E-26 6.26954E-05 9.53775E-14 1.45328E-13
 -1        32-5.30108E-03 1.67019E-02 2.66133E-28 2.93978E-03 2.99228E-14 5.60476E-15
 -1        33-3.27346E-03 1.18807E-02 1.20088E-26 1.64780E-03 1.56113E-14-8.15804E-14
 -1        34-2.23307E-03 7.15508E-03 2.70444E-26 1.50696E-03-1.79759E-14-1.16304E-13
 -1        35-1.31869E-03 3.26255E-03 1.02990E-26 1.25563E-03-4.57448E-14-7.32821E-14
 -1        36-6.35910E-04 3.04962E-06 7.97286E-26 1.09307E-03-8.65459E-14-1.87425E-13
 -1        37-9.18146E-05-2.71524E-03 1.59533E-25 8.54681E-04-8.50485E-14-2.74364E-13
 -1        38 5.15462E-04-4.97999E-03 2.90020E-25 6.39665E-04-2.85216E-14-3.84395E-13
 -1        39 8.81695E-04-6.56505E-03 4.55941E-25 3.29186E-04 8.38270E-14-4.81283E-13
 -1        40 9.87038E-04-7.11280E-03 8.91128E-26-3.94885E-05 1.85588E-13-1.86152E-13
 -1        41 9.07300E-04-6.96099E-03 8.89360E-26-2.05898E-04 2.03314E-13 1.68189E-13
 -1        42 9.66439E-04-6.50035E-03 4.00860E-25-3.86291E-04 1.27283E-13 4.40883E-13
 -1        43 7.31391E-04-5.05077E-03 2.65971E-25-8.55531E-04-4.09850E-14 3.76827E-13
 -1        44 4.76966E-05-1.99366E-03 6.21129E-26-1.28305E-03-1.80032E-13 1.30810E-13
 -1        45-8.34357E-04 1.61760E-03 9.96287E-26-1.14314E-03-1.86684E-13-1.77076E-13
 -1        46-1.21717E-03 3.77664E-03 2.66617E-25-4.40015E-04-8.20057E-14-3.64045E-13
 -1        47-1.13165E-03 3.62845E-03 9.67179E-26 2.44171E-04 4.28081E-14-2.30333E-13
 -1        48-7.54416E-04 2.20725E-03 2.63889E-26 4.27290E-04 1.13333E-13-7.83917E-14
 -1        49-4.00984E-04 1.02198E-03 2.63894E-26 2.52682E-04 1.25673E-13 5.13399E-14
 -1        50-2.21532E-04 5.02858E-04 5.26150E-26 6.26954E-05 9.53775E-14 1.45332E-13
 -1        51-1.12014E-05 2.74679E-04 5.25785E-26-2.52678E-05-7.60089E-14 1.48189E-13
 -1        52 1.37541E-04-1.25693E-04 9.56554E-27 2.38406E-04-7.63496E-14 4.04068E-14
 -1        53 2.09139E-04-1.21025E-03 1.98320E-26 4.57589E-04-1.34100E-13-5.36984E-14
 -1        54 5.25738E-04-2.45771E-03 2.47473E-25 2.56196E-04-1.25877E-13-3.42582E-13
 -1        55 5.89594E-04-2.48100E-03 2.24528E-25-4.33136E-04-6.88608E-15-3.44593E-13
 -1        56 1.38406E-04-2.19916E-04 4.02031E-26-1.12482E-03 1.18642E-13-1.33572E-13
 -1        57-8.58513E-04 3.49557E-03 2.71608E-26-1.26020E-03 1.93073E-13 6.03857E-14
 -1        58-1.58720E-03 6.68115E-03 4.62636E-25-8.31047E-04 1.18710E-13 4.87301E-13
 -1        59-1.94408E-03 8.34517E-03 2.34103E-25-3.50996E-04-7.73701E-14 3.49625E-13
 -1        60-2.01916E-03 9.07457E-03 1.12322E-25-1.65065E-04-2.14394E-13 1.71792E-13
 -1        61-2.26809E-03 9.44635E-03 8.09679E-26-9.53804E-06-1.99671E-13-1.52103E-13
 -1        62-2.20314E-03 9.06400E-03 3.39953E-25 3.42545E-04-7.24616E-14-4.16277E-13
 -1        63-1.88178E-03 7.66960E-03 3.53831E-25 6.56102E-04 2.57751E-14-4.21275E-13
 -1        64-1.37054E-03 5.64242E-03 1.79669E-25 8.83008E-04 4.98095E-14-3.00234E-13
 -1        65-9.89871E-04 3.16207E-03 6.90181E-26 1.11157E-03 3.80803E-14-1.86044E-13
 -1        66-3.50590E-04 1.46019E-04 4.48370E-26 1.27266E-03 2.76985E-14-1.48466E-13
 -1        67 4.16479E-04-3.44392E-03 2.75921E-26 1.56749E-03 3.00057E-14-1.16522E-13
 -1        68 1.11705E-03-7.94044E-03 8.16592E-27 1.73071E-03 3.83631E-14-5.49553E-14
 -1        69 3.21199E-03-1.26791E-02 2.71503E-27 2.68627E-03 3.05360E-14-2.48536E-14
 -1        70-1.12014E-05 2.74679E-04 5.25773E-26-2.52678E-05-7.60089E-14 1.48187E-13
 -1        71 1.37541E-04-1.25693E-04 9.56526E-27 2.38406E-04-7.63495E-14 4.04070E-14
 -1        72 2.09139E-04-1.21025E-03 1.98322E-26 4.57589E-04-1.34100E-13-5.36996E-14
 -1        73 5.25738E-04-2.45771E-03 2.47477E-25 2.56196E-04-1.25877E-13-3.42585E-13
 -1        74 5.89594E-04-2.48100E-03 2.24527E-25-4.33136E-04-6.88611E-15-3.44592E-13
 -1        75 1.38406E-04-2.19916E-04 4.02031E-26-1.12482E-03 1.18642E-13-1.33572E-13
 -1        76-8.58513E-04 3.49557E-03 2.71608E-26-1.26020E-03 1.93074E-13 6.03849E-14
 -1        77-1.58720E-03 6.68115E-03 4.62633E-25-8.31047E-04 1.18710E-13 4.87299E-13
 -1        78-1.94408E-03 8.34517E-03 2.34114E-25-3.50996E-04-7.73702E-14 3.49632E-13
 -1        79-2.01916E-03 9.07457E-03 1.12322E-25-1.65065E-04-2.14394E-13 1.71793E-13
 -1        80-2.26809E-03 9.44635E-03 8.09689E-26-9.53804E-06-1.99671E-13-1.52106E-13
 -1        81-2.20314E-03 9.06400E-03 3.39953E-25 3.42545E-04-7.24616E-14-4.16276E-13
 -1        82-1.88178E-03 7.66960E-03 3.53831E-25 6.56102E-04 2.57751E-14-4.21275E-13
 -1        83-1.37054E-03 5.64242E-03 1.79669E-25 8.83008E-04 4.98095E-14-3.00233E-13
 -1        84-9.89871E-04 3.16207E-03 6.90220E-26 1.11157E-03 3.80801E-14-1.86049E-13
 -1        85-3.50590E-04 1.46019E-04 4.48374E-26 1.27266E-03 2.76983E-14-1.48467E-13
 -1        86 4.16479E-04-3.44392E-03 2.75923E-26 1.56749E-03 3.00060E-14-1.16523E-13
 -1        87 1.11705E-03-7.94044E-03 8.16592E-27 1.73071E-03 3.83631E-14-5.49553E-14
 -1        88 3.21199E-03-1.26791E-02 2.71503E-27 2.68627E-03 3.05360E-14-2.48536E-14
 -1        89-1.04454E-03 1.93847E-03 1.40756E-27 2.26690E-03 2.52333E-14-1.66679E-14
 -1        90-1.07820E-03 2.10221E-03 5.75114E-27 2.42132E-03 2.07272E-14-5.31477E-14
 -1        91-9.08295E-04 1.86130E-03 1.71202E-26 1.96499E-03-7.21551E-15-9.51636E-14
 -1        92-8.34640E-04 1.68500E-03 4.16918E-26 1.63964E-03-8.99476E-15-1.46760E-13
 -1        93-8.12891E-04 1.58167E-03 5.40906E-26 1.38317E-03-9.75028E-15-1.69849E-13
 -1        94-7.31179E-04 1.44921E-03 1.64167E-25 1.12428E-03-1.56530E-14-2.91952E-13
 -1        95-6.83159E-04 1.31880E-03 3.56134E-25 8.73643E-04 1.22100E-14-4.23525E-13
 -1        96-6.60723E-04 1.23620E-03 4.20552E-25 4.43052E-04 1.00772E-14-4.65742E-13
 -1        97-6.40525E-04 1.16216E-03 3.08211E-26-4.42935E-05-1.32536E-14-1.97774E-13
 -1        98-5.55929E-04 1.04107E-03 1.40331E-26-2.28529E-04-2.65645E-14 1.77006E-13
 -1        99-4.88820E-04 8.99319E-04 3.78739E-25-4.44624E-04 3.63452E-14 4.42368E-13
 -1       100-4.27903E-04 8.00747E-04 3.97365E-25-1.09384E-03 2.26254E-14 4.55839E-13
 -1       101-4.05408E-04 7.50392E-04-1.26070E-26-1.68304E-03-2.25161E-14 1.30448E-13
 -1       102-3.47976E-04 6.95853E-04 4.62468E-26-1.47312E-03-1.32554E-14-1.96949E-13
 -1       103-3.13790E-04 6.38860E-04 2.90774E-25-5.22156E-04-5.95944E-14-3.81102E-13
 -1       104-3.02957E-04 6.04932E-04 1.69852E-25 3.55611E-04-3.31365E-14-2.99742E-13
 -1       105-2.72638E-04 5.39183E-04-2.54022E-27 5.82278E-04 1.27664E-15-8.17370E-14
 -1       106-1.31722E-04 4.77037E-04-3.52576E-27 3.39702E-04-8.04305E-15 4.67373E-14
 -1       107-1.16367E-04 4.75082E-04 3.59399E-26 6.82832E-05-2.54018E-14 1.42844E-13
 -1       108-1.16367E-04 4.75082E-04 3.59382E-26 6.82832E-05-2.54018E-14 1.42840E-13
 -1       109-1.31722E-04 4.77037E-04-3.52532E-27 3.39702E-04-8.04313E-15 4.67365E-14
 -1       110-2.72638E-04 5.39183E-04-2.54031E-27 5.82278E-04 1.27673E-15-8.17354E-14
 -1       111-3.02957E-04 6.04932E-04 1.69854E-25 3.55611E-04-3.31365E-14-2.99744E-13
 -1       112-3.13790E-04 6.38860E-04 2.90773E-25-5.22156E-04-5.95944E-14-3.81101E-13
 -1       113-3.47976E-04 6.95853E-04 4.62466E-26-1.47312E-03-1.32552E-14-1.96949E-13
 -1       114-4.05408E-04 7.50392E-04-1.26063E-26-1.68304E-03-2.25162E-14 1.30451E-13
 -1       115-4.27903E-04 8.00747E-04 3.97365E-25-1.09384E-03 2.26254E-14 4.55839E-13
 -1       116-4.88820E-04 8.99319E-04 3.78740E-25-4.44624E-04 3.63452E-14 4.42369E-13
 -1       117-5.55929E-04 1.04107E-03 1.40329E-26-2.28529E-04-2.65644E-14 1.77005E-13
 -1       118-6.40525E-04 1.16216E-03 3.08209E-26-4.42935E-05-1.32537E-14-1.97774E-13
 -1       119-6.60723E-04 1.23620E-03 4.20552E-25 4.43052E-04 1.00771E-14-4.65742E-13
 -1       120-6.83159E-04 1.31880E-03 3.56135E-25 8.73643E-04 1.22100E-14-4.23526E-13
 -1       121-7.31179E-04 1.44921E-03 1.64167E-25 1.12428E-03-1.56531E-14-2.91953E-13
 -1       122-8.12891E-04 1.58167E-03 5.40900E-26 1.38317E-03-9.75029E-15-1.69848E-13
 -1       123-8.34640E-04 1.68500E-03 4.16923E-26 1.63964E-03-8.99486E-15-1.46761E-13
 -1       124-9.08295E-04 1.86130E-03 1.71201E-26 1.96499E-03-7.21549E-15-9.51634E-14
 -1       125-1.07820E-03 2.10221E-03 5.75114E-27 2.42132E-03 2.07271E-14-5.31477E-14
 -1       126-1.04454E-03 1.93847E-03 1.40756E-27 2.26690E-03 2.52333E-14-1.66679E-14
 -3
    1PSTEP                        52          13           1          
  100CL  113 1.30000E-01         126                     1   13           1
 -4  ERROR       1    1
 -5  STR(%)      1    1    0    0
 -1         1 5.85839E+01
 -1         2 5.85839E+01
 -1         3 1.06107E+01
 -1         4 1.06107E+01
 -1         5 1.38651E+01
 -1         6 1.38651E+01
 -1         7 7.17132E+01
 -1         8 7.17132E+01
 -1         9 1.38651E+01
 -1        10 1.38651E+01
 -1        11 7.17132E+01
 -1        12 7.17132E+01
 -1        13 5.85839E+01
 -1        14 4.97956E+01
 -1        15 4.40969E+01
 -1        16 3.05400E+01
 -1        17 5.41840E+01
 -1        18 7.52519E+01
 -1        19 7.63816E+01
 -1        20 7.63816E+01
 -1        21 6.91127E+01
 -1        22 6.91127E+01
 -1        23 7.06294E+01
 -1        24 7.06294E+01
 -1        25 5.86492E+01
 -1        26 4.26708E+01
 -1        27 5.07122E+01
 -1        28 5.07122E+01
 -1        29 4.56890E+01
 -1        30 2.93796E+01
 -1        31 1.12269E+01
 -1        32 5.85839E+01
 -1        33 4.97956E+01
 -1        34 4.40969E+01
 -1        35 3.05400E+01
 -1        36 5.41840E+01
 -1        37 7.52519E+01
 -1        38 7.63816E+01
 -1        39 7.63816E+01
 -1        40 6.91127E+01
 -1        41 6.91127E+01
 -1        42 7.06294E+01
 -1        43 7.06294E+01
 -1        44 5.86492E+01
 -1        45 4.26708E+01
 -1        46 5.07122E+01
 -1        47 5.07122E+01
 -1        48 4.56890E+01
 -1        49 2.93796E+01
 -1        50 1.12269E+01
 -1        51 2.39524E+01
 -1        52 5.63012E+01
 -1        53 7.50956E+01
 -1        54 7.58674E+01
 -1        55 7.58674E+01
 -1        56 6.05576E+01
 -1        57 4.57970E+01
 -1        58 5.32036E+01
 -1        59 5.32036E+01
 -1        60 5.21317E+01
 -1        61 5.11222E+01
 -1        62 5.07582E+01
 -1        63 5.04348E+01
 -1        64 4.52477E+01
 -1        65 3.32362E+01
 -1        66 7.28458E+01
 -1        67 7.33737E+01
 -1        68 7.44265E+01
 -1        69 7.44265E+01
 -1        70 2.39524E+01
 -1        71 5.63012E+01
 -1        72 7.50956E+01
 -1        73 7.58674E+01
 -1        74 7.58674E+01
 -1        75 6.05576E+01
 -1        76 4.57970E+01
 -1        77 5.32036E+01
 -1        78 5.32036E+01
 -1        79 5.21317E+01
 -1        80 5.11222E+01
 -1        81 5.07582E+01
 -1        82 5.04348E+01
 -1        83 4.52477E+01
 -1        84 3.32362E+01
 -1        85 7.28458E+01
 -1        86 7.33737E+01
 -1        87 7.44265E+01
 -1        88 7.44265E+01
 -1        89 7.44265E+01
 -1        90 7.44265E+01
 -1        91 7.33737E+01
 -1        92 7.28458E+01
 -1        93 5.41840E+01
 -1        94 7.52519E+01
 -1        95 7.63816E+01
 -1        96 7.63816E+01
 -1        97 6.91127E+01
 -1        98 6.91127E+01
 -1        99 7.06294E+01
 -1       100 7.06294E+01
 -1       101 5.86492E+01
 -1       102 6.05576E+01
 -1       103 7.58674E+01
 -1       104 7.58674E+01
 -1       105 7.50956E+01
 -1       106 5.63012E+01
 -1       107 2.39524E+01
 -1       108 2.39524E+01
 -1       109 5.63012E+01
 -1       110 7.50956E+01
 -1       111 7.58674E+01
 -1       112 7.58674E+01
 -1       113 6.05576E+01
 -1       114 5.86492E+01
 -1       115 7.06294E+01
 -1       116 7.06294E+01
 -1       117 6.91127E+01
 -1       118 6.91127E+01
 -1       119 7.63816E+01
 -1       120 7.63816E+01
 -1       121 7.52519E+01
 -1       122 5.41840E+01
 -1       123 7.28458E+01
 -1       124 7.33737E+01
 -1       125 7.44265E+01
 -1       126 7.44265E+01
 -3
    1PSTEP                        53          14           1          
  100CL  114 1.40000E-01         126                     1   14           1
 -4  DISP        4    1
 -5  D1          1    2    1    0
 -5  D2          1    2    2    0
 -5  D3          1    2    3    0
 -5  ALL         1    2    0    0    1ALL
 -1         1 0.00000E+00 0.00000E+00 0.00000E+00
 -1         2 0.00000E+00 0.00000E+00 0.00000E+00
 -1         3 1.35477E-02 7.54540E-04 0.00000E+00
 -1         4 1.35477E-02 7.54540E-04 0.00000E+00
 -1         5 1.35539E-02 8.89609E-04 0.00000E+00
 -1         6 1.35539E-02 8.89609E-04 0.00000E+00
 -1         7 0.00000E+00 0.00000E+00 0.00000E+00
 -1         8 0.00000E+00 0.00000E+00 0.00000E+00
 -1         9 1.35470E-02 8.31654E-04 0.00000E+00
 -1        10 1.35470E-02 8.31654E-04 0.00000E+00
 -1        11 0.00000E+00 0.00000E+00 0.00000E+00
 -1        12 0.00000E+00 0.00000E+00 0.00000E+00
 -1        13 9.28066E-04 9.46333E-04 0.00000E+00
 -1        14 2.38794E-03 1.67320E-03 0.00000E+00
 -1        15 4.37624E-03 2.13501E-03 0.00000E+00
 -1        16 6.63254E-03 2.37889E-03 0.00000E+00
 -1        17 8.96618E-03 2.43443E-03 0.00000E+00
 -1        18 1.12133E-02 2.33338E-03 0.00000E+00
 -1        19 1.32113E-02 2.11509E-03 0.00000E+00
 -1        20 1.48707E-02 1.81373E-03 0.00000E+00
 -1        21 1.61268E-02 1.44804E-03 0.00000E+00
 -1        22 1.68951E-02 1.05943E-03 0.00000E+00
 -1        23 1.71998E-02 6.99242E-04 0.00000E+00
 -1        24 1.71188E-02 3.78070E-04 0.00000E+00
 -1        25 1.66577E-02 1.07372E-04 0.00000E+00
 -1        26 1.58644E-02-4.33983E-05 0.00000E+00
 -1        27 1.49617E-02-6.68365E-06 0.00000E+00
 -1        28 1.42256E-02 1.90845E-04 0.00000E+00
 -1        29 1.38032E-02 4.39332E-04 0.00000E+00
 -1        30 1.36514E-02 6.29936E-04 0.00000E+00
 -1        31 1.36035E-02 7.23770E-04 0.00000E+00
 -1        32 9.28066E-04 9.46333E-04 0.00000E+00
 -1        33 2.38794E-03 1.67320E-03 0.00000E+00
 -1        34 4.37624E-03 2.13501E-03 0.00000E+00
 -1        35 6.63254E-03 2.37889E-03 0.00000E+00
 -1        36 8.96618E-03 2.43443E-03 0.00000E+00
 -1        37 1.12133E-02 2.33338E-03 0.00000E+00
 -1        38 1.32113E-02 2.11509E-03 0.00000E+00
 -1        39 1.48707E-02 1.81373E-03 0.00000E+00
 -1        40 1.61268E-02 1.44804E-03 0.00000E+00
 -1        41 1.68951E-02 1.05943E-03 0.00000E+00
 -1        42 1.71998E-02 6.99242E-04 0.00000E+00
 -1        43 1.71188E-02 3.78070E-04 0.00000E+00
 -1        44 1.66577E-02 1.07372E-04 0.00000E+00
 -1        45 1.58644E-02-4.33983E-05 0.00000E+00
 -1        46 1.49617E-02-6.68365E-06 0.00000E+00
 -1        47 1.42256E-02 1.90845E-04 0.00000E+00
 -1        48 1.38032E-02 4.39332E-04 0.00000E+00
 -1        49 1.36514E-02 6.29936E-04 0.00000E+00
 -1        50 1.36035E-02 7.23770E-04 0.00000E+00
 -1        51 1.36014E-02 8.94449E-04 0.00000E+00
 -1        52 1.36488E-02 9.41867E-04 0.00000E+00
 -1        53 1.38027E-02 1.07882E-03 0.00000E+00
 -1        54 1.42125E-02 1.27793E-03 0.00000E+00
 -1        55 1.49401E-02 1.42491E-03 0.00000E+00
 -1        56 1.58411E-02 1.40463E-03 0.00000E+00
 -1        57 1.66333E-02 1.18555E-03 0.00000E+00
 -1        58 1.70918E-02 8.30324E-04 0.00000E+00
 -1        59 1.71701E-02 4.09934E-04 0.00000E+00
 -1        60 1.68534E-02-5.80220E-05 0.00000E+00
 -1        61 1.60665E-02-5.54748E-04 0.00000E+00
 -1        62 1.47821E-02-1.02370E-03 0.00000E+00
 -1        63 1.30914E-02-1.42388E-03 0.00000E+00
 -1        64 1.10664E-02-1.73244E-03 0.00000E+00
 -1        65 8.81082E-03-1.91074E-03 0.00000E+00
 -1        66 6.47814E-03-1.92718E-03 0.00000E+00
 -1        67 4.23267E-03-1.76622E-03 0.00000E+00
 -1        68 2.27296E-03-1.41120E-03 0.00000E+00
 -1        69 8.42331E-04-8.09424E-04 0.00000E+00
 -1        70 1.36014E-02 8.94449E-04 0.00000E+00
 -1        71 1.36488E-02 9.41867E-04 0.00000E+00
 -1        72 1.38027E-02 1.07882E-03 0.00000E+00
 -1        73 1.42125E-02 1.27793E-03 0.00000E+00
 -1        74 1.49401E-02 1.42491E-03 0.00000E+00
 -1        75 1.58411E-02 1.40463E-03 0.00000E+00
 -1        76 1.66333E-02 1.18555E-03 0.00000E+00
 -1        77 1.70918E-02 8.30324E-04 0.00000E+00
 -1        78 1.71701E-02 4.09934E-04 0.00000E+00
 -1        79 1.68534E-02-5.80220E-05 0.00000E+00
 -1        80 1.60665E-02-5.54748E-04 0.00000E+00
 -1        81 1.47821E-02-1.02370E-03 0.00000E+00
 -1        82 1.30914E-02-1.42388E-03 0.00000E+00
 -1        83 1.10664E-02-1.73244E-03 0.00000E+00
 -1        84 8.81082E-03-1.91074E-03 0.00000E+00
 -1        85 6.47814E-03-1.92718E-03 0.00000E+00
 -1        86 4.23267E-03-1.76622E-03 0.00000E+00
 -1        87 2.27296E-03-1.41120E-03 0.00000E+00
 -1        88 8.42331E-04-8.09424E-04 0.00000E+00
 -1        89 6.72374E-04 6.84734E-05 0.00000E+00
 -1        90 2.22211E-03 1.35801E-04 0.00000E+00
 -1        91 4.23649E-03 1.87677E-04 0.00000E+00
 -1        92 6.53030E-03 2.27534E-04 0.00000E+00
 -1        93 8.90010E-03 2.60581E-04 0.00000E+00
 -1        94 1.11820E-02 2.98629E-04 0.00000E+00
 -1        95 1.32158E-02 3.44663E-04 0.00000E+00
 -1        96 1.49075E-02 3.94544E-04 0.00000E+00
 -1        97 1.61884E-02 4.46498E-04 0.00000E+00
 -1        98 1.69643E-02 5.01219E-04 0.00000E+00
 -1        99 1.72664E-02 5.55667E-04 0.00000E+00
 -1       100 1.71773E-02 6.06384E-04 0.00000E+00
 -1       101 1.66989E-02 6.49613E-04 0.00000E+00
 -1       102 1.58689E-02 6.82179E-04 0.00000E+00
 -1       103 1.49260E-02 7.09607E-04 0.00000E+00
 -1       104 1.41696E-02 7.36607E-04 0.00000E+00
 -1       105 1.37558E-02 7.61168E-04 0.00000E+00
 -1       106 1.36217E-02 7.85842E-04 0.00000E+00
 -1       107 1.35924E-02 8.09971E-04 0.00000E+00
 -1       108 1.35924E-02 8.09971E-04 0.00000E+00
 -1       109 1.36217E-02 7.85842E-04 0.00000E+00
 -1       110 1.37558E-02 7.61168E-04 0.00000E+00
 -1       111 1.41696E-02 7.36607E-04 0.00000E+00
 -1       112 1.49260E-02 7.09607E-04 0.00000E+00
 -1       113 1.58689E-02 6.82179E-04 0.00000E+00
 -1       114 1.66989E-02 6.49613E-04 0.00000E+00
 -1       115 1.71773E-02 6.06384E-04 0.00000E+00
 -1       116 1.72664E-02 5.55667E-04 0.00000E+00
 -1       117 1.69643E-02 5.01219E-04 0.00000E+00
 -1       118 1.61884E-02 4.46498E-04 0.00000E+00
 -1       119 1.49075E-02 3.94544E-04 0.00000E+00
 -1       120 1.32158E-02 3.44663E-04 0.00000E+00
 -1       121 1.11820E-02 2.98629E-04 0.00000E+00
 -1       122 8.90010E-03 2.60581E-04 0.00000E+00
 -1       123 6.53030E-03 2.27534E-04 0.00000E+00
 -1       124 4.23649E-03 1.87677E-04 0.00000E+00
 -1       125 2.22211E-03 1.35801E-04 0.00000E+00
 -1       126 6.72374E-04 6.84734E-05 0.00000E+00
 -3
    1PSTEP                        54          14           1          
  100CL  114 1.40000E-01         126                     1   14           1
 -4  STRESS      6    1
 -5  SXX         1    4    1    1
 -5  SYY         1    4    2    2
 -5  SZZ         1    4    3    3
 -5  SXY         1    4    1    2
 -5  SYZ         1    4    2    3
 -5  SZX         1    4    3    1
 -1         1 4.46031E+03 1.05114E+04 4.36589E+03 3.03170E+03-5.52942E-11-1.13962E-10
 -1         2 4.46031E+03 1.05114E+04 4.36589E+03 3.03170E+03-5.52942E-11-1.13962E-10
 -1         3 1.35705E+02 3.29518E+02 1.39435E+02 6.56634E+01-4.34646E-08-1.60912E-10
 -1         4 1.35705E+02 3.29518E+02 1.39435E+02 6.56634E+01-4.34646E-08-1.61991E-10
 -1         5 5.18498E+01-2.00891E+01 9.53837E+00 3.21934E+01 3.14071E-08 1.40197E-08
 -1         6 5.18498E+01-2.00891E+01 9.53837E+00 3.21934E+01 3.14071E-08 1.40211E-08
 -1         7-3.65718E+03-8.49345E+03-3.73306E+03 2.45777E+03-4.77667E-11 1.01882E-10
 -1         8-3.65718E+03-8.49345E+03-3.73306E+03 2.45777E+03-4.77647E-11 1.01880E-10
 -1         9 1.33953E+02 2.48571E+02 1.14677E+02 6.82866E+01 2.05122E-08 1.05447E-08
 -1        10 1.33953E+02 2.48571E+02 1.14677E+02 6.82866E+01 2.05122E-08 1.05465E-08
 -1        11 3.80561E+02 7.23790E+02 3.36623E+02 2.07636E+03-1.66139E-11 1.60810E-13
 -1        12 3.80561E+02 7.23790E+02 3.36623E+02 2.07636E+03-1.66175E-11 1.64441E-13
 -1        13 1.31695E+03 8.20028E+03 2.78722E+03 1.06759E+03-2.91976E-08-1.62680E-08
 -1        14 1.39514E+03 6.14879E+03 2.22282E+03 6.64202E+02-3.25597E-08-5.95802E-08
 -1        15 7.87512E+02 3.82158E+03 1.36536E+03 6.07745E+02-2.94302E-08-9.76118E-08
 -1        16 3.72094E+02 1.89677E+03 6.75022E+02 4.79632E+02-1.66237E-08-1.56408E-07
 -1        17-3.23411E+01 2.03648E+02 5.02306E+01 3.65060E+02 1.57663E-08-1.80408E-07
 -1        18-3.95601E+02-1.20483E+03-4.81835E+02 2.53040E+02 4.10703E-08-1.37979E-07
 -1        19-6.41886E+02-2.26993E+03-8.78210E+02 1.49067E+02 4.32472E-08-1.03610E-07
 -1        20-8.17271E+02-3.07956E+03-1.17769E+03 8.53437E+01 4.21748E-08-5.98907E-08
 -1        21-9.14377E+02-3.58386E+03-1.36167E+03 5.63927E+00 4.23764E-08-1.48726E-09
 -1        22-9.31350E+02-3.62717E+03-1.37997E+03-8.10948E+01 3.31602E-08 2.95444E-08
 -1        23-8.49375E+02-3.32725E+03-1.26317E+03-9.98000E+01 2.08046E-08 2.38166E-08
 -1        24-7.20687E+02-2.88303E+03-1.08909E+03-1.25063E+02 2.45232E-09 6.04006E-08
 -1        25-4.68911E+02-2.01519E+03-7.49926E+02-2.51580E+02-2.83061E-08 6.88174E-08
 -1        26-1.12612E+02-4.99966E+02-1.85368E+02-3.73497E+02-3.91941E-08 4.01113E-09
 -1        27 2.52718E+02 1.18989E+03 4.30083E+02-3.24938E+02-1.59357E-08-2.15193E-08
 -1        28 4.79241E+02 2.20786E+03 8.00548E+02-1.13079E+02 1.34655E-08-4.15428E-08
 -1        29 5.17957E+02 2.17606E+03 8.03020E+02 1.02267E+02 2.36231E-08-7.70032E-09
 -1        30 3.38810E+02 1.40444E+03 5.20644E+02 1.71748E+02-2.02089E-09 5.37634E-08
 -1        31 1.68991E+02 6.22330E+02 2.36856E+02 1.05714E+02-3.42280E-08 5.12823E-08
 -1        32 1.31695E+03 8.20028E+03 2.78722E+03 1.06759E+03-2.91976E-08-1.62680E-08
 -1        33 1.39514E+03 6.14879E+03 2.22282E+03 6.64202E+02-3.25598E-08-5.95802E-08
 -1        34 7.87512E+02 3.82158E+03 1.36536E+03 6.07745E+02-2.94302E-08-9.76117E-08
 -1        35 3.72094E+02 1.89677E+03 6.75022E+02 4.79632E+02-1.66237E-08-1.56409E-07
 -1        36-3.23411E+01 2.03648E+02 5.02306E+01 3.65060E+02 1.57663E-08-1.80408E-07
 -1        37-3.95601E+02-1.20483E+03-4.81835E+02 2.53040E+02 4.10701E-08-1.37978E-07
 -1        38-6.41886E+02-2.26993E+03-8.78210E+02 1.49067E+02 4.32473E-08-1.03611E-07
 -1        39-8.17271E+02-3.07956E+03-1.17769E+03 8.53437E+01 4.21748E-08-5.98905E-08
 -1        40-9.14377E+02-3.58386E+03-1.36167E+03 5.63927E+00 4.23764E-08-1.48726E-09
 -1        41-9.31350E+02-3.62717E+03-1.37997E+03-8.10948E+01 3.31602E-08 2.95444E-08
 -1        42-8.49375E+02-3.32725E+03-1.26317E+03-9.98000E+01 2.08046E-08 2.38171E-08
 -1        43-7.20687E+02-2.88303E+03-1.08909E+03-1.25063E+02 2.45231E-09 6.04005E-08
 -1        44-4.68911E+02-2.01519E+03-7.49926E+02-2.51580E+02-2.83060E-08 6.88174E-08
 -1        45-1.12612E+02-4.99966E+02-1.85368E+02-3.73497E+02-3.91940E-08 4.01113E-09
 -1        46 2.52718E+02 1.18989E+03 4.30083E+02-3.24938E+02-1.59357E-08-2.15193E-08
 -1        47 4.79241E+02 2.20786E+03 8.00548E+02-1.13079E+02 1.34655E-08-4.15428E-08
 -1        48 5.17957E+02 2.17606E+03 8.03020E+02 1.02267E+02 2.36231E-08-7.70049E-09
 -1        49 3.38810E+02 1.40444E+03 5.20644E+02 1.71748E+02-2.02086E-09 5.37631E-08
 -1        50 1.68991E+02 6.22330E+02 2.36856E+02 1.05714E+02-3.42280E-08 5.12840E-08
 -1        51-2.30110E+01-2.38723E+02-7.86165E+01 1.13915E+02 1.73036E-08 3.18550E-08
 -1        52-1.31127E+02-8.61815E+02-2.98828E+02 1.71006E+02-1.89023E-08 5.81486E-08
 -1        53-2.54000E+02-1.56943E+03-5.49756E+02 1.14081E+02-2.71749E-08 1.27863E-08
 -1        54-2.84079E+02-1.60906E+03-5.71009E+02-7.70135E+01-1.75311E-09-2.14289E-08
 -1        55-4.38186E+01-5.27664E+02-1.72905E+02-3.01757E+02 3.04405E-08-1.97771E-08
 -1        56 3.55462E+02 1.25839E+03 4.80935E+02-3.90609E+02 5.14146E-08 4.37643E-09
 -1        57 6.78865E+02 2.86766E+03 1.05449E+03-2.89630E+02 2.26778E-08 8.85154E-08
 -1        58 8.83274E+02 3.83765E+03 1.40117E+03-1.45508E+02-9.69138E-09 4.49851E-08
 -1        59 1.01942E+03 4.40236E+03 1.60723E+03-7.82121E+01-2.50035E-09 4.38020E-08
 -1        60 1.08624E+03 4.80347E+03 1.74368E+03-2.39074E+00-6.83457E-09 1.41234E-08
 -1        61 1.08587E+03 4.87044E+03 1.76263E+03 1.46099E+02-3.24130E-08-1.84984E-08
 -1        62 9.92288E+02 4.48381E+03 1.62209E+03 2.67251E+02-4.49534E-08-6.82114E-08
 -1        63 8.15947E+02 3.78462E+03 1.36471E+03 3.32364E+02-3.38405E-08-1.07944E-07
 -1        64 5.65269E+02 2.77035E+03 9.91467E+02 3.85385E+02-1.50976E-08-1.52054E-07
 -1        65 2.73402E+02 1.39603E+03 4.97342E+02 4.05227E+02 5.29771E-09-1.85503E-07
 -1        66-1.15553E+02-2.74125E+02-1.18150E+02 4.10144E+02 2.14958E-08-1.52141E-07
 -1        67-5.76563E+02-2.16433E+03-8.27586E+02 4.22774E+02 2.68755E-08-1.00695E-07
 -1        68-1.23459E+03-4.46572E+03-1.73019E+03 3.97344E+02 3.29948E-08-6.04782E-08
 -1        69-1.23786E+03-6.53387E+03-2.37387E+03 7.27430E+02 2.72197E-08-1.24628E-08
 -1        70-2.30110E+01-2.38723E+02-7.86165E+01 1.13915E+02 1.73034E-08 3.18556E-08
 -1        71-1.31127E+02-8.61815E+02-2.98828E+02 1.71006E+02-1.89023E-08 5.81485E-08
 -1        72-2.54000E+02-1.56943E+03-5.49756E+02 1.14081E+02-2.71749E-08 1.27864E-08
 -1        73-2.84079E+02-1.60906E+03-5.71009E+02-7.70135E+01-1.75312E-09-2.14290E-08
 -1        74-4.38186E+01-5.27664E+02-1.72905E+02-3.01757E+02 3.04405E-08-1.97775E-08
 -1        75 3.55462E+02 1.25839E+03 4.80935E+02-3.90609E+02 5.14146E-08 4.37643E-09
 -1        76 6.78865E+02 2.86766E+03 1.05449E+03-2.89630E+02 2.26778E-08 8.85154E-08
 -1        77 8.83274E+02 3.83765E+03 1.40117E+03-1.45508E+02-9.69140E-09 4.49833E-08
 -1        78 1.01942E+03 4.40236E+03 1.60723E+03-7.82121E+01-2.50037E-09 4.38027E-08
 -1        79 1.08624E+03 4.80347E+03 1.74368E+03-2.39074E+00-6.83457E-09 1.41233E-08
 -1        80 1.08587E+03 4.87044E+03 1.76263E+03 1.46099E+02-3.24130E-08-1.84984E-08
 -1        81 9.92288E+02 4.48381E+03 1.62209E+03 2.67251E+02-4.49534E-08-6.82114E-08
 -1        82 8.15947E+02 3.78462E+03 1.36471E+03 3.32364E+02-3.38406E-08-1.07944E-07
 -1        83 5.65269E+02 2.77035E+03 9.91467E+02 3.85385E+02-1.50974E-08-1.52054E-07
 -1        84 2.73402E+02 1.39603E+03 4.97342E+02 4.05227E+02 5.29771E-09-1.85503E-07
 -1        85-1.15553E+02-2.74125E+02-1.18150E+02 4.10144E+02 2.14958E-08-1.52142E-07
 -1        86-5.76563E+02-2.16433E+03-8.27586E+02 4.22774E+02 2.68755E-08-1.00695E-07
 -1        87-1.23459E+03-4.46572E+03-1.73019E+03 3.97344E+02 3.29949E-08-6.04782E-08
 -1        88-1.23786E+03-6.53387E+03-2.37387E+03 7.27430E+02 2.72197E-08-1.24627E-08
 -1        89 6.25917E+01 6.47295E+02 2.14963E+02 7.24774E+02 8.74500E-10-5.66805E-09
 -1        90 1.20933E+02 7.65318E+02 2.68033E+02 7.51293E+02 2.18894E-09-7.09779E-08
 -1        91 1.20599E+02 7.84720E+02 2.70851E+02 6.42267E+02 5.50763E-10-1.02616E-07
 -1        92 1.38933E+02 7.88957E+02 2.76860E+02 5.67143E+02 2.29241E-10-1.51689E-07
 -1        93 1.30084E+02 7.85259E+02 2.73157E+02 4.88434E+02 7.69994E-09-1.88873E-07
 -1        94 9.92845E+01 7.74753E+02 2.61303E+02 4.00153E+02 1.29189E-08-1.53347E-07
 -1        95 1.00273E+02 7.34761E+02 2.50552E+02 2.99518E+02 6.75185E-09-1.03362E-07
 -1        96 9.69670E+01 6.56534E+02 2.27048E+02 2.16645E+02 7.38602E-10-6.50138E-08
 -1        97 9.32147E+01 5.84610E+02 2.04576E+02 8.82786E+01 4.30028E-09 2.52661E-10
 -1        98 8.36896E+01 5.30490E+02 1.85855E+02-5.84250E+01 1.87216E-08 2.64596E-08
 -1        99 9.19247E+01 4.92621E+02 1.77021E+02-1.17054E+02 8.59192E-09 2.96065E-08
 -1       100 8.96967E+01 4.48010E+02 1.62137E+02-1.78515E+02 2.96763E-10 6.00719E-08
 -1       101 1.09686E+02 4.02199E+02 1.53226E+02-3.56639E+02 4.88724E-09 8.31253E-08
 -1       102 1.23950E+02 3.63017E+02 1.45326E+02-5.02662E+02 8.56005E-10 1.20144E-08
 -1       103 1.12984E+02 3.32733E+02 1.32966E+02-4.14354E+02 5.93225E-09-3.03236E-08
 -1       104 1.04088E+02 2.95039E+02 1.19287E+02-1.29252E+02 6.11737E-09-3.33351E-08
 -1       105 1.27167E+02 2.77487E+02 1.21292E+02 1.40748E+02-4.66154E-10 1.00768E-08
 -1       106 1.01103E+02 2.59100E+02 1.08027E+02 2.28680E+02-6.77414E-09 6.45368E-08
 -1       107 9.52488E+01 2.42865E+02 1.01348E+02 1.47807E+02 6.35698E-09 5.08595E-08
 -1       108 9.52488E+01 2.42865E+02 1.01348E+02 1.47807E+02 6.35699E-09 5.08582E-08
 -1       109 1.01103E+02 2.59100E+02 1.08027E+02 2.28680E+02-6.77415E-09 6.45371E-08
 -1       110 1.27167E+02 2.77487E+02 1.21292E+02 1.40748E+02-4.66118E-10 1.00766E-08
 -1       111 1.04088E+02 2.95039E+02 1.19287E+02-1.29252E+02 6.11739E-09-3.33347E-08
 -1       112 1.12984E+02 3.32733E+02 1.32966E+02-4.14354E+02 5.93222E-09-3.03236E-08
 -1       113 1.23950E+02 3.63017E+02 1.45326E+02-5.02662E+02 8.55985E-10 1.20144E-08
 -1       114 1.09686E+02 4.02199E+02 1.53226E+02-3.56639E+02 4.88727E-09 8.31253E-08
 -1       115 8.96967E+01 4.48010E+02 1.62137E+02-1.78515E+02 2.96774E-10 6.00725E-08
 -1       116 9.19247E+01 4.92621E+02 1.77021E+02-1.17054E+02 8.59192E-09 2.96052E-08
 -1       117 8.36896E+01 5.30490E+02 1.85855E+02-5.84250E+01 1.87216E-08 2.64596E-08
 -1       118 9.32147E+01 5.84610E+02 2.04576E+02 8.82786E+01 4.30027E-09 2.52661E-10
 -1       119 9.69670E+01 6.56534E+02 2.27048E+02 2.16645E+02 7.38597E-10-6.50141E-08
 -1       120 1.00273E+02 7.34761E+02 2.50552E+02 2.99518E+02 6.75186E-09-1.03362E-07
 -1       121 9.92845E+01 7.74753E+02 2.61303E+02 4.00153E+02 1.29189E-08-1.53348E-07
 -1       122 1.30084E+02 7.85259E+02 2.73157E+02 4.88434E+02 7.70000E-09-1.88872E-07
 -1       123 1.38933E+02 7.88957E+02 2.76860E+02 5.67143E+02 2.29237E-10-1.51688E-07
 -1       124 1.20599E+02 7.84720E+02 2.70851E+02 6.42267E+02 5.50712E-10-1.02617E-07
 -1       125 1.20933E+02 7.65318E+02 2.68033E+02 7.51293E+02 2.18893E-09-7.09779E-08
 -1       126 6.25917E+01 6.47295E+02 2.14963E+02 7.24774E+02 8.74517E-10-5.66806E-09
 -3
    1PSTEP                        55          14           1          
  100CL  114 1.40000E-01         126                     1   14           1
 -4  TOSTRAIN    6    1
 -5  EXX         1    4    1    1
 -5  EYY         1    4    2    2
 -5  EZZ         1    4    3    3
 -5  EXY         1    4    1    2
 -5  EYZ         1    4    2    3
 -5  EZX         1    4    3    1
 -1         1-2.77826E-05 1.92497E-02-3.13737E-27 9.28049E-03 7.08520E-19-3.11154E-16
 -1         2-2.77826E-05 1.92497E-02-3.13737E-27 9.28049E-03 7.08520E-19-3.11154E-16
 -1         3-1.16167E-05 6.16186E-04 1.57960E-26 2.13897E-04-1.41134E-13-6.82298E-16
 -1         4-1.16167E-05 6.16186E-04 1.57950E-26 2.13897E-04-1.41134E-13-6.85805E-16
 -1         5 1.37671E-04-9.63838E-05 2.29996E-26 1.04385E-04 1.02028E-13 4.56536E-14
 -1         6 1.37671E-04-9.63838E-05 2.30006E-26 1.04385E-04 1.02028E-13 4.56581E-14
 -1         7-2.67120E-05-1.59418E-02-2.87470E-27 8.42315E-03-6.07225E-19 2.91017E-16
 -1         8-2.67120E-05-1.59418E-02-2.87470E-27 8.42315E-03-6.01040E-19 2.91011E-16
 -1         9 6.30273E-05 4.34127E-04-2.49607E-27 2.22096E-04 6.65740E-14 3.43202E-14
 -1        10 6.30273E-05 4.34127E-04-2.49446E-27 2.22096E-04 6.65740E-14 3.43260E-14
 -1        11-2.72473E-05 1.43350E-03 3.93521E-28 6.72358E-03-4.08736E-21 5.54670E-18
 -1        12-2.72473E-05 1.43350E-03 3.93520E-28 6.72358E-03-1.56301E-20 5.55863E-18
 -1        13-4.96783E-03 1.71519E-02 1.40725E-26 2.95303E-03-9.37959E-14-5.06331E-14
 -1        14-2.84845E-03 1.25589E-02 8.53812E-26 1.62682E-03-1.09921E-13-1.89493E-13
 -1        15-2.03608E-03 7.98477E-03 2.06401E-25 1.55285E-03-1.06801E-13-3.12625E-13
 -1        16-1.11769E-03 4.05324E-03 5.12528E-25 1.32476E-03-7.54240E-14-5.05165E-13
 -1        17-3.75882E-04 5.95418E-04 6.86717E-25 1.14503E-03 2.57040E-14-5.88216E-13
 -1        18 1.99931E-04-2.28495E-03 4.29540E-25 9.29544E-04 1.15500E-13-4.54092E-13
 -1        19 7.14587E-04-4.51128E-03 2.57443E-25 6.76370E-04 1.29337E-13-3.42058E-13
 -1        20 1.13309E-03-6.21973E-03 9.88662E-26 4.91381E-04 1.32622E-13-1.98855E-13
 -1        21 1.42581E-03-7.30378E-03 2.62239E-26 1.94321E-04 1.38974E-13-7.64236E-15
 -1        22 1.44135E-03-7.39762E-03 3.96693E-26-1.68135E-04 1.09945E-13 9.49820E-14
 -1        23 1.33148E-03-6.78540E-03 1.75189E-26-3.05922E-04 6.84765E-14 7.73654E-14
 -1        24 1.17827E-03-5.88297E-03 7.28187E-26-4.44229E-04 7.21343E-15 1.96560E-13
 -1        25 8.81019E-04-4.12304E-03 1.03268E-25-8.77491E-04-9.48721E-14 2.22666E-13
 -1        26 1.94086E-04-9.94344E-04 1.74905E-26-1.23271E-03-1.27744E-13 1.08884E-14
 -1        27-6.12928E-04 2.48155E-03 9.43362E-27-1.00831E-03-5.06273E-14-7.07429E-14
 -1        28-1.06220E-03 4.54082E-03 3.58373E-26-3.04017E-04 4.49544E-14-1.34408E-13
 -1        29-9.29848E-04 4.41945E-03-6.92782E-29 3.64241E-04 7.64452E-14-2.45776E-14
 -1        30-5.89748E-04 2.85080E-03 5.18422E-26 5.65113E-04-7.13153E-15 1.74622E-13
 -1        31-2.19785E-04 1.24743E-03 6.87123E-26 3.44470E-04-1.11356E-13 1.66505E-13
 -1        32-4.96783E-03 1.71519E-02 1.40725E-26 2.95303E-03-9.37959E-14-5.06331E-14
 -1        33-2.84845E-03 1.25589E-02 8.53812E-26 1.62682E-03-1.09921E-13-1.89493E-13
 -1        34-2.03608E-03 7.98477E-03 2.06401E-25 1.55285E-03-1.06801E-13-3.12625E-13
 -1        35-1.11769E-03 4.05324E-03 5.12530E-25 1.32476E-03-7.54240E-14-5.05166E-13
 -1        36-3.75882E-04 5.95418E-04 6.86720E-25 1.14503E-03 2.57038E-14-5.88217E-13
 -1        37 1.99931E-04-2.28495E-03 4.29531E-25 9.29544E-04 1.15499E-13-4.54086E-13
 -1        38 7.14587E-04-4.51128E-03 2.57447E-25 6.76370E-04 1.29337E-13-3.42060E-13
 -1        39 1.13309E-03-6.21973E-03 9.88658E-26 4.91381E-04 1.32622E-13-1.98854E-13
 -1        40 1.42581E-03-7.30378E-03 2.62239E-26 1.94321E-04 1.38974E-13-7.64236E-15
 -1        41 1.44135E-03-7.39762E-03 3.96693E-26-1.68135E-04 1.09945E-13 9.49820E-14
 -1        42 1.33148E-03-6.78540E-03 1.75196E-26-3.05922E-04 6.84765E-14 7.73669E-14
 -1        43 1.17827E-03-5.88297E-03 7.28185E-26-4.44229E-04 7.21342E-15 1.96559E-13
 -1        44 8.81019E-04-4.12304E-03 1.03268E-25-8.77491E-04-9.48720E-14 2.22666E-13
 -1        45 1.94086E-04-9.94344E-04 1.74905E-26-1.23271E-03-1.27744E-13 1.08884E-14
 -1        46-6.12928E-04 2.48155E-03 9.43362E-27-1.00831E-03-5.06273E-14-7.07429E-14
 -1        47-1.06220E-03 4.54082E-03 3.58373E-26-3.04017E-04 4.49544E-14-1.34408E-13
 -1        48-9.29848E-04 4.41945E-03-6.96125E-29 3.64241E-04 7.64450E-14-2.45782E-14
 -1        49-5.89748E-04 2.85080E-03 5.18413E-26 5.65113E-04-7.13145E-15 1.74621E-13
 -1        50-2.19785E-04 1.24743E-03 6.87157E-26 3.44470E-04-1.11357E-13 1.66510E-13
 -1        51 1.81424E-04-5.22003E-04 2.19327E-26 3.69772E-04 5.61024E-14 1.03589E-13
 -1        52 5.45964E-04-1.83947E-03 7.14100E-26 5.50315E-04-6.21861E-14 1.88880E-13
 -1        53 9.58049E-04-3.33682E-03 9.98838E-27 3.44740E-04-8.89822E-14 4.10573E-14
 -1        54 9.15723E-04-3.38635E-03 4.41751E-27-2.97429E-04-4.98333E-15-6.97385E-14
 -1        55 3.84354E-04-1.13126E-03 2.22561E-26-1.00167E-03 9.99535E-14-6.26580E-14
 -1        56-4.50616E-04 2.54162E-03 3.15578E-26-1.21953E-03 1.66271E-13 1.70160E-14
 -1        57-1.25434E-03 5.84191E-03 1.57042E-25-8.54917E-04 7.01064E-14 2.88251E-13
 -1        58-1.70292E-03 7.80403E-03 3.88775E-26-4.22250E-04-3.17887E-14 1.45802E-13
 -1        59-1.92529E-03 8.92831E-03 3.84025E-26-2.80635E-04-7.61906E-15 1.42171E-13
 -1        60-2.15821E-03 9.75899E-03-1.86123E-27-1.40838E-04-2.14431E-14 4.60325E-14
 -1        61-2.23994E-03 9.92389E-03 1.52311E-26 2.22061E-04-1.05164E-13-5.78918E-14
 -1        62-2.10617E-03 9.17493E-03 1.24436E-25 5.32521E-04-1.50545E-13-2.16960E-13
 -1        63-1.86262E-03 7.80548E-03 2.56628E-25 7.21652E-04-1.21116E-13-3.46125E-13
 -1        64-1.48525E-03 5.79849E-03 4.84146E-25 9.43837E-04-6.85937E-14-4.91297E-13
 -1        65-8.41468E-04 3.00302E-03 7.23525E-25 1.14487E-03-8.94021E-15-6.02889E-13
 -1        66-1.14958E-04-3.94960E-04 4.91148E-25 1.35081E-03 4.85426E-14-4.97306E-13
 -1        67 6.83628E-04-4.25976E-03 2.20325E-25 1.58605E-03 7.49764E-14-3.30997E-13
 -1        68 1.48553E-03-8.94076E-03 9.09691E-26 1.64686E-03 1.02420E-13-2.00538E-13
 -1        69 3.53795E-03-1.37554E-02 1.17902E-26 2.74821E-03 8.93687E-14-4.25317E-14
 -1        70 1.81424E-04-5.22003E-04 2.19337E-26 3.69772E-04 5.61021E-14 1.03591E-13
 -1        71 5.45964E-04-1.83947E-03 7.14096E-26 5.50315E-04-6.21860E-14 1.88879E-13
 -1        72 9.58049E-04-3.33682E-03 9.98841E-27 3.44740E-04-8.89822E-14 4.10575E-14
 -1        73 9.15723E-04-3.38635E-03 4.41765E-27-2.97429E-04-4.98334E-15-6.97388E-14
 -1        74 3.84354E-04-1.13126E-03 2.22565E-26-1.00167E-03 9.99536E-14-6.26593E-14
 -1        75-4.50616E-04 2.54162E-03 3.15578E-26-1.21953E-03 1.66271E-13 1.70160E-14
 -1        76-1.25434E-03 5.84191E-03 1.57042E-25-8.54917E-04 7.01063E-14 2.88251E-13
 -1        77-1.70292E-03 7.80403E-03 3.88740E-26-4.22250E-04-3.17887E-14 1.45796E-13
 -1        78-1.92529E-03 8.92831E-03 3.84037E-26-2.80635E-04-7.61911E-15 1.42173E-13
 -1        79-2.15821E-03 9.75899E-03-1.86127E-27-1.40838E-04-2.14431E-14 4.60324E-14
 -1        80-2.23994E-03 9.92389E-03 1.52311E-26 2.22061E-04-1.05164E-13-5.78918E-14
 -1        81-2.10617E-03 9.17493E-03 1.24436E-25 5.32521E-04-1.50545E-13-2.16960E-13
 -1        82-1.86262E-03 7.80548E-03 2.56628E-25 7.21652E-04-1.21116E-13-3.46125E-13
 -1        83-1.48525E-03 5.79849E-03 4.84141E-25 9.43837E-04-6.85932E-14-4.91294E-13
 -1        84-8.41468E-04 3.00302E-03 7.23524E-25 1.14487E-03-8.94022E-15-6.02889E-13
 -1        85-1.14958E-04-3.94960E-04 4.91152E-25 1.35081E-03 4.85425E-14-4.97308E-13
 -1        86 6.83628E-04-4.25976E-03 2.20325E-25 1.58605E-03 7.49764E-14-3.30997E-13
 -1        87 1.48553E-03-8.94076E-03 9.09691E-26 1.64686E-03 1.02420E-13-2.00538E-13
 -1        88 3.53795E-03-1.37554E-02 1.17902E-26 2.74821E-03 8.93686E-14-4.25317E-14
 -1        89-7.14938E-04 1.62307E-03-9.56511E-27 2.31019E-03 2.42246E-15-1.84887E-14
 -1        90-6.81457E-04 1.82827E-03 9.33506E-26 2.35960E-03 9.62206E-18-2.30796E-13
 -1        91-6.76228E-04 1.84609E-03 2.13906E-25 1.98590E-03-1.12208E-14-3.33293E-13
 -1        92-6.16325E-04 1.81625E-03 4.78566E-25 1.73597E-03-2.04276E-14-4.92498E-13
 -1        93-6.08675E-04 1.79306E-03 7.51079E-25 1.48095E-03-1.66124E-15-6.14347E-13
 -1        94-6.42658E-04 1.77394E-03 4.91528E-25 1.20061E-03 2.16286E-14-4.99761E-13
 -1        95-5.74019E-04 1.65614E-03 2.14691E-25 8.93290E-04 9.96466E-15-3.36513E-13
 -1        96-4.86542E-04 1.46408E-03 7.25657E-26 6.48032E-04-3.64264E-15-2.11271E-13
 -1        97-4.07063E-04 1.28536E-03-1.41162E-26 2.53229E-04 1.39132E-14 5.17308E-16
 -1        98-3.58428E-04 1.15544E-03 1.88021E-26-2.05601E-04 6.16351E-14 8.53098E-14
 -1        99-2.96904E-04 1.05693E-03 1.75200E-26-3.83097E-04 2.81549E-14 9.61732E-14
 -1       100-2.62324E-04 9.59627E-04 7.34733E-26-5.73414E-04 1.48024E-16 1.95201E-13
 -1       101-1.86660E-04 8.47758E-04 1.34312E-25-1.14572E-03 1.30238E-14 2.70310E-13
 -1       102-1.28265E-04 7.57265E-04-1.61336E-26-1.61774E-03 2.20925E-15 3.90844E-14
 -1       103-1.14287E-04 6.89983E-04 1.52289E-26-1.33279E-03 2.06397E-14-9.81930E-14
 -1       104-7.32394E-05 5.88717E-04 2.07044E-26-4.12092E-04 2.10152E-14-1.08087E-13
 -1       105 1.41006E-05 5.10089E-04-9.15954E-27 4.59745E-04-1.74379E-15 3.27210E-14
 -1       106-2.18921E-05 4.89467E-04 8.29988E-26 7.43590E-04-2.26804E-14 2.09662E-13
 -1       107-1.91805E-05 4.58395E-04 4.84588E-26 4.80430E-04 2.03563E-14 1.65279E-13
 -1       108-1.91805E-05 4.58395E-04 4.84564E-26 4.80430E-04 2.03563E-14 1.65275E-13
 -1       109-2.18921E-05 4.89467E-04 8.29997E-26 7.43590E-04-2.26804E-14 2.09663E-13
 -1       110 1.41006E-05 5.10089E-04-9.15955E-27 4.59745E-04-1.74367E-15 3.27206E-14
 -1       111-7.32394E-05 5.88717E-04 2.07040E-26-4.12092E-04 2.10152E-14-1.08086E-13
 -1       112-1.14287E-04 6.89983E-04 1.52289E-26-1.33279E-03 2.06396E-14-9.81930E-14
 -1       113-1.28265E-04 7.57265E-04-1.61336E-26-1.61774E-03 2.20919E-15 3.90844E-14
 -1       114-1.86660E-04 8.47758E-04 1.34312E-25-1.14572E-03 1.30239E-14 2.70310E-13
 -1       115-2.62324E-04 9.59627E-04 7.34742E-26-5.73414E-04 1.48058E-16 1.95203E-13
 -1       116-2.96904E-04 1.05693E-03 1.75180E-26-3.83097E-04 2.81549E-14 9.61688E-14
 -1       117-3.58428E-04 1.15544E-03 1.88022E-26-2.05601E-04 6.16351E-14 8.53100E-14
 -1       118-4.07063E-04 1.28536E-03-1.41162E-26 2.53229E-04 1.39132E-14 5.17309E-16
 -1       119-4.86542E-04 1.46408E-03 7.25665E-26 6.48032E-04-3.64268E-15-2.11272E-13
 -1       120-5.74019E-04 1.65614E-03 2.14691E-25 8.93290E-04 9.96469E-15-3.36514E-13
 -1       121-6.42658E-04 1.77394E-03 4.91534E-25 1.20061E-03 2.16284E-14-4.99764E-13
 -1       122-6.08675E-04 1.79306E-03 7.51072E-25 1.48095E-03-1.66090E-15-6.14345E-13
 -1       123-6.16325E-04 1.81625E-03 4.78561E-25 1.73597E-03-2.04275E-14-4.92496E-13
 -1       124-6.76228E-04 1.84609E-03 2.13907E-25 1.98590E-03-1.12210E-14-3.33293E-13
 -1       125-6.81457E-04 1.82827E-03 9.33506E-26 2.35960E-03 9.57569E-18-2.30796E-13
 -1       126-7.14938E-04 1.62307E-03-9.56510E-27 2.31019E-03 2.42252E-15-1.84887E-14
 -3
    1PSTEP                        56          14           1          
  100CL  114 1.40000E-01         126                     1   14           1
 -4  ERROR       1    1
 -5  STR(%)      1    1    0    0
 -1         1 5.88759E+01
 -1         2 5.88759E+01
 -1         3 7.53840E+00
 -1         4 7.53840E+00
 -1         5 4.29760E+01
 -1         6 4.29760E+01
 -1         7 7.01459E+01
 -1         8 7.01459E+01
 -1         9 4.29760E+01
 -1        10 4.29760E+01
 -1        11 7.01459E+01
 -1        12 7.01459E+01
 -1        13 5.88759E+01
 -1        14 5.14672E+01
 -1        15 4.62519E+01
 -1        16 3.23048E+01
 -1        17 7.08163E+01
 -1        18 8.92132E+01
 -1        19 8.92132E+01
 -1        20 8.53385E+01
 -1        21 7.72672E+01
 -1        22 7.35595E+01
 -1        23 7.40597E+01
 -1        24 7.66426E+01
 -1        25 7.66426E+01
 -1        26 5.86855E+01
 -1        27 4.53549E+01
 -1        28 5.13669E+01
 -1        29 5.13669E+01
 -1        30 4.86873E+01
 -1        31 3.18730E+01
 -1        32 5.88759E+01
 -1        33 5.14672E+01
 -1        34 4.62519E+01
 -1        35 3.23048E+01
 -1        36 7.08163E+01
 -1        37 8.92132E+01
 -1        38 8.92132E+01
 -1        39 8.53385E+01
 -1        40 7.72672E+01
 -1        41 7.35595E+01
 -1        42 7.40597E+01
 -1        43 7.66426E+01
 -1        44 7.66426E+01
 -1        45 5.86855E+01
 -1        46 4.53549E+01
 -1        47 5.13669E+01
 -1        48 5.13669E+01
 -1        49 4.86873E+01
 -1        50 3.18730E+01
 -1        51 6.63513E+01
 -1        52 7.44110E+01
 -1        53 7.44110E+01
 -1        54 7.36964E+01
 -1        55 7.09736E+01
 -1        56 3.87396E+01
 -1        57 5.07887E+01
 -1        58 5.12338E+01
 -1        59 5.14781E+01
 -1        60 5.14781E+01
 -1        61 5.04192E+01
 -1        62 5.04192E+01
 -1        63 4.74701E+01
 -1        64 4.19404E+01
 -1        65 2.68334E+01
 -1        66 7.68512E+01
 -1        67 7.68512E+01
 -1        68 7.49706E+01
 -1        69 7.22244E+01
 -1        70 6.63513E+01
 -1        71 7.44110E+01
 -1        72 7.44110E+01
 -1        73 7.36964E+01
 -1        74 7.09736E+01
 -1        75 3.87396E+01
 -1        76 5.07887E+01
 -1        77 5.12338E+01
 -1        78 5.14781E+01
 -1        79 5.14781E+01
 -1        80 5.04192E+01
 -1        81 5.04192E+01
 -1        82 4.74701E+01
 -1        83 4.19404E+01
 -1        84 2.68334E+01
 -1        85 7.68512E+01
 -1        86 7.68512E+01
 -1        87 7.49706E+01
 -1        88 7.22244E+01
 -1        89 7.22244E+01
 -1        90 7.49706E+01
 -1        91 7.68512E+01
 -1        92 7.68512E+01
 -1        93 7.08163E+01
 -1        94 8.92132E+01
 -1        95 8.92132E+01
 -1        96 8.53385E+01
 -1        97 7.72672E+01
 -1        98 7.35595E+01
 -1        99 7.40597E+01
 -1       100 7.66426E+01
 -1       101 7.66426E+01
 -1       102 5.86855E+01
 -1       103 7.09736E+01
 -1       104 7.36964E+01
 -1       105 7.44110E+01
 -1       106 7.44110E+01
 -1       107 6.63513E+01
 -1       108 6.63513E+01
 -1       109 7.44110E+01
 -1       110 7.44110E+01
 -1       111 7.36964E+01
 -1       112 7.09736E+01
 -1       113 5.86855E+01
 -1       114 7.66426E+01
 -1       115 7.66426E+01
 -1       116 7.40597E+01
 -1       117 7.35595E+01
 -1       118 7.72672E+01
 -1       119 8.53385E+01
 -1       120 8.92132E+01
 -1       121 8.92132E+01
 -1       122 7.08163E+01
 -1       123 7.68512E+01
 -1       124 7.68512E+01
 -1       125 7.49706E+01
 -1       126 7.22244E+01
 -3
    1PSTEP                        57          15           1          
  100CL  115 1.50000E-01         126                     1   15           1
 -4  DISP        4    1
 -5  D1          1    2    1    0
 -5  D2          1    2    2    0
 -5  D3          1    2    3    0
 -5  ALL         1    2    0    0    1ALL
 -1         1 0.00000E+00 0.00000E+00 0.00000E+00
 -1         2 0.00000E+00 0.00000E+00 0.00000E+00
 -1         3 1.49640E-02 7.71161E-04 0.00000E+00
 -1         4 1.49640E-02 7.71161E-04 0.00000E+00
 -1         5 1.49523E-02 8.42536E-04 0.00000E+00
 -1         6 1.49523E-02 8.42536E-04 0.00000E+00
 -1         7 0.00000E+00 0.00000E+00 0.00000E+00
 -1         8 0.00000E+00 0.00000E+00 0.00000E+00
 -1         9 1.49494E-02 8.18248E-04 0.00000E+00
 -1        10 1.49494E-02 8.18248E-04 0.00000E+00
 -1        11 0.00000E+00 0.00000E+00 0.00000E+00
 -1        12 0.00000E+00 0.00000E+00 0.00000E+00
 -1        13 9.52227E-04 9.69916E-04 0.00000E+00
 -1        14 2.47810E-03 1.72091E-03 0.00000E+00
 -1        15 4.57474E-03 2.21146E-03 0.00000E+00
 -1        16 6.99048E-03 2.48078E-03 0.00000E+00
 -1        17 9.50634E-03 2.55460E-03 0.00000E+00
 -1        18 1.19395E-02 2.46955E-03 0.00000E+00
 -1        19 1.41465E-02 2.25930E-03 0.00000E+00
 -1        20 1.60145E-02 1.96078E-03 0.00000E+00
 -1        21 1.74789E-02 1.60602E-03 0.00000E+00
 -1        22 1.84980E-02 1.21162E-03 0.00000E+00
 -1        23 1.89959E-02 8.15810E-04 0.00000E+00
 -1        24 1.90274E-02 4.69011E-04 0.00000E+00
 -1        25 1.86936E-02 1.84279E-04 0.00000E+00
 -1        26 1.80396E-02-3.28633E-05 0.00000E+00
 -1        27 1.71070E-02-1.24528E-04 0.00000E+00
 -1        28 1.61263E-02-2.27713E-05 0.00000E+00
 -1        29 1.53975E-02 2.38208E-04 0.00000E+00
 -1        30 1.50482E-02 5.20872E-04 0.00000E+00
 -1        31 1.49736E-02 7.04728E-04 0.00000E+00
 -1        32 9.52227E-04 9.69916E-04 0.00000E+00
 -1        33 2.47810E-03 1.72091E-03 0.00000E+00
 -1        34 4.57474E-03 2.21146E-03 0.00000E+00
 -1        35 6.99048E-03 2.48078E-03 0.00000E+00
 -1        36 9.50634E-03 2.55460E-03 0.00000E+00
 -1        37 1.19395E-02 2.46955E-03 0.00000E+00
 -1        38 1.41465E-02 2.25930E-03 0.00000E+00
 -1        39 1.60145E-02 1.96078E-03 0.00000E+00
 -1        40 1.74789E-02 1.60602E-03 0.00000E+00
 -1        41 1.84980E-02 1.21162E-03 0.00000E+00
 -1        42 1.89959E-02 8.15810E-04 0.00000E+00
 -1        43 1.90274E-02 4.69011E-04 0.00000E+00
 -1        44 1.86936E-02 1.84279E-04 0.00000E+00
 -1        45 1.80396E-02-3.28633E-05 0.00000E+00
 -1        46 1.71070E-02-1.24528E-04 0.00000E+00
 -1        47 1.61263E-02-2.27713E-05 0.00000E+00
 -1        48 1.53975E-02 2.38208E-04 0.00000E+00
 -1        49 1.50482E-02 5.20872E-04 0.00000E+00
 -1        50 1.49736E-02 7.04728E-04 0.00000E+00
 -1        51 1.49571E-02 8.79181E-04 0.00000E+00
 -1        52 1.50197E-02 1.02613E-03 0.00000E+00
 -1        53 1.53560E-02 1.26309E-03 0.00000E+00
 -1        54 1.60820E-02 1.47013E-03 0.00000E+00
 -1        55 1.70548E-02 1.51818E-03 0.00000E+00
 -1        56 1.79839E-02 1.36313E-03 0.00000E+00
 -1        57 1.86368E-02 1.06071E-03 0.00000E+00
 -1        58 1.89691E-02 6.70309E-04 0.00000E+00
 -1        59 1.89286E-02 2.04598E-04 0.00000E+00
 -1        60 1.84170E-02-3.14361E-04 0.00000E+00
 -1        61 1.73729E-02-8.29287E-04 0.00000E+00
 -1        62 1.58777E-02-1.29878E-03 0.00000E+00
 -1        63 1.39793E-02-1.69849E-03 0.00000E+00
 -1        64 1.17508E-02-1.99122E-03 0.00000E+00
 -1        65 9.30183E-03-2.14614E-03 0.00000E+00
 -1        66 6.78784E-03-2.13946E-03 0.00000E+00
 -1        67 4.40305E-03-1.93900E-03 0.00000E+00
 -1        68 2.34430E-03-1.52334E-03 0.00000E+00
 -1        69 8.55053E-04-8.61429E-04 0.00000E+00
 -1        70 1.49571E-02 8.79181E-04 0.00000E+00
 -1        71 1.50197E-02 1.02613E-03 0.00000E+00
 -1        72 1.53560E-02 1.26309E-03 0.00000E+00
 -1        73 1.60820E-02 1.47013E-03 0.00000E+00
 -1        74 1.70548E-02 1.51818E-03 0.00000E+00
 -1        75 1.79839E-02 1.36313E-03 0.00000E+00
 -1        76 1.86368E-02 1.06071E-03 0.00000E+00
 -1        77 1.89691E-02 6.70309E-04 0.00000E+00
 -1        78 1.89286E-02 2.04598E-04 0.00000E+00
 -1        79 1.84170E-02-3.14361E-04 0.00000E+00
 -1        80 1.73729E-02-8.29287E-04 0.00000E+00
 -1        81 1.58777E-02-1.29878E-03 0.00000E+00
 -1        82 1.39793E-02-1.69849E-03 0.00000E+00
 -1        83 1.17508E-02-1.99122E-03 0.00000E+00
 -1        84 9.30183E-03-2.14614E-03 0.00000E+00
 -1        85 6.78784E-03-2.13946E-03 0.00000E+00
 -1        86 4.40305E-03-1.93900E-03 0.00000E+00
 -1        87 2.34430E-03-1.52334E-03 0.00000E+00
 -1        88 8.55053E-04-8.61429E-04 0.00000E+00
 -1        89 6.76563E-04 5.12802E-05 0.00000E+00
 -1        90 2.28928E-03 1.03845E-04 0.00000E+00
 -1        91 4.40973E-03 1.39623E-04 0.00000E+00
 -1        92 6.85679E-03 1.71826E-04 0.00000E+00
 -1        93 9.40949E-03 2.04835E-04 0.00000E+00
 -1        94 1.18788E-02 2.38169E-04 0.00000E+00
 -1        95 1.41247E-02 2.78684E-04 0.00000E+00
 -1        96 1.60246E-02 3.29870E-04 0.00000E+00
 -1        97 1.75157E-02 3.87604E-04 0.00000E+00
 -1        98 1.85500E-02 4.48420E-04 0.00000E+00
 -1        99 1.90522E-02 5.11297E-04 0.00000E+00
 -1       100 1.90739E-02 5.71352E-04 0.00000E+00
 -1       101 1.87261E-02 6.24008E-04 0.00000E+00
 -1       102 1.80485E-02 6.67157E-04 0.00000E+00
 -1       103 1.70830E-02 6.98315E-04 0.00000E+00
 -1       104 1.60640E-02 7.21919E-04 0.00000E+00
 -1       105 1.53154E-02 7.48219E-04 0.00000E+00
 -1       106 1.49805E-02 7.74504E-04 0.00000E+00
 -1       107 1.49412E-02 7.96067E-04 0.00000E+00
 -1       108 1.49412E-02 7.96067E-04 0.00000E+00
 -1       109 1.49805E-02 7.74504E-04 0.00000E+00
 -1       110 1.53154E-02 7.48219E-04 0.00000E+00
 -1       111 1.60640E-02 7.21919E-04 0.00000E+00
 -1       112 1.70830E-02 6.98315E-04 0.00000E+00
 -1       113 1.80485E-02 6.67157E-04 0.00000E+00
 -1       114 1.87261E-02 6.24008E-04 0.00000E+00
 -1       115 1.90739E-02 5.71352E-04 0.00000E+00
 -1       116 1.90522E-02 5.11297E-04 0.00000E+00
 -1       117 1.85500E-02 4.48420E-04 0.00000E+00
 -1       118 1.75157E-02 3.87604E-04 0.00000E+00
 -1       119 1.60246E-02 3.29870E-04 0.00000E+00
 -1       120 1.41247E-02 2.78684E-04 0.00000E+00
 -1       121 1.18788E-02 2.38169E-04 0.00000E+00
 -1       122 9.40949E-03 2.04835E-04 0.00000E+00
 -1       123 6.85679E-03 1.71826E-04 0.00000E+00
 -1       124 4.40973E-03 1.39623E-04 0.00000E+00
 -1       125 2.28928E-03 1.03845E-04 0.00000E+00
 -1       126 6.76563E-04 5.12802E-05 0.00000E+00
 -3
    1PSTEP                        58          15           1          
  100CL  115 1.50000E-01         126                     1   15           1
 -4  STRESS      6    1
 -5  SXX         1    4    1    1
 -5  SYY         1    4    2    2
 -5  SZZ         1    4    3    3
 -5  SXY         1    4    1    2
 -5  SYZ         1    4    2    3
 -5  SZX         1    4    3    1
 -1         1 4.57326E+03 1.07788E+04 4.47472E+03 3.11398E+03-1.64643E-10-1.89520E-10
 -1         2 4.57326E+03 1.07788E+04 4.47472E+03 3.11398E+03-1.64643E-10-1.89520E-10
 -1         3 1.48981E+02 6.49497E+02 2.39064E+02 1.15781E+02-7.40820E-09-8.07665E-09
 -1         4 1.48981E+02 6.49497E+02 2.39064E+02 1.15781E+02-7.40822E-09-8.07665E-09
 -1         5-1.38230E+02-3.81132E+02-1.55885E+02 5.95589E+01 3.24148E-08-5.84786E-08
 -1         6-1.38230E+02-3.81132E+02-1.55885E+02 5.95589E+01 3.24148E-08-5.84786E-08
 -1         7-3.89858E+03-9.02842E+03-3.97612E+03 2.48632E+03-9.92748E-11 7.58550E-11
 -1         8-3.89858E+03-9.02842E+03-3.97612E+03 2.48632E+03-9.92748E-11 7.58550E-11
 -1         9 3.91437E+01 2.11916E+02 7.52604E+01 1.34928E+02-1.42451E-08-2.04476E-08
 -1        10 3.91437E+01 2.11916E+02 7.52604E+01 1.34928E+02-1.42450E-08-2.04476E-08
 -1        11 3.01001E+02 5.32946E+02 2.57638E+02 2.08625E+03-1.11156E-10-4.62128E-11
 -1        12 3.01001E+02 5.32946E+02 2.57638E+02 2.08625E+03-1.11156E-10-4.62128E-11
 -1        13 1.23215E+03 8.39017E+03 2.81584E+03 1.08624E+03-2.56016E-08-5.23502E-08
 -1        14 1.31849E+03 6.37958E+03 2.26619E+03 6.97315E+02-4.70873E-08-3.56165E-08
 -1        15 7.29671E+02 4.08599E+03 1.42492E+03 6.48010E+02-4.49569E-08-1.05686E-07
 -1        16 2.56219E+02 2.10464E+03 7.01321E+02 5.30958E+02-1.54616E-08-1.55783E-07
 -1        17-1.52565E+02 3.73372E+02 6.46875E+01 3.97897E+02 2.07276E-08-1.82112E-07
 -1        18-5.23617E+02-1.08131E+03-4.82995E+02 2.59993E+02 5.61062E-08-1.37732E-07
 -1        19-7.77533E+02-2.21241E+03-9.01388E+02 1.45429E+02 7.05115E-08-2.38784E-08
 -1        20-9.74058E+02-3.03194E+03-1.20993E+03 7.37518E+01 4.36100E-08 6.00926E-08
 -1        21-1.09423E+03-3.59810E+03-1.41933E+03 4.02924E+01-2.25861E-09 3.01671E-08
 -1        22-1.16865E+03-3.88366E+03-1.52990E+03-3.49460E+01-2.02758E-08-5.11798E-08
 -1        23-1.09125E+03-3.68819E+03-1.44655E+03-1.28661E+02-4.82448E-09-3.87585E-08
 -1        24-9.52201E+02-3.15757E+03-1.24201E+03-1.45847E+02 2.87577E-08-5.25581E-08
 -1        25-7.70822E+02-2.50330E+03-9.88112E+02-1.57297E+02 5.57894E-08 8.79987E-09
 -1        26-5.24272E+02-1.53195E+03-6.19916E+02-2.78834E+02 4.46191E-08 8.06500E-08
 -1        27-1.04481E+02 6.21811E+01-1.42934E+01-4.13755E+02 1.07770E-08 8.06668E-08
 -1        28 2.74336E+02 1.77356E+03 6.09614E+02-3.51484E+02-1.01064E-08 4.09685E-08
 -1        29 4.20592E+02 2.61552E+03 9.02976E+02-1.01496E+02-2.07683E-08 3.63339E-08
 -1        30 3.59121E+02 2.22720E+03 7.70191E+02 1.24003E+02-1.87293E-08 9.83563E-09
 -1        31 2.30039E+02 1.20516E+03 4.28685E+02 1.51553E+02-8.98801E-09 1.00420E-09
 -1        32 1.23215E+03 8.39017E+03 2.81584E+03 1.08624E+03-2.56016E-08-5.23502E-08
 -1        33 1.31849E+03 6.37958E+03 2.26619E+03 6.97315E+02-4.70873E-08-3.56165E-08
 -1        34 7.29671E+02 4.08599E+03 1.42492E+03 6.48010E+02-4.49569E-08-1.05687E-07
 -1        35 2.56219E+02 2.10464E+03 7.01321E+02 5.30958E+02-1.54616E-08-1.55783E-07
 -1        36-1.52565E+02 3.73372E+02 6.46875E+01 3.97897E+02 2.07276E-08-1.82112E-07
 -1        37-5.23617E+02-1.08131E+03-4.82995E+02 2.59993E+02 5.61062E-08-1.37731E-07
 -1        38-7.77533E+02-2.21241E+03-9.01388E+02 1.45429E+02 7.05116E-08-2.38783E-08
 -1        39-9.74058E+02-3.03194E+03-1.20993E+03 7.37518E+01 4.36100E-08 6.00931E-08
 -1        40-1.09423E+03-3.59810E+03-1.41933E+03 4.02924E+01-2.25861E-09 3.01676E-08
 -1        41-1.16865E+03-3.88366E+03-1.52990E+03-3.49460E+01-2.02758E-08-5.11800E-08
 -1        42-1.09125E+03-3.68819E+03-1.44655E+03-1.28661E+02-4.82447E-09-3.87585E-08
 -1        43-9.52201E+02-3.15757E+03-1.24201E+03-1.45847E+02 2.87576E-08-5.25581E-08
 -1        44-7.70822E+02-2.50330E+03-9.88112E+02-1.57297E+02 5.57894E-08 8.79979E-09
 -1        45-5.24272E+02-1.53195E+03-6.19916E+02-2.78834E+02 4.46191E-08 8.06492E-08
 -1        46-1.04481E+02 6.21811E+01-1.42934E+01-4.13755E+02 1.07770E-08 8.06668E-08
 -1        47 2.74336E+02 1.77356E+03 6.09614E+02-3.51484E+02-1.01064E-08 4.09689E-08
 -1        48 4.20592E+02 2.61552E+03 9.02976E+02-1.01496E+02-2.07683E-08 3.63339E-08
 -1        49 3.59121E+02 2.22720E+03 7.70191E+02 1.24003E+02-1.87293E-08 9.83575E-09
 -1        50 2.30039E+02 1.20516E+03 4.28685E+02 1.51553E+02-8.98808E-09 1.00377E-09
 -1        51-2.52215E+02-9.11587E+02-3.50162E+02 1.51850E+02 1.98419E-08 1.33698E-08
 -1        52-4.54546E+02-1.86625E+03-7.00022E+02 1.63529E+02 2.59360E-08 1.66985E-09
 -1        53-5.40116E+02-2.14631E+03-8.11045E+02-4.17316E+01 3.01378E-08 3.02474E-08
 -1        54-2.88671E+02-1.18968E+03-4.46073E+02-3.04212E+02 2.68634E-08 6.40883E-08
 -1        55 7.16098E+01 5.64704E+02 1.88846E+02-4.08349E+02 1.20249E-08 7.71672E-08
 -1        56 4.53582E+02 2.26637E+03 8.09420E+02-3.07257E+02-2.24707E-08 7.95557E-08
 -1        57 6.75662E+02 3.38866E+03 1.20717E+03-1.86130E+02-3.17669E-08 1.00389E-08
 -1        58 8.54871E+02 4.18546E+03 1.49422E+03-1.50322E+02-1.74465E-08-4.15808E-08
 -1        59 9.62782E+02 4.82196E+03 1.71165E+03-8.42193E+01 1.78625E-09-6.31859E-08
 -1        60 1.05601E+03 5.12990E+03 1.82872E+03 7.87049E+01 2.63467E-08-9.22212E-09
 -1        61 9.83119E+02 4.95482E+03 1.75624E+03 2.14430E+02 2.37804E-08 2.36548E-08
 -1        62 8.63361E+02 4.48692E+03 1.58392E+03 2.72950E+02-2.12451E-08 4.73917E-08
 -1        63 6.76657E+02 3.72183E+03 1.30420E+03 3.30172E+02-5.70536E-08-3.56009E-08
 -1        64 4.76338E+02 2.63224E+03 9.23945E+02 3.88854E+02-4.65248E-08-1.32087E-07
 -1        65 1.02982E+02 1.18871E+03 3.84412E+02 4.29693E+02-4.38461E-09-1.53418E-07
 -1        66-3.26277E+02-5.77270E+02-2.72711E+02 4.18747E+02 3.79739E-08-1.64087E-07
 -1        67-7.59713E+02-2.63173E+03-1.02503E+03 3.97228E+02 5.29804E-08-1.18968E-07
 -1        68-1.42700E+03-5.04032E+03-1.96569E+03 3.82927E+02 3.40946E-08-4.77718E-08
 -1        69-1.39187E+03-7.06387E+03-2.58658E+03 7.22527E+02 8.81960E-09-3.08076E-08
 -1        70-2.52215E+02-9.11587E+02-3.50162E+02 1.51850E+02 1.98418E-08 1.33689E-08
 -1        71-4.54546E+02-1.86625E+03-7.00022E+02 1.63529E+02 2.59359E-08 1.67008E-09
 -1        72-5.40116E+02-2.14631E+03-8.11045E+02-4.17316E+01 3.01378E-08 3.02474E-08
 -1        73-2.88671E+02-1.18968E+03-4.46073E+02-3.04212E+02 2.68633E-08 6.40883E-08
 -1        74 7.16098E+01 5.64704E+02 1.88846E+02-4.08349E+02 1.20250E-08 7.71671E-08
 -1        75 4.53582E+02 2.26637E+03 8.09420E+02-3.07257E+02-2.24707E-08 7.95557E-08
 -1        76 6.75662E+02 3.38866E+03 1.20717E+03-1.86130E+02-3.17669E-08 1.00384E-08
 -1        77 8.54871E+02 4.18546E+03 1.49422E+03-1.50322E+02-1.74465E-08-4.15822E-08
 -1        78 9.62782E+02 4.82196E+03 1.71165E+03-8.42193E+01 1.78624E-09-6.31851E-08
 -1        79 1.05601E+03 5.12990E+03 1.82872E+03 7.87049E+01 2.63467E-08-9.22370E-09
 -1        80 9.83119E+02 4.95482E+03 1.75624E+03 2.14430E+02 2.37804E-08 2.36547E-08
 -1        81 8.63361E+02 4.48692E+03 1.58392E+03 2.72950E+02-2.12451E-08 4.73934E-08
 -1        82 6.76657E+02 3.72183E+03 1.30420E+03 3.30172E+02-5.70536E-08-3.56019E-08
 -1        83 4.76338E+02 2.63224E+03 9.23945E+02 3.88854E+02-4.65248E-08-1.32087E-07
 -1        84 1.02982E+02 1.18871E+03 3.84412E+02 4.29693E+02-4.38454E-09-1.53420E-07
 -1        85-3.26277E+02-5.77270E+02-2.72711E+02 4.18747E+02 3.79734E-08-1.64087E-07
 -1        86-7.59713E+02-2.63173E+03-1.02503E+03 3.97228E+02 5.29804E-08-1.18968E-07
 -1        87-1.42700E+03-5.04032E+03-1.96569E+03 3.82927E+02 3.40946E-08-4.77718E-08
 -1        88-1.39187E+03-7.06387E+03-2.58658E+03 7.22527E+02 8.81960E-09-3.08076E-08
 -1        89-5.57701E+01 4.56218E+02 1.22461E+02 7.10472E+02-1.05945E-08-3.64439E-08
 -1        90-3.96773E+00 5.93810E+02 1.79803E+02 7.64253E+02-1.28675E-08-3.57627E-08
 -1        91 1.50291E+00 6.70935E+02 2.01298E+02 6.58361E+02 5.25632E-09-1.10359E-07
 -1        92-1.73814E+01 7.49355E+02 2.17996E+02 6.04568E+02 1.89935E-08-1.73142E-07
 -1        93-1.10720E+01 7.74986E+02 2.27506E+02 5.15338E+02 1.32709E-08-1.75484E-07
 -1        94-1.33926E+01 7.56026E+02 2.21837E+02 4.10628E+02 1.21770E-09-1.35438E-07
 -1        95-3.83011E+01 7.26390E+02 2.06284E+02 3.05589E+02 2.30283E-09-3.41648E-08
 -1        96-4.47482E+01 6.84111E+02 1.92651E+02 2.14792E+02 8.97794E-09 6.70968E-08
 -1        97-4.72790E+01 6.18596E+02 1.72984E+02 1.47181E+02 1.70551E-08 3.02027E-08
 -1        98-4.73788E+01 5.60754E+02 1.55570E+02 2.07277E+01 2.17099E-09-3.37985E-08
 -1        99-5.59447E+01 5.11904E+02 1.38317E+02-1.33003E+02-3.60274E-09-6.07512E-08
 -1       100-4.41111E+01 4.67900E+02 1.28525E+02-1.92830E+02 8.69613E-09-5.34257E-08
 -1       101-4.23431E+01 4.14079E+02 1.12086E+02-2.31559E+02 8.59774E-09 7.36953E-09
 -1       102-2.86140E+01 3.55577E+02 9.75570E+01-3.83524E+02 1.33574E-08 8.29071E-08
 -1       103-1.58950E+01 2.93845E+02 8.24731E+01-5.29260E+02 1.99597E-08 9.17268E-08
 -1       104-8.71454E+00 2.63583E+02 7.56418E+01-4.25269E+02 8.41965E-09 5.41517E-08
 -1       105-5.06481E+01 2.28866E+02 5.29754E+01-9.16707E+01-3.69583E-09 3.14532E-08
 -1       106-3.19709E+01 1.99132E+02 5.00772E+01 2.01262E+02 2.44787E-09 1.77336E-09
 -1       107 1.32376E+01 1.97721E+02 6.33830E+01 2.20556E+02-6.47351E-09 3.96442E-10
 -1       108 1.32376E+01 1.97721E+02 6.33830E+01 2.20556E+02-6.47344E-09 3.96615E-10
 -1       109-3.19709E+01 1.99132E+02 5.00772E+01 2.01262E+02 2.44787E-09 1.77331E-09
 -1       110-5.06481E+01 2.28866E+02 5.29754E+01-9.16707E+01-3.69587E-09 3.14532E-08
 -1       111-8.71454E+00 2.63583E+02 7.56418E+01-4.25269E+02 8.41967E-09 5.41509E-08
 -1       112-1.58950E+01 2.93845E+02 8.24731E+01-5.29260E+02 1.99597E-08 9.17270E-08
 -1       113-2.86140E+01 3.55577E+02 9.75570E+01-3.83524E+02 1.33574E-08 8.29080E-08
 -1       114-4.23431E+01 4.14079E+02 1.12086E+02-2.31559E+02 8.59770E-09 7.36993E-09
 -1       115-4.41111E+01 4.67900E+02 1.28525E+02-1.92830E+02 8.69615E-09-5.34255E-08
 -1       116-5.59447E+01 5.11904E+02 1.38317E+02-1.33003E+02-3.60275E-09-6.07510E-08
 -1       117-4.73788E+01 5.60754E+02 1.55570E+02 2.07277E+01 2.17099E-09-3.37981E-08
 -1       118-4.72790E+01 6.18596E+02 1.72984E+02 1.47181E+02 1.70551E-08 3.02021E-08
 -1       119-4.47482E+01 6.84111E+02 1.92651E+02 2.14792E+02 8.97793E-09 6.70957E-08
 -1       120-3.83011E+01 7.26390E+02 2.06284E+02 3.05589E+02 2.30285E-09-3.41651E-08
 -1       121-1.33926E+01 7.56026E+02 2.21837E+02 4.10628E+02 1.21772E-09-1.35437E-07
 -1       122-1.10720E+01 7.74986E+02 2.27506E+02 5.15338E+02 1.32709E-08-1.75483E-07
 -1       123-1.73814E+01 7.49355E+02 2.17996E+02 6.04568E+02 1.89936E-08-1.73143E-07
 -1       124 1.50291E+00 6.70935E+02 2.01298E+02 6.58361E+02 5.25628E-09-1.10359E-07
 -1       125-3.96774E+00 5.93810E+02 1.79803E+02 7.64253E+02-1.28675E-08-3.57627E-08
 -1       126-5.57701E+01 4.56218E+02 1.22461E+02 7.10472E+02-1.05945E-08-3.64439E-08
 -3
    1PSTEP                        59          15           1          
  100CL  115 1.50000E-01         126                     1   15           1
 -4  TOSTRAIN    6    1
 -5  EXX         1    4    1    1
 -5  EYY         1    4    2    2
 -5  EZZ         1    4    3    3
 -5  EXY         1    4    1    2
 -5  EYZ         1    4    2    3
 -5  EZX         1    4    3    1
 -1         1-3.05715E-05 1.97367E-02-1.14441E-26 9.52209E-03 8.89390E-19-3.95598E-16
 -1         2-3.05715E-05 1.97367E-02-1.14441E-26 9.52209E-03 8.89390E-19-3.95598E-16
 -1         3-2.92571E-04 1.32943E-03 1.65597E-27 3.76053E-04-2.39983E-14-2.62487E-14
 -1         4-2.92571E-04 1.32943E-03 1.65599E-27 3.76053E-04-2.39984E-14-2.62487E-14
 -1         5 5.74692E-05-7.32755E-04 6.48416E-26 1.93843E-04 1.05554E-13-1.90078E-13
 -1         6 5.74692E-05-7.32755E-04 6.48416E-26 1.93843E-04 1.05554E-13-1.90078E-13
 -1         7-2.88919E-05-1.69624E-02-3.40449E-27 8.55038E-03 1.11016E-19 1.52785E-16
 -1         8-2.88919E-05-1.69624E-02-3.40449E-27 8.55038E-03 1.11016E-19 1.52785E-16
 -1         9-1.17551E-04 4.43619E-04 5.55990E-27 4.38380E-04-4.62293E-14-6.64414E-14
 -1        10-1.17551E-04 4.43619E-04 5.55988E-27 4.38380E-04-4.62292E-14-6.64414E-14
 -1        11-2.97317E-05 1.08788E-03-4.80452E-27 6.76548E-03 5.30393E-19-1.20785E-16
 -1        12-2.97317E-05 1.08788E-03-4.80452E-27 6.76548E-03 5.30393E-19-1.20785E-16
 -1        13-5.35274E-03 1.76590E-02 6.18180E-26 2.97760E-03-8.43651E-14-1.67837E-13
 -1        14-3.25777E-03 1.31562E-02 5.70092E-26 1.67269E-03-1.54174E-13-1.09981E-13
 -1        15-2.44055E-03 8.64863E-03 2.53185E-25 1.61162E-03-1.58454E-13-3.36354E-13
 -1        16-1.60479E-03 4.65466E-03 5.04620E-25 1.42317E-03-7.31684E-14-5.03243E-13
 -1        17-8.31133E-04 1.11356E-03 7.04073E-25 1.20206E-03 3.94381E-14-5.94877E-13
 -1        18-2.19381E-04-1.87004E-03 4.31003E-25 9.24829E-04 1.62683E-13-4.56172E-13
 -1        19 3.45436E-04-4.24141E-03 6.57033E-26 6.60778E-04 2.27305E-13-8.70469E-14
 -1        20 7.27852E-04-5.95269E-03 9.50789E-26 4.62809E-04 1.49187E-13 1.90811E-13
 -1        21 1.02637E-03-7.15132E-03 1.35806E-27 3.33777E-04-5.13654E-15 9.83834E-14
 -1        22 1.14959E-03-7.74909E-03 4.92631E-26 2.09728E-05-6.91969E-14-1.65614E-13
 -1        23 1.13824E-03-7.37961E-03 2.83386E-26-3.72488E-04-1.66159E-14-1.26170E-13
 -1        24 9.26450E-04-6.28846E-03 6.48881E-26-4.95814E-04 9.46230E-14-1.70824E-13
 -1        25 6.85897E-04-4.95495E-03 4.38684E-26-5.67012E-04 1.82342E-13 3.04295E-14
 -1        26 2.73907E-04-2.95412E-03 1.66460E-25-9.55962E-04 1.41951E-13 2.64665E-13
 -1        27-3.44500E-04 2.85548E-04 1.34503E-25-1.33298E-03 3.07220E-14 2.62898E-13
 -1        28-1.13444E-03 3.78335E-03 3.20979E-26-1.06281E-03-3.46730E-14 1.32536E-13
 -1        29-1.59025E-03 5.51438E-03 3.43673E-26-2.53540E-04-6.82173E-14 1.17309E-13
 -1        30-1.34117E-03 4.68765E-03 6.12891E-27 4.31382E-04-6.06740E-14 3.17064E-14
 -1        31-6.45243E-04 2.50671E-03 1.41810E-27 4.95054E-04-2.91106E-14 3.23540E-15
 -1        32-5.35274E-03 1.76590E-02 6.18180E-26 2.97760E-03-8.43651E-14-1.67837E-13
 -1        33-3.25777E-03 1.31562E-02 5.70092E-26 1.67269E-03-1.54174E-13-1.09981E-13
 -1        34-2.44055E-03 8.64863E-03 2.53185E-25 1.61162E-03-1.58454E-13-3.36354E-13
 -1        35-1.60479E-03 4.65466E-03 5.04618E-25 1.42317E-03-7.31684E-14-5.03242E-13
 -1        36-8.31133E-04 1.11356E-03 7.04072E-25 1.20206E-03 3.94380E-14-5.94877E-13
 -1        37-2.19381E-04-1.87004E-03 4.30999E-25 9.24829E-04 1.62683E-13-4.56170E-13
 -1        38 3.45436E-04-4.24141E-03 6.57029E-26 6.60778E-04 2.27305E-13-8.70464E-14
 -1        39 7.27852E-04-5.95269E-03 9.50798E-26 4.62809E-04 1.49187E-13 1.90812E-13
 -1        40 1.02637E-03-7.15132E-03 1.35837E-27 3.33777E-04-5.13648E-15 9.83849E-14
 -1        41 1.14959E-03-7.74909E-03 4.92630E-26 2.09728E-05-6.91969E-14-1.65614E-13
 -1        42 1.13824E-03-7.37961E-03 2.83386E-26-3.72488E-04-1.66158E-14-1.26170E-13
 -1        43 9.26450E-04-6.28846E-03 6.48881E-26-4.95814E-04 9.46230E-14-1.70824E-13
 -1        44 6.85897E-04-4.95495E-03 4.38687E-26-5.67012E-04 1.82342E-13 3.04292E-14
 -1        45 2.73907E-04-2.95412E-03 1.66457E-25-9.55962E-04 1.41951E-13 2.64662E-13
 -1        46-3.44500E-04 2.85548E-04 1.34503E-25-1.33298E-03 3.07220E-14 2.62898E-13
 -1        47-1.13444E-03 3.78335E-03 3.20989E-26-1.06281E-03-3.46731E-14 1.32538E-13
 -1        48-1.59025E-03 5.51438E-03 3.43673E-26-2.53540E-04-6.82172E-14 1.17309E-13
 -1        49-1.34117E-03 4.68765E-03 6.12892E-27 4.31382E-04-6.06740E-14 3.17067E-14
 -1        50-6.45243E-04 2.50671E-03 1.41808E-27 4.95054E-04-2.91108E-14 3.23400E-15
 -1        51 3.18782E-04-1.83372E-03 3.47784E-28 4.92315E-04 6.45449E-14 4.35064E-14
 -1        52 7.94478E-04-3.82117E-03 1.08119E-26 5.10901E-04 8.46652E-14 5.76316E-15
 -1        53 8.61955E-04-4.36813E-03 3.14100E-26-1.90072E-04 9.74780E-14 9.94281E-14
 -1        54 4.71379E-04-2.40003E-03 9.86369E-26-1.03394E-03 8.44719E-14 2.09832E-13
 -1        55-4.30858E-04 1.25315E-03 1.26027E-25-1.29677E-03 3.49088E-14 2.51484E-13
 -1        56-1.19469E-03 4.71369E-03 1.29086E-25-9.08315E-04-7.61490E-14 2.57219E-13
 -1        57-1.75008E-03 7.00308E-03 3.56086E-27-5.19557E-04-1.02547E-13 3.16022E-14
 -1        58-2.09636E-03 8.60438E-03 3.39639E-26-4.58017E-04-5.57931E-14-1.35103E-13
 -1        59-2.45536E-03 9.91519E-03 7.75925E-26-3.43645E-04 4.43614E-15-2.05100E-13
 -1        60-2.54711E-03 1.05203E-02 4.32209E-27 5.13820E-05 8.39213E-14-3.11765E-14
 -1        61-2.56312E-03 1.02188E-02 1.73522E-26 3.71664E-04 7.79653E-14 7.47916E-14
 -1        62-2.40767E-03 9.30888E-03 3.45299E-26 4.89689E-04-6.32722E-14 1.56034E-13
 -1        63-2.12470E-03 7.80275E-03 5.04174E-26 6.65782E-04-1.87884E-13-1.07945E-13
 -1        64-1.56367E-03 5.58240E-03 3.84721E-25 9.33922E-04-1.68949E-13-4.21587E-13
 -1        65-1.04567E-03 2.71611E-03 4.89243E-25 1.21656E-03-3.75647E-14-4.97389E-13
 -1        66-3.10689E-04-8.67706E-04 5.93709E-25 1.39508E-03 9.87887E-14-5.39178E-13
 -1        67 7.26022E-04-5.15165E-03 3.39639E-25 1.55650E-03 1.57117E-13-3.94487E-13
 -1        68 1.61825E-03-1.00810E-02 5.48203E-26 1.66286E-03 1.07052E-13-1.59484E-13
 -1        69 3.71951E-03-1.48434E-02 1.73700E-26 2.77517E-03 2.73743E-14-1.00987E-13
 -1        70 3.18782E-04-1.83372E-03 3.47451E-28 4.92315E-04 6.45448E-14 4.35036E-14
 -1        71 7.94478E-04-3.82117E-03 1.08119E-26 5.10901E-04 8.46649E-14 5.76391E-15
 -1        72 8.61955E-04-4.36813E-03 3.14101E-26-1.90072E-04 9.74782E-14 9.94281E-14
 -1        73 4.71379E-04-2.40003E-03 9.86368E-26-1.03394E-03 8.44714E-14 2.09832E-13
 -1        74-4.30858E-04 1.25315E-03 1.26027E-25-1.29677E-03 3.49092E-14 2.51484E-13
 -1        75-1.19469E-03 4.71369E-03 1.29085E-25-9.08315E-04-7.61490E-14 2.57219E-13
 -1        76-1.75008E-03 7.00308E-03 3.56076E-27-5.19557E-04-1.02547E-13 3.16008E-14
 -1        77-2.09636E-03 8.60438E-03 3.39671E-26-4.58017E-04-5.57929E-14-1.35107E-13
 -1        78-2.45536E-03 9.91519E-03 7.75908E-26-3.43645E-04 4.43609E-15-2.05098E-13
 -1        79-2.54711E-03 1.05203E-02 4.32252E-27 5.13820E-05 8.39211E-14-3.11817E-14
 -1        80-2.56312E-03 1.02188E-02 1.73516E-26 3.71664E-04 7.79653E-14 7.47913E-14
 -1        81-2.40767E-03 9.30888E-03 3.45323E-26 4.89689E-04-6.32720E-14 1.56039E-13
 -1        82-2.12470E-03 7.80275E-03 5.04180E-26 6.65782E-04-1.87885E-13-1.07948E-13
 -1        83-1.56367E-03 5.58240E-03 3.84723E-25 9.33922E-04-1.68949E-13-4.21589E-13
 -1        84-1.04567E-03 2.71611E-03 4.89258E-25 1.21656E-03-3.75648E-14-4.97397E-13
 -1        85-3.10689E-04-8.67706E-04 5.93708E-25 1.39508E-03 9.87872E-14-5.39177E-13
 -1        86 7.26022E-04-5.15165E-03 3.39640E-25 1.55650E-03 1.57118E-13-3.94487E-13
 -1        87 1.61825E-03-1.00810E-02 5.48203E-26 1.66286E-03 1.07052E-13-1.59484E-13
 -1        88 3.71951E-03-1.48434E-02 1.73700E-26 2.77517E-03 2.73743E-14-1.00987E-13
 -1        89-8.16615E-04 1.32141E-03 2.66642E-26 2.26893E-03-3.65844E-14-1.17715E-13
 -1        90-8.19759E-04 1.58152E-03 1.41126E-26 2.40519E-03-4.56785E-14-1.14612E-13
 -1        91-8.57265E-04 1.72400E-03 2.32553E-25 2.03189E-03 2.15652E-15-3.59197E-13
 -1        92-9.57739E-04 1.90168E-03 6.33364E-25 1.83176E-03 3.55737E-14-5.65353E-13
 -1        93-9.38400E-04 1.92463E-03 6.52624E-25 1.53912E-03 1.62253E-14-5.72012E-13
 -1        94-8.91525E-04 1.85154E-03 3.58515E-25 1.21133E-03-1.56537E-14-4.40042E-13
 -1        95-8.89630E-04 1.77963E-03-2.55189E-26 8.87164E-04 3.09031E-15-1.11302E-13
 -1        96-8.39911E-04 1.66814E-03 7.27615E-26 6.16187E-04 3.61077E-14 2.17029E-13
 -1        97-7.68374E-04 1.50919E-03 1.53095E-26 4.22875E-04 5.75462E-14 9.67555E-14
 -1        98-6.98761E-04 1.36290E-03 1.25329E-26 3.66633E-05 5.31908E-15-1.09927E-13
 -1        99-6.58561E-04 1.24904E-03 7.65663E-26-4.42273E-04-1.29237E-14-1.97472E-13
 -1       100-5.84955E-04 1.13518E-03 5.33321E-26-6.21605E-04 2.85594E-14-1.73581E-13
 -1       101-5.32089E-04 1.01345E-03-2.05713E-26-7.37587E-04 2.77015E-14 2.42451E-14
 -1       102-4.60394E-04 8.81046E-04 1.35477E-25-1.22583E-03 3.96083E-14 2.70188E-13
 -1       103-3.87679E-04 7.44399E-04 1.83632E-25-1.69921E-03 5.99268E-14 2.99398E-13
 -1       104-3.31528E-04 6.57972E-04 5.83099E-26-1.36571E-03 2.47101E-14 1.76466E-13
 -1       105-3.64148E-04 5.91171E-04 1.59531E-26-2.87952E-04-1.30813E-14 1.02114E-13
 -1       106-2.73344E-04 4.88340E-04-3.34764E-27 6.57118E-04 7.88720E-15 5.79849E-15
 -1       107-1.63230E-04 4.37157E-04-1.09348E-27 7.16895E-04-2.10485E-14 1.27543E-15
 -1       108-1.63230E-04 4.37157E-04-1.09344E-27 7.16895E-04-2.10483E-14 1.27600E-15
 -1       109-2.73344E-04 4.88340E-04-3.34764E-27 6.57118E-04 7.88720E-15 5.79834E-15
 -1       110-3.64148E-04 5.91171E-04 1.59531E-26-2.87952E-04-1.30814E-14 1.02114E-13
 -1       111-3.31528E-04 6.57972E-04 5.83079E-26-1.36571E-03 2.47102E-14 1.76463E-13
 -1       112-3.87679E-04 7.44399E-04 1.83632E-25-1.69921E-03 5.99267E-14 2.99398E-13
 -1       113-4.60394E-04 8.81046E-04 1.35479E-25-1.22583E-03 3.96083E-14 2.70191E-13
 -1       114-5.32089E-04 1.01345E-03-2.05715E-26-7.37587E-04 2.77014E-14 2.42464E-14
 -1       115-5.84955E-04 1.13518E-03 5.33317E-26-6.21605E-04 2.85595E-14-1.73580E-13
 -1       116-6.58561E-04 1.24904E-03 7.65659E-26-4.42273E-04-1.29237E-14-1.97471E-13
 -1       117-6.98761E-04 1.36290E-03 1.25331E-26 3.66633E-05 5.31910E-15-1.09926E-13
 -1       118-7.68374E-04 1.50919E-03 1.53093E-26 4.22875E-04 5.75460E-14 9.67534E-14
 -1       119-8.39911E-04 1.66814E-03 7.27594E-26 6.16187E-04 3.61075E-14 2.17025E-13
 -1       120-8.89630E-04 1.77963E-03-2.55167E-26 8.87164E-04 3.09033E-15-1.11303E-13
 -1       121-8.91525E-04 1.85154E-03 3.58513E-25 1.21133E-03-1.56536E-14-4.40041E-13
 -1       122-9.38400E-04 1.92463E-03 6.52624E-25 1.53912E-03 1.62253E-14-5.72012E-13
 -1       123-9.57739E-04 1.90168E-03 6.33367E-25 1.83176E-03 3.55740E-14-5.65355E-13
 -1       124-8.57265E-04 1.72400E-03 2.32553E-25 2.03189E-03 2.15640E-15-3.59197E-13
 -1       125-8.19759E-04 1.58152E-03 1.41126E-26 2.40519E-03-4.56784E-14-1.14612E-13
 -1       126-8.16615E-04 1.32141E-03 2.66642E-26 2.26893E-03-3.65844E-14-1.17715E-13
 -3
    1PSTEP                        60          15           1          
  100CL  115 1.50000E-01         126                     1   15           1
 -4  ERROR       1    1
 -5  STR(%)      1    1    0    0
 -1         1 6.07317E+01
 -1         2 6.07317E+01
 -1         3 2.62026E+01
 -1         4 2.62026E+01
 -1         5 7.74070E+01
 -1         6 7.74070E+01
 -1         7 6.79574E+01
 -1         8 6.79574E+01
 -1         9 7.74070E+01
 -1        10 7.74070E+01
 -1        11 6.79574E+01
 -1        12 6.79574E+01
 -1        13 6.07317E+01
 -1        14 5.40935E+01
 -1        15 5.00825E+01
 -1        16 3.71493E+01
 -1        17 6.93859E+01
 -1        18 7.87443E+01
 -1        19 8.34820E+01
 -1        20 8.34820E+01
 -1        21 7.76202E+01
 -1        22 7.25768E+01
 -1        23 7.41959E+01
 -1        24 7.56701E+01
 -1        25 7.56701E+01
 -1        26 7.52704E+01
 -1        27 3.91461E+01
 -1        28 5.23719E+01
 -1        29 5.48932E+01
 -1        30 5.48932E+01
 -1        31 4.80117E+01
 -1        32 6.07317E+01
 -1        33 5.40935E+01
 -1        34 5.00825E+01
 -1        35 3.71493E+01
 -1        36 6.93859E+01
 -1        37 7.87443E+01
 -1        38 8.34820E+01
 -1        39 8.34820E+01
 -1        40 7.76202E+01
 -1        41 7.25768E+01
 -1        42 7.41959E+01
 -1        43 7.56701E+01
 -1        44 7.56701E+01
 -1        45 7.52704E+01
 -1        46 3.91461E+01
 -1        47 5.23719E+01
 -1        48 5.48932E+01
 -1        49 5.48932E+01
 -1        50 4.80117E+01
 -1        51 7.74070E+01
 -1        52 7.06496E+01
 -1        53 7.07731E+01
 -1        54 7.07731E+01
 -1        55 5.34724E+01
 -1        56 4.89646E+01
 -1        57 5.12558E+01
 -1        58 5.19025E+01
 -1        59 5.19025E+01
 -1        60 5.15020E+01
 -1        61 5.11417E+01
 -1        62 4.94548E+01
 -1        63 4.67845E+01
 -1        64 4.07864E+01
 -1        65 2.47607E+01
 -1        66 9.11502E+01
 -1        67 9.11502E+01
 -1        68 7.14693E+01
 -1        69 6.95885E+01
 -1        70 7.74070E+01
 -1        71 7.06496E+01
 -1        72 7.07731E+01
 -1        73 7.07731E+01
 -1        74 5.34724E+01
 -1        75 4.89646E+01
 -1        76 5.12558E+01
 -1        77 5.19025E+01
 -1        78 5.19025E+01
 -1        79 5.15020E+01
 -1        80 5.11417E+01
 -1        81 4.94548E+01
 -1        82 4.67845E+01
 -1        83 4.07864E+01
 -1        84 2.47607E+01
 -1        85 9.11502E+01
 -1        86 9.11502E+01
 -1        87 7.14693E+01
 -1        88 6.95885E+01
 -1        89 6.95885E+01
 -1        90 7.14693E+01
 -1        91 9.11502E+01
 -1        92 9.11502E+01
 -1        93 6.93859E+01
 -1        94 7.87443E+01
 -1        95 8.34820E+01
 -1        96 8.34820E+01
 -1        97 7.76202E+01
 -1        98 7.25768E+01
 -1        99 7.41959E+01
 -1       100 7.56701E+01
 -1       101 7.56701E+01
 -1       102 7.52704E+01
 -1       103 5.34724E+01
 -1       104 7.07731E+01
 -1       105 7.07731E+01
 -1       106 7.06496E+01
 -1       107 7.74070E+01
 -1       108 7.74070E+01
 -1       109 7.06496E+01
 -1       110 7.07731E+01
 -1       111 7.07731E+01
 -1       112 5.34724E+01
 -1       113 7.52704E+01
 -1       114 7.56701E+01
 -1       115 7.56701E+01
 -1       116 7.41959E+01
 -1       117 7.25768E+01
 -1       118 7.76202E+01
 -1       119 8.34820E+01
 -1       120 8.34820E+01
 -1       121 7.87443E+01
 -1       122 6.93859E+01
 -1       123 9.11502E+01
 -1       124 9.11502E+01
 -1       125 7.14693E+01
 -1       126 6.95885E+01
 -3
    1PSTEP                        61          16           1          
  100CL  116 1.60000E-01         126                     1   16           1
 -4  DISP        4    1
 -5  D1          1    2    1    0
 -5  D2          1    2    2    0
 -5  D3          1    2    3    0
 -5  ALL         1    2    0    0    1ALL
 -1         1 0.00000E+00 0.00000E+00 0.00000E+00
 -1         2 0.00000E+00 0.00000E+00 0.00000E+00
 -1         3 1.60870E-02 5.44821E-04 0.00000E+00
 -1         4 1.60870E-02 5.44821E-04 0.00000E+00
 -1         5 1.60847E-02 1.00421E-03 0.00000E+00
 -1         6 1.60847E-02 1.00421E-03 0.00000E+00
 -1         7 0.00000E+00 0.00000E+00 0.00000E+00
 -1         8 0.00000E+00 0.00000E+00 0.00000E+00
 -1         9 1.60719E-02 7.86301E-04 0.00000E+00
 -1        10 1.60719E-02 7.86301E-04 0.00000E+00
 -1        11 0.00000E+00 0.00000E+00 0.00000E+00
 -1        12 0.00000E+00 0.00000E+00 0.00000E+00
 -1        13 9.58856E-04 1.00693E-03 0.00000E+00
 -1        14 2.55788E-03 1.80172E-03 0.00000E+00
 -1        15 4.77865E-03 2.31348E-03 0.00000E+00
 -1        16 7.33127E-03 2.59180E-03 0.00000E+00
 -1        17 1.00172E-02 2.66997E-03 0.00000E+00
 -1        18 1.26418E-02 2.58605E-03 0.00000E+00
 -1        19 1.50511E-02 2.37961E-03 0.00000E+00
 -1        20 1.71456E-02 2.08085E-03 0.00000E+00
 -1        21 1.88217E-02 1.72219E-03 0.00000E+00
 -1        22 2.00375E-02 1.33023E-03 0.00000E+00
 -1        23 2.07594E-02 9.20856E-04 0.00000E+00
 -1        24 2.09601E-02 5.33262E-04 0.00000E+00
 -1        25 2.07118E-02 2.14958E-04 0.00000E+00
 -1        26 2.01305E-02-2.16048E-05 0.00000E+00
 -1        27 1.92807E-02-1.66260E-04 0.00000E+00
 -1        28 1.82701E-02-1.75919E-04 0.00000E+00
 -1        29 1.73071E-02-2.19888E-05 0.00000E+00
 -1        30 1.66322E-02 2.35480E-04 0.00000E+00
 -1        31 1.62941E-02 4.55093E-04 0.00000E+00
 -1        32 9.58856E-04 1.00693E-03 0.00000E+00
 -1        33 2.55788E-03 1.80172E-03 0.00000E+00
 -1        34 4.77865E-03 2.31348E-03 0.00000E+00
 -1        35 7.33127E-03 2.59180E-03 0.00000E+00
 -1        36 1.00172E-02 2.66997E-03 0.00000E+00
 -1        37 1.26418E-02 2.58605E-03 0.00000E+00
 -1        38 1.50511E-02 2.37961E-03 0.00000E+00
 -1        39 1.71456E-02 2.08085E-03 0.00000E+00
 -1        40 1.88217E-02 1.72219E-03 0.00000E+00
 -1        41 2.00375E-02 1.33023E-03 0.00000E+00
 -1        42 2.07594E-02 9.20856E-04 0.00000E+00
 -1        43 2.09601E-02 5.33262E-04 0.00000E+00
 -1        44 2.07118E-02 2.14958E-04 0.00000E+00
 -1        45 2.01305E-02-2.16048E-05 0.00000E+00
 -1        46 1.92807E-02-1.66260E-04 0.00000E+00
 -1        47 1.82701E-02-1.75919E-04 0.00000E+00
 -1        48 1.73071E-02-2.19888E-05 0.00000E+00
 -1        49 1.66322E-02 2.35480E-04 0.00000E+00
 -1        50 1.62941E-02 4.55093E-04 0.00000E+00
 -1        51 1.62839E-02 1.06407E-03 0.00000E+00
 -1        52 1.66171E-02 1.23560E-03 0.00000E+00
 -1        53 1.72745E-02 1.44571E-03 0.00000E+00
 -1        54 1.82230E-02 1.55038E-03 0.00000E+00
 -1        55 1.92322E-02 1.47518E-03 0.00000E+00
 -1        56 2.00805E-02 1.24460E-03 0.00000E+00
 -1        57 2.06587E-02 9.03065E-04 0.00000E+00
 -1        58 2.09029E-02 4.63392E-04 0.00000E+00
 -1        59 2.06907E-02-5.86595E-05 0.00000E+00
 -1        60 1.99460E-02-6.08982E-04 0.00000E+00
 -1        61 1.87026E-02-1.13586E-03 0.00000E+00
 -1        62 1.69993E-02-1.60781E-03 0.00000E+00
 -1        63 1.48793E-02-1.99053E-03 0.00000E+00
 -1        64 1.24451E-02-2.25665E-03 0.00000E+00
 -1        65 9.80988E-03-2.37980E-03 0.00000E+00
 -1        66 7.13722E-03-2.32786E-03 0.00000E+00
 -1        67 4.61029E-03-2.08044E-03 0.00000E+00
 -1        68 2.42492E-03-1.62401E-03 0.00000E+00
 -1        69 8.78205E-04-9.10958E-04 0.00000E+00
 -1        70 1.62839E-02 1.06407E-03 0.00000E+00
 -1        71 1.66171E-02 1.23560E-03 0.00000E+00
 -1        72 1.72745E-02 1.44571E-03 0.00000E+00
 -1        73 1.82230E-02 1.55038E-03 0.00000E+00
 -1        74 1.92322E-02 1.47518E-03 0.00000E+00
 -1        75 2.00805E-02 1.24460E-03 0.00000E+00
 -1        76 2.06587E-02 9.03065E-04 0.00000E+00
 -1        77 2.09029E-02 4.63392E-04 0.00000E+00
 -1        78 2.06907E-02-5.86595E-05 0.00000E+00
 -1        79 1.99460E-02-6.08982E-04 0.00000E+00
 -1        80 1.87026E-02-1.13586E-03 0.00000E+00
 -1        81 1.69993E-02-1.60781E-03 0.00000E+00
 -1        82 1.48793E-02-1.99053E-03 0.00000E+00
 -1        83 1.24451E-02-2.25665E-03 0.00000E+00
 -1        84 9.80988E-03-2.37980E-03 0.00000E+00
 -1        85 7.13722E-03-2.32786E-03 0.00000E+00
 -1        86 4.61029E-03-2.08044E-03 0.00000E+00
 -1        87 2.42492E-03-1.62401E-03 0.00000E+00
 -1        88 8.78205E-04-9.10958E-04 0.00000E+00
 -1        89 6.78054E-04 4.53224E-05 0.00000E+00
 -1        90 2.35980E-03 9.16497E-05 0.00000E+00
 -1        91 4.60721E-03 1.20265E-04 0.00000E+00
 -1        92 7.19377E-03 1.33244E-04 0.00000E+00
 -1        93 9.91229E-03 1.44585E-04 0.00000E+00
 -1        94 1.25726E-02 1.63469E-04 0.00000E+00
 -1        95 1.50215E-02 1.91366E-04 0.00000E+00
 -1        96 1.71486E-02 2.32810E-04 0.00000E+00
 -1        97 1.88505E-02 2.91105E-04 0.00000E+00
 -1        98 2.00854E-02 3.60366E-04 0.00000E+00
 -1        99 2.08209E-02 4.31881E-04 0.00000E+00
 -1       100 2.10162E-02 5.00234E-04 0.00000E+00
 -1       101 2.07508E-02 5.62202E-04 0.00000E+00
 -1       102 2.01494E-02 6.14662E-04 0.00000E+00
 -1       103 1.92769E-02 6.56223E-04 0.00000E+00
 -1       104 1.82316E-02 6.89273E-04 0.00000E+00
 -1       105 1.72425E-02 7.16314E-04 0.00000E+00
 -1       106 1.65672E-02 7.40507E-04 0.00000E+00
 -1       107 1.62564E-02 7.64255E-04 0.00000E+00
 -1       108 1.62564E-02 7.64255E-04 0.00000E+00
 -1       109 1.65672E-02 7.40507E-04 0.00000E+00
 -1       110 1.72425E-02 7.16314E-04 0.00000E+00
 -1       111 1.82316E-02 6.89273E-04 0.00000E+00
 -1       112 1.92769E-02 6.56223E-04 0.00000E+00
 -1       113 2.01494E-02 6.14662E-04 0.00000E+00
 -1       114 2.07508E-02 5.62202E-04 0.00000E+00
 -1       115 2.10162E-02 5.00234E-04 0.00000E+00
 -1       116 2.08209E-02 4.31881E-04 0.00000E+00
 -1       117 2.00854E-02 3.60366E-04 0.00000E+00
 -1       118 1.88505E-02 2.91105E-04 0.00000E+00
 -1       119 1.71486E-02 2.32810E-04 0.00000E+00
 -1       120 1.50215E-02 1.91366E-04 0.00000E+00
 -1       121 1.25726E-02 1.63469E-04 0.00000E+00
 -1       122 9.91229E-03 1.44585E-04 0.00000E+00
 -1       123 7.19377E-03 1.33244E-04 0.00000E+00
 -1       124 4.60721E-03 1.20265E-04 0.00000E+00
 -1       125 2.35980E-03 9.16497E-05 0.00000E+00
 -1       126 6.78054E-04 4.53224E-05 0.00000E+00
 -3
    1PSTEP                        62          16           1          
  100CL  116 1.60000E-01         126                     1   16           1
 -4  STRESS      6    1
 -5  SXX         1    4    1    1
 -5  SYY         1    4    2    2
 -5  SZZ         1    4    3    3
 -5  SXY         1    4    1    2
 -5  SYZ         1    4    2    3
 -5  SZX         1    4    3    1
 -1         1 4.74193E+03 1.11959E+04 4.64278E+03 3.14237E+03 9.17673E-12 5.40231E-12
 -1         2 4.74193E+03 1.11959E+04 4.64278E+03 3.14237E+03 9.17673E-12 5.40231E-12
 -1         3 2.59385E+02 9.07624E+02 3.49266E+02 1.04839E+02 2.35255E-09-5.50429E-08
 -1         4 2.59385E+02 9.07624E+02 3.49266E+02 1.04839E+02 2.35254E-09-5.50429E-08
 -1         5-1.32637E+02-5.78217E+02-2.13469E+02 5.82664E+01-9.54301E-09-3.20645E-08
 -1         6-1.32637E+02-5.78217E+02-2.13469E+02 5.82664E+01-9.54300E-09-3.20629E-08
 -1         7-4.12612E+03-9.53608E+03-4.20692E+03 2.54622E+03-6.00030E-11 6.43204E-11
 -1         8-4.12612E+03-9.53608E+03-4.20692E+03 2.54622E+03-6.00030E-11 6.43204E-11
 -1         9 9.56344E+01 2.39224E+02 1.00455E+02 1.39091E+02-1.72498E-09-6.53271E-08
 -1        10 9.56344E+01 2.39224E+02 1.00455E+02 1.39091E+02-1.72495E-09-6.53274E-08
 -1        11 2.72586E+02 4.62106E+02 2.30264E+02 2.09038E+03-1.78582E-11 1.76769E-11
 -1        12 2.72586E+02 4.62106E+02 2.30264E+02 2.09038E+03-1.78582E-11 1.76769E-11
 -1        13 1.37946E+03 8.83595E+03 2.98710E+03 1.08395E+03-4.75386E-10 2.99389E-09
 -1        14 1.42422E+03 6.75186E+03 2.40458E+03 7.24763E+02-1.29906E-09-3.46650E-08
 -1        15 8.19135E+02 4.30742E+03 1.51634E+03 6.84460E+02-5.79650E-09-5.31542E-08
 -1        16 3.62781E+02 2.27325E+03 7.83179E+02 5.47772E+02 6.60599E-09-5.58930E-08
 -1        17-8.76904E+01 5.01023E+02 1.22261E+02 4.16509E+02 2.48593E-08-2.04328E-08
 -1        18-4.59020E+02-9.53881E+02-4.25224E+02 2.77931E+02 3.37065E-08 8.15955E-09
 -1        19-7.14755E+02-2.09440E+03-8.46688E+02 1.64366E+02 2.23650E-08 5.11496E-08
 -1        20-9.39760E+02-2.96955E+03-1.18068E+03 7.58989E+01-1.35766E-08 4.43220E-08
 -1        21-1.09711E+03-3.55740E+03-1.40760E+03 9.97017E+00-4.06432E-08 1.70944E-08
 -1        22-1.18366E+03-3.90790E+03-1.54127E+03-2.92146E+01-3.39246E-08-2.32019E-08
 -1        23-1.13638E+03-3.92880E+03-1.53399E+03-9.72358E+01-2.13067E-09-7.13302E-08
 -1        24-1.02074E+03-3.50809E+03-1.37019E+03-1.73192E+02 3.68039E-08-8.43893E-08
 -1        25-8.34367E+02-2.76639E+03-1.08728E+03-1.98736E+02 6.76575E-08-5.39920E-08
 -1        26-5.99723E+02-1.88784E+03-7.49859E+02-2.33924E+02 7.26257E-08 3.60512E-08
 -1        27-2.71251E+02-7.32478E+02-3.02458E+02-3.27039E+02 3.34091E-08 1.13653E-07
 -1        28 5.87242E+01 7.29378E+02 2.34589E+02-3.81269E+02-1.95868E-08 1.30896E-07
 -1        29 3.55645E+02 2.02318E+03 7.08426E+02-2.62076E+02-3.77091E-08 2.98284E-08
 -1        30 4.45115E+02 2.32794E+03 8.25748E+02-1.46245E+01-2.16692E-08-3.79165E-08
 -1        31 3.20468E+02 1.51388E+03 5.47491E+02 1.09106E+02-6.34573E-09-6.65322E-08
 -1        32 1.37946E+03 8.83595E+03 2.98710E+03 1.08395E+03-4.75386E-10 2.99389E-09
 -1        33 1.42422E+03 6.75186E+03 2.40458E+03 7.24763E+02-1.29906E-09-3.46650E-08
 -1        34 8.19135E+02 4.30742E+03 1.51634E+03 6.84460E+02-5.79649E-09-5.31542E-08
 -1        35 3.62781E+02 2.27325E+03 7.83179E+02 5.47772E+02 6.60601E-09-5.58930E-08
 -1        36-8.76904E+01 5.01023E+02 1.22261E+02 4.16509E+02 2.48593E-08-2.04328E-08
 -1        37-4.59020E+02-9.53881E+02-4.25224E+02 2.77931E+02 3.37065E-08 8.15826E-09
 -1        38-7.14755E+02-2.09440E+03-8.46688E+02 1.64366E+02 2.23648E-08 5.11489E-08
 -1        39-9.39760E+02-2.96955E+03-1.18068E+03 7.58989E+01-1.35767E-08 4.43221E-08
 -1        40-1.09711E+03-3.55740E+03-1.40760E+03 9.97017E+00-4.06432E-08 1.70943E-08
 -1        41-1.18366E+03-3.90790E+03-1.54127E+03-2.92146E+01-3.39246E-08-2.32018E-08
 -1        42-1.13638E+03-3.92880E+03-1.53399E+03-9.72358E+01-2.13068E-09-7.13308E-08
 -1        43-1.02074E+03-3.50809E+03-1.37019E+03-1.73192E+02 3.68039E-08-8.43891E-08
 -1        44-8.34367E+02-2.76639E+03-1.08728E+03-1.98736E+02 6.76575E-08-5.39922E-08
 -1        45-5.99723E+02-1.88784E+03-7.49859E+02-2.33924E+02 7.26257E-08 3.60516E-08
 -1        46-2.71251E+02-7.32478E+02-3.02458E+02-3.27039E+02 3.34091E-08 1.13653E-07
 -1        47 5.87242E+01 7.29378E+02 2.34589E+02-3.81269E+02-1.95868E-08 1.30896E-07
 -1        48 3.55645E+02 2.02318E+03 7.08426E+02-2.62076E+02-3.77091E-08 2.98290E-08
 -1        49 4.45115E+02 2.32794E+03 8.25748E+02-1.46245E+01-2.16692E-08-3.79169E-08
 -1        50 3.20468E+02 1.51388E+03 5.47491E+02 1.09106E+02-6.34571E-09-6.65327E-08
 -1        51-2.25621E+02-1.10174E+03-3.99633E+02 1.05961E+02 1.37419E-08-5.05246E-08
 -1        52-3.01297E+02-1.77522E+03-6.26507E+02 7.22931E+00 4.12798E-08-3.32737E-08
 -1        53-2.84506E+02-1.45147E+03-5.23640E+02-2.17245E+02 5.43374E-08 3.73922E-08
 -1        54-2.32932E+01-7.17022E+01-2.97987E+01-3.62173E+02 2.77037E-08 9.33830E-08
 -1        55 3.49047E+02 1.56261E+03 5.69747E+02-3.49858E+02-2.54494E-08 1.03800E-07
 -1        56 6.53120E+02 2.85612E+03 1.04374E+03-2.73446E+02-5.84471E-08 5.94804E-08
 -1        57 8.37953E+02 3.85008E+03 1.39102E+03-2.30441E+02-5.29661E-08-5.49360E-08
 -1        58 1.00641E+03 4.72877E+03 1.69756E+03-1.64343E+02-1.22896E-08-8.24169E-08
 -1        59 1.11824E+03 5.30123E+03 1.89714E+03-1.74399E+01 2.30240E-08-8.00264E-08
 -1        60 1.14324E+03 5.39707E+03 1.93259E+03 1.18937E+02 3.67485E-08-4.00814E-08
 -1        61 1.04757E+03 5.09865E+03 1.81718E+03 2.03663E+02 3.58536E-08 4.31095E-08
 -1        62 9.21175E+02 4.51252E+03 1.60856E+03 2.89018E+02 1.62688E-08 5.88169E-08
 -1        63 7.48602E+02 3.63260E+03 1.29976E+03 3.60917E+02-1.58310E-08 3.55298E-08
 -1        64 4.90045E+02 2.45611E+03 8.76173E+02 4.04559E+02-2.61581E-08-7.99639E-09
 -1        65 1.15623E+02 9.28150E+02 3.10647E+02 4.21495E+02-1.67227E-08-5.06914E-08
 -1        66-2.90682E+02-9.02580E+02-3.59994E+02 4.10723E+02 1.85024E-09-5.81501E-08
 -1        67-7.65764E+02-2.96756E+03-1.12940E+03 4.24074E+02 1.36469E-08-3.88888E-08
 -1        68-1.47755E+03-5.42610E+03-2.10117E+03 3.84455E+02 1.31529E-08-2.08600E-08
 -1        69-1.37340E+03-7.47007E+03-2.70903E+03 7.05506E+02 1.03564E-08-1.69535E-08
 -1        70-2.25621E+02-1.10174E+03-3.99633E+02 1.05961E+02 1.37419E-08-5.05212E-08
 -1        71-3.01297E+02-1.77522E+03-6.26507E+02 7.22931E+00 4.12798E-08-3.32742E-08
 -1        72-2.84506E+02-1.45147E+03-5.23640E+02-2.17245E+02 5.43374E-08 3.73918E-08
 -1        73-2.32932E+01-7.17022E+01-2.97987E+01-3.62173E+02 2.77037E-08 9.33816E-08
 -1        74 3.49047E+02 1.56261E+03 5.69747E+02-3.49858E+02-2.54494E-08 1.03800E-07
 -1        75 6.53120E+02 2.85612E+03 1.04374E+03-2.73446E+02-5.84471E-08 5.94804E-08
 -1        76 8.37953E+02 3.85008E+03 1.39102E+03-2.30441E+02-5.29661E-08-5.49364E-08
 -1        77 1.00641E+03 4.72877E+03 1.69756E+03-1.64343E+02-1.22896E-08-8.24173E-08
 -1        78 1.11824E+03 5.30123E+03 1.89714E+03-1.74399E+01 2.30240E-08-8.00240E-08
 -1        79 1.14324E+03 5.39707E+03 1.93259E+03 1.18937E+02 3.67486E-08-4.00815E-08
 -1        80 1.04757E+03 5.09865E+03 1.81718E+03 2.03663E+02 3.58536E-08 4.31095E-08
 -1        81 9.21175E+02 4.51252E+03 1.60856E+03 2.89018E+02 1.62689E-08 5.88169E-08
 -1        82 7.48602E+02 3.63260E+03 1.29976E+03 3.60917E+02-1.58310E-08 3.55298E-08
 -1        83 4.90045E+02 2.45611E+03 8.76173E+02 4.04559E+02-2.61581E-08-7.99788E-09
 -1        84 1.15623E+02 9.28150E+02 3.10647E+02 4.21495E+02-1.67231E-08-5.06904E-08
 -1        85-2.90682E+02-9.02580E+02-3.59994E+02 4.10723E+02 1.85030E-09-5.81504E-08
 -1        86-7.65764E+02-2.96756E+03-1.12940E+03 4.24074E+02 1.36469E-08-3.88888E-08
 -1        87-1.47755E+03-5.42610E+03-2.10117E+03 3.84455E+02 1.31529E-08-2.08600E-08
 -1        88-1.37340E+03-7.47007E+03-2.70903E+03 7.05506E+02 1.03564E-08-1.69535E-08
 -1        89 2.36655E+01 4.37737E+02 1.41111E+02 6.85319E+02 6.10831E-09-5.57497E-09
 -1        90 2.70065E+01 5.71038E+02 1.82673E+02 7.86252E+02 8.78774E-09-2.88647E-08
 -1        91 5.07424E+01 6.19784E+02 2.01011E+02 6.92327E+02 1.39268E-09-4.80149E-08
 -1        92 5.22867E+01 6.61015E+02 2.12682E+02 6.10877E+02-6.48501E-10-5.98159E-08
 -1        93 2.92360E+01 7.07913E+02 2.19625E+02 5.26076E+02 2.68447E-09-4.19968E-08
 -1        94 2.64510E+01 7.32470E+02 2.26676E+02 4.29202E+02 6.16829E-09-3.03335E-09
 -1        95 2.50843E+01 7.31160E+02 2.26760E+02 3.33537E+02 7.82474E-09 5.39860E-08
 -1        96 3.32491E+00 7.30353E+02 2.20744E+02 2.30102E+02 6.41570E-09 5.70471E-08
 -1        97-9.68329E+00 7.23795E+02 2.15716E+02 1.31893E+02-6.97573E-09 3.24265E-08
 -1        98-7.97276E+00 6.83450E+02 2.04644E+02 5.47402E+01-6.33936E-09-3.25672E-08
 -1        99 6.72841E-01 6.21797E+02 1.88347E+02-7.21507E+01 9.57890E-09-8.16568E-08
 -1       100 2.65369E+00 5.62602E+02 1.70924E+02-2.15747E+02 9.41509E-09-9.27658E-08
 -1       101 9.36053E+00 5.10198E+02 1.56769E+02-2.77224E+02 1.03647E-08-5.94365E-08
 -1       102 2.86791E+01 4.57734E+02 1.45970E+02-3.22982E+02 7.20639E-09 4.90744E-08
 -1       103 4.34828E+01 4.05877E+02 1.34092E+02-4.29162E+02-6.10495E-09 1.19925E-07
 -1       104 3.22492E+01 3.44028E+02 1.12077E+02-4.77674E+02 6.23839E-09 1.18319E-07
 -1       105 4.74833E+01 2.91221E+02 1.00941E+02-3.05104E+02 1.71910E-08 3.52495E-08
 -1       106 7.32064E+01 2.61278E+02 9.99079E+01 2.05355E+01 7.69283E-09-4.00138E-08
 -1       107 6.24747E+01 2.34774E+02 8.93278E+01 1.74637E+02 1.67598E-09-5.95388E-08
 -1       108 6.24747E+01 2.34774E+02 8.93278E+01 1.74637E+02 1.67587E-09-5.95398E-08
 -1       109 7.32064E+01 2.61278E+02 9.99079E+01 2.05355E+01 7.69283E-09-4.00133E-08
 -1       110 4.74833E+01 2.91221E+02 1.00941E+02-3.05104E+02 1.71910E-08 3.52495E-08
 -1       111 3.22492E+01 3.44028E+02 1.12077E+02-4.77674E+02 6.23842E-09 1.18320E-07
 -1       112 4.34828E+01 4.05877E+02 1.34092E+02-4.29162E+02-6.10493E-09 1.19926E-07
 -1       113 2.86791E+01 4.57734E+02 1.45970E+02-3.22982E+02 7.20637E-09 4.90735E-08
 -1       114 9.36053E+00 5.10198E+02 1.56769E+02-2.77224E+02 1.03647E-08-5.94362E-08
 -1       115 2.65369E+00 5.62602E+02 1.70924E+02-2.15747E+02 9.41507E-09-9.27660E-08
 -1       116 6.72841E-01 6.21797E+02 1.88347E+02-7.21507E+01 9.57891E-09-8.16563E-08
 -1       117-7.97276E+00 6.83450E+02 2.04644E+02 5.47402E+01-6.33934E-09-3.25672E-08
 -1       118-9.68329E+00 7.23795E+02 2.15716E+02 1.31893E+02-6.97572E-09 3.24268E-08
 -1       119 3.32491E+00 7.30353E+02 2.20744E+02 2.30102E+02 6.41572E-09 5.70470E-08
 -1       120 2.50843E+01 7.31160E+02 2.26760E+02 3.33537E+02 7.82481E-09 5.39865E-08
 -1       121 2.64510E+01 7.32470E+02 2.26676E+02 4.29202E+02 6.16828E-09-3.03325E-09
 -1       122 2.92360E+01 7.07913E+02 2.19625E+02 5.26076E+02 2.68456E-09-4.19968E-08
 -1       123 5.22867E+01 6.61015E+02 2.12682E+02 6.10877E+02-6.48557E-10-5.98159E-08
 -1       124 5.07424E+01 6.19784E+02 2.01011E+02 6.92327E+02 1.39271E-09-4.80149E-08
 -1       125 2.70065E+01 5.71038E+02 1.82673E+02 7.86252E+02 8.78774E-09-2.88648E-08
 -1       126 2.36655E+01 4.37737E+02 1.41111E+02 6.85319E+02 6.10831E-09-5.57496E-09
 -3
    1PSTEP                        63          16           1          
  100CL  116 1.60000E-01         126                     1   16           1
 -4  TOSTRAIN    6    1
 -5  EXX         1    4    1    1
 -5  EYY         1    4    2    2
 -5  EZZ         1    4    3    3
 -5  EXY         1    4    1    2
 -5  EYZ         1    4    2    3
 -5  EZX         1    4    3    1
 -1         1-3.33585E-05 2.04913E-02 3.64178E-29 9.58839E-03-2.47619E-19 4.26769E-18
 -1         2-3.33585E-05 2.04913E-02 3.64178E-29 9.58839E-03-2.47619E-19 4.26769E-18
 -1         3-2.89089E-04 1.80452E-03 6.32048E-26 3.48484E-04 8.48485E-15-1.78765E-13
 -1         4-2.89089E-04 1.80452E-03 6.32048E-26 3.48484E-04 8.48482E-15-1.78765E-13
 -1         5 2.64228E-04-1.18887E-03 1.69812E-26 1.84031E-04-3.06146E-14-1.04371E-13
 -1         6 2.64228E-04-1.18887E-03 1.69790E-26 1.84031E-04-3.06146E-14-1.04366E-13
 -1         7-3.18873E-05-1.79304E-02-1.33939E-27 8.78189E-03-4.18952E-19 1.49772E-16
 -1         8-3.18873E-05-1.79304E-02-1.33939E-27 8.78189E-03-4.18952E-19 1.49772E-16
 -1         9-1.24306E-05 4.47601E-04 8.81709E-26 4.53551E-04-4.61565E-15-2.12295E-13
 -1        10-1.24306E-05 4.47601E-04 8.81712E-26 4.53551E-04-4.61557E-15-2.12295E-13
 -1        11-3.26229E-05 9.66132E-04-1.63346E-28 6.78039E-03-2.80021E-19 6.14215E-17
 -1        12-3.26229E-05 9.66132E-04-1.63346E-28 6.78039E-03-2.80021E-19 6.14215E-17
 -1        13-5.44137E-03 1.85028E-02-2.64097E-27 2.92816E-03-1.27786E-15 9.75271E-15
 -1        14-3.38207E-03 1.38900E-02 2.19340E-26 1.69904E-03-7.84871E-15-1.12234E-13
 -1        15-2.46584E-03 9.07420E-03 5.93267E-26 1.67961E-03-2.60941E-14-1.71521E-13
 -1        16-1.53849E-03 4.94490E-03 6.40937E-26 1.44760E-03 1.24280E-14-1.82480E-13
 -1        17-8.21483E-04 1.35370E-03 1.44148E-26 1.24434E-03 7.72068E-14-7.06303E-14
 -1        18-2.09330E-04-1.63042E-03 1.74917E-26 9.79070E-04 1.10980E-13 2.09837E-14
 -1        19 3.62280E-04-4.02244E-03 5.97936E-26 7.33810E-04 8.03352E-14 1.63026E-13
 -1        20 7.38417E-04-5.83764E-03 3.89472E-26 4.94868E-04-3.90513E-14 1.45898E-13
 -1        21 9.80511E-04-7.05560E-03 3.18598E-26 2.64298E-04-1.31705E-13 5.95317E-14
 -1        22 1.13954E-03-7.78849E-03 2.48767E-26 7.70727E-05-1.12979E-13-7.34205E-14
 -1        23 1.27124E-03-7.88891E-03 9.83286E-26-2.31769E-04-9.36759E-15-2.32230E-13
 -1        24 1.11590E-03-7.02937E-03 1.70991E-25-5.66166E-04 1.20482E-13-2.74713E-13
 -1        25 8.00411E-04-5.49668E-03 1.30938E-25-6.98356E-04 2.22746E-13-1.73912E-13
 -1        26 4.58519E-04-3.70040E-03 9.78016E-26-8.19842E-04 2.35753E-13 1.20687E-13
 -1        27 5.90175E-05-1.36732E-03 2.74590E-25-1.08885E-03 1.02714E-13 3.71549E-13
 -1        28-6.20015E-04 1.63958E-03 3.44721E-25-1.19608E-03-7.08016E-14 4.24133E-13
 -1        29-1.18215E-03 4.25999E-03 1.10259E-26-7.65702E-04-1.23267E-13 9.49035E-14
 -1        30-1.24951E-03 4.83757E-03 2.71407E-26 1.60587E-05-6.87078E-14-1.23859E-13
 -1        31-7.35620E-04 3.11394E-03 9.20810E-26 3.77084E-04-1.91933E-14-2.16245E-13
 -1        32-5.44137E-03 1.85028E-02-2.64097E-27 2.92816E-03-1.27786E-15 9.75271E-15
 -1        33-3.38207E-03 1.38900E-02 2.19340E-26 1.69904E-03-7.84872E-15-1.12234E-13
 -1        34-2.46584E-03 9.07420E-03 5.93267E-26 1.67961E-03-2.60940E-14-1.71521E-13
 -1        35-1.53849E-03 4.94490E-03 6.40937E-26 1.44760E-03 1.24281E-14-1.82480E-13
 -1        36-8.21483E-04 1.35370E-03 1.44147E-26 1.24434E-03 7.72068E-14-7.06301E-14
 -1        37-2.09330E-04-1.63042E-03 1.74912E-26 9.79070E-04 1.10980E-13 2.09795E-14
 -1        38 3.62280E-04-4.02244E-03 5.97917E-26 7.33810E-04 8.03344E-14 1.63023E-13
 -1        39 7.38417E-04-5.83764E-03 3.89474E-26 4.94868E-04-3.90513E-14 1.45898E-13
 -1        40 9.80511E-04-7.05560E-03 3.18597E-26 2.64298E-04-1.31705E-13 5.95314E-14
 -1        41 1.13954E-03-7.78849E-03 2.48768E-26 7.70727E-05-1.12979E-13-7.34204E-14
 -1        42 1.27124E-03-7.88891E-03 9.83306E-26-2.31769E-04-9.36762E-15-2.32232E-13
 -1        43 1.11590E-03-7.02937E-03 1.70990E-25-5.66166E-04 1.20482E-13-2.74713E-13
 -1        44 8.00411E-04-5.49668E-03 1.30938E-25-6.98356E-04 2.22746E-13-1.73913E-13
 -1        45 4.58519E-04-3.70040E-03 9.78021E-26-8.19842E-04 2.35753E-13 1.20689E-13
 -1        46 5.90175E-05-1.36732E-03 2.74588E-25-1.08885E-03 1.02714E-13 3.71547E-13
 -1        47-6.20015E-04 1.63958E-03 3.44719E-25-1.19608E-03-7.08016E-14 4.24132E-13
 -1        48-1.18215E-03 4.25999E-03 1.10253E-26-7.65702E-04-1.23267E-13 9.49053E-14
 -1        49-1.24951E-03 4.83757E-03 2.71396E-26 1.60587E-05-6.87078E-14-1.23860E-13
 -1        50-7.35620E-04 3.11394E-03 9.20818E-26 3.77084E-04-1.91932E-14-2.16246E-13
 -1        51 5.67258E-04-2.29629E-03 5.41272E-26 3.27713E-04 4.57762E-14-1.64020E-13
 -1        52 1.04572E-03-3.75619E-03 4.48917E-26-2.60634E-05 1.35912E-13-1.06845E-13
 -1        53 7.45019E-04-3.01023E-03 7.24148E-26-7.63648E-04 1.75558E-13 1.24382E-13
 -1        54-2.50004E-05-1.01572E-04 1.86040E-25-1.17813E-03 8.48410E-14 3.05221E-13
 -1        55-7.60662E-04 3.23666E-03 2.29382E-25-1.06452E-03-8.78255E-14 3.35588E-13
 -1        56-1.30091E-03 5.84134E-03 1.01871E-25-7.87152E-04-1.90869E-13 1.90434E-13
 -1        57-1.82118E-03 7.87852E-03 8.10485E-26-6.69084E-04-1.69193E-13-1.79690E-13
 -1        58-2.26915E-03 9.66823E-03 1.39648E-25-5.31656E-04-3.97082E-14-2.67429E-13
 -1        59-2.55983E-03 1.08337E-02 1.41081E-25-1.86244E-04 7.12056E-14-2.60329E-13
 -1        60-2.60263E-03 1.10325E-02 3.98779E-26 1.14762E-04 1.15158E-13-1.32376E-13
 -1        61-2.55268E-03 1.04764E-02 4.57323E-26 2.77755E-04 1.18849E-13 1.36461E-13
 -1        62-2.30838E-03 9.31819E-03 7.51763E-26 4.95871E-04 5.92032E-14 1.88768E-13
 -1        63-1.88983E-03 7.54903E-03 2.31394E-26 7.45646E-04-4.58995E-14 1.17526E-13
 -1        64-1.37639E-03 5.18700E-03 4.99482E-27 9.87146E-04-8.55810E-14-2.16688E-14
 -1        65-7.71892E-04 2.12223E-03 5.45852E-26 1.22329E-03-6.24127E-14-1.61658E-13
 -1        66 7.96951E-05-1.63571E-03 7.01394E-26 1.43112E-03-3.28141E-15-1.89174E-13
 -1        67 1.02510E-03-5.90048E-03 3.38735E-26 1.71074E-03 3.90832E-14-1.28535E-13
 -1        68 1.87794E-03-1.09200E-02 1.23354E-26 1.72872E-03 4.10621E-14-6.95551E-14
 -1        69 4.16799E-03-1.58154E-02 7.43625E-27 2.76553E-03 3.33946E-14-5.59636E-14
 -1        70 5.67258E-04-2.29629E-03 5.41197E-26 3.27713E-04 4.57762E-14-1.64009E-13
 -1        71 1.04572E-03-3.75619E-03 4.48929E-26-2.60634E-05 1.35912E-13-1.06847E-13
 -1        72 7.45019E-04-3.01023E-03 7.24144E-26-7.63648E-04 1.75558E-13 1.24380E-13
 -1        73-2.50004E-05-1.01572E-04 1.86034E-25-1.17813E-03 8.48411E-14 3.05216E-13
 -1        74-7.60662E-04 3.23666E-03 2.29377E-25-1.06452E-03-8.78255E-14 3.35585E-13
 -1        75-1.30091E-03 5.84134E-03 1.01871E-25-7.87152E-04-1.90869E-13 1.90434E-13
 -1        76-1.82118E-03 7.87852E-03 8.10500E-26-6.69084E-04-1.69193E-13-1.79691E-13
 -1        77-2.26915E-03 9.66823E-03 1.39650E-25-5.31656E-04-3.97083E-14-2.67431E-13
 -1        78-2.55983E-03 1.08337E-02 1.41073E-25-1.86244E-04 7.12057E-14-2.60321E-13
 -1        79-2.60263E-03 1.10325E-02 3.98781E-26 1.14762E-04 1.15159E-13-1.32377E-13
 -1        80-2.55268E-03 1.04764E-02 4.57323E-26 2.77755E-04 1.18849E-13 1.36461E-13
 -1        81-2.30838E-03 9.31819E-03 7.51763E-26 4.95871E-04 5.92032E-14 1.88768E-13
 -1        82-1.88983E-03 7.54903E-03 2.31394E-26 7.45646E-04-4.58997E-14 1.17526E-13
 -1        83-1.37639E-03 5.18700E-03 4.99579E-27 9.87146E-04-8.55811E-14-2.16737E-14
 -1        84-7.71892E-04 2.12223E-03 5.45839E-26 1.22329E-03-6.24139E-14-1.61655E-13
 -1        85 7.96951E-05-1.63571E-03 7.01398E-26 1.43112E-03-3.28124E-15-1.89175E-13
 -1        86 1.02510E-03-5.90048E-03 3.38735E-26 1.71074E-03 3.90831E-14-1.28535E-13
 -1        87 1.87794E-03-1.09200E-02 1.23354E-26 1.72872E-03 4.10622E-14-6.95550E-14
 -1        88 4.16799E-03-1.58154E-02 7.43625E-27 2.76553E-03 3.33946E-14-5.59636E-14
 -1        89-6.36688E-04 1.21967E-03 1.33694E-29 2.19117E-03 1.95188E-14-1.85365E-14
 -1        90-7.52069E-04 1.52394E-03 1.73630E-26 2.47807E-03 2.53474E-14-9.49082E-14
 -1        91-7.20373E-04 1.58495E-03 4.73582E-26 2.15036E-03-2.33050E-15-1.56142E-13
 -1        92-7.29399E-04 1.64994E-03 7.49417E-26 1.86957E-03-1.16356E-14-1.94070E-13
 -1        93-7.96687E-04 1.74871E-03 3.19813E-26 1.58196E-03 1.81962E-15-1.36806E-13
 -1        94-7.92860E-04 1.77414E-03-1.07144E-26 1.27085E-03 1.95127E-14-1.08758E-14
 -1        95-7.63777E-04 1.74286E-03 5.56565E-26 9.74692E-04 3.29941E-14 1.74146E-13
 -1        96-7.84984E-04 1.73513E-03 6.77488E-26 6.55446E-04 2.76642E-14 1.84537E-13
 -1        97-7.86083E-04 1.71205E-03 8.99703E-27 3.57951E-04-1.95476E-14 1.06064E-13
 -1        98-7.31545E-04 1.60791E-03 6.65737E-27 1.33185E-04-2.26291E-14-1.05471E-13
 -1        99-6.44292E-04 1.45022E-03 1.37933E-25-2.53645E-04 2.84143E-14-2.65729E-13
 -1       100-5.76628E-04 1.30902E-03 1.79922E-25-7.00106E-04 3.02120E-14-3.01520E-13
 -1       101-5.10382E-04 1.18430E-03 4.16718E-26-8.86891E-04 3.48728E-14-1.92902E-13
 -1       102-4.21194E-04 1.05092E-03 7.18408E-27-1.02873E-03 2.13566E-14 1.59851E-13
 -1       103-3.50822E-04 9.31099E-04 2.92735E-25-1.37103E-03-2.61906E-14 3.89326E-13
 -1       104-3.22508E-04 8.07804E-04 2.82202E-25-1.53042E-03 1.36574E-14 3.84900E-13
 -1       105-2.18564E-04 6.54673E-04 2.71056E-27-9.77238E-04 5.41537E-14 1.15462E-13
 -1       106-1.01895E-04 5.33211E-04 2.08321E-26 7.30067E-05 2.62877E-14-1.29781E-13
 -1       107-8.41811E-05 4.70347E-04 7.38992E-26 5.70191E-04 6.62180E-15-1.93457E-13
 -1       108-8.41811E-05 4.70347E-04 7.39015E-26 5.70191E-04 6.62144E-15-1.93460E-13
 -1       109-1.01895E-04 5.33211E-04 2.08314E-26 7.30067E-05 2.62877E-14-1.29780E-13
 -1       110-2.18564E-04 6.54673E-04 2.71073E-27-9.77238E-04 5.41539E-14 1.15462E-13
 -1       111-3.22508E-04 8.07804E-04 2.82206E-25-1.53042E-03 1.36574E-14 3.84903E-13
 -1       112-3.50822E-04 9.31099E-04 2.92741E-25-1.37103E-03-2.61906E-14 3.89330E-13
 -1       113-4.21194E-04 1.05092E-03 7.18295E-27-1.02873E-03 2.13566E-14 1.59848E-13
 -1       114-5.10382E-04 1.18430E-03 4.16718E-26-8.86891E-04 3.48728E-14-1.92901E-13
 -1       115-5.76628E-04 1.30902E-03 1.79923E-25-7.00106E-04 3.02119E-14-3.01521E-13
 -1       116-6.44292E-04 1.45022E-03 1.37931E-25-2.53645E-04 2.84143E-14-2.65728E-13
 -1       117-7.31545E-04 1.60791E-03 6.65713E-27 1.33185E-04-2.26291E-14-1.05471E-13
 -1       118-7.86083E-04 1.71205E-03 8.99718E-27 3.57951E-04-1.95475E-14 1.06065E-13
 -1       119-7.84984E-04 1.73513E-03 6.77486E-26 6.55446E-04 2.76642E-14 1.84537E-13
 -1       120-7.63777E-04 1.74286E-03 5.56576E-26 9.74692E-04 3.29944E-14 1.74147E-13
 -1       121-7.92860E-04 1.77414E-03-1.07144E-26 1.27085E-03 1.95127E-14-1.08754E-14
 -1       122-7.96687E-04 1.74871E-03 3.19812E-26 1.58196E-03 1.81992E-15-1.36806E-13
 -1       123-7.29399E-04 1.64994E-03 7.49417E-26 1.86957E-03-1.16358E-14-1.94070E-13
 -1       124-7.20373E-04 1.58495E-03 4.73582E-26 2.15036E-03-2.33041E-15-1.56142E-13
 -1       125-7.52069E-04 1.52394E-03 1.73630E-26 2.47807E-03 2.53474E-14-9.49084E-14
 -1       126-6.36688E-04 1.21967E-03 1.33623E-29 2.19117E-03 1.95188E-14-1.85365E-14
 -3
    1PSTEP                        64          16           1          
  100CL  116 1.60000E-01         126                     1   16           1
 -4  ERROR       1    1
 -5  STR(%)      1    1    0    0
 -1         1 6.10289E+01
 -1         2 6.10289E+01
 -1         3 3.26567E+01
 -1         4 3.26567E+01
 -1         5 7.39795E+01
 -1         6 7.39795E+01
 -1         7 6.74805E+01
 -1         8 6.74805E+01
 -1         9 7.39795E+01
 -1        10 7.39795E+01
 -1        11 6.74805E+01
 -1        12 6.74805E+01
 -1        13 6.10289E+01
 -1        14 5.50126E+01
 -1        15 5.05612E+01
 -1        16 4.05561E+01
 -1        17 6.11478E+01
 -1        18 7.80647E+01
 -1        19 8.40548E+01
 -1        20 8.40548E+01
 -1        21 7.92082E+01
 -1        22 7.45734E+01
 -1        23 7.39231E+01
 -1        24 7.72270E+01
 -1        25 7.90284E+01
 -1        26 7.90284E+01
 -1        27 6.81469E+01
 -1        28 3.83685E+01
 -1        29 5.37670E+01
 -1        30 5.37670E+01
 -1        31 5.13723E+01
 -1        32 6.10289E+01
 -1        33 5.50126E+01
 -1        34 5.05612E+01
 -1        35 4.05561E+01
 -1        36 6.11478E+01
 -1        37 7.80647E+01
 -1        38 8.40548E+01
 -1        39 8.40548E+01
 -1        40 7.92082E+01
 -1        41 7.45734E+01
 -1        42 7.39231E+01
 -1        43 7.72270E+01
 -1        44 7.90284E+01
 -1        45 7.90284E+01
 -1        46 6.81469E+01
 -1        47 3.83685E+01
 -1        48 5.37670E+01
 -1        49 5.37670E+01
 -1        50 5.13723E+01
 -1        51 7.41313E+01
 -1        52 7.47758E+01
 -1        53 7.85898E+01
 -1        54 7.85898E+01
 -1        55 4.19894E+01
 -1        56 4.82954E+01
 -1        57 5.05911E+01
 -1        58 5.10635E+01
 -1        59 5.10635E+01
 -1        60 4.95777E+01
 -1        61 4.89683E+01
 -1        62 4.79239E+01
 -1        63 4.59909E+01
 -1        64 3.99065E+01
 -1        65 3.75123E+01
 -1        66 6.56963E+01
 -1        67 7.12766E+01
 -1        68 7.12766E+01
 -1        69 6.92384E+01
 -1        70 7.41313E+01
 -1        71 7.47758E+01
 -1        72 7.85898E+01
 -1        73 7.85898E+01
 -1        74 4.19894E+01
 -1        75 4.82954E+01
 -1        76 5.05911E+01
 -1        77 5.10635E+01
 -1        78 5.10635E+01
 -1        79 4.95777E+01
 -1        80 4.89683E+01
 -1        81 4.79239E+01
 -1        82 4.59909E+01
 -1        83 3.99065E+01
 -1        84 3.75123E+01
 -1        85 6.56963E+01
 -1        86 7.12766E+01
 -1        87 7.12766E+01
 -1        88 6.92384E+01
 -1        89 6.92384E+01
 -1        90 7.12766E+01
 -1        91 7.12766E+01
 -1        92 6.56963E+01
 -1        93 6.11478E+01
 -1        94 7.80647E+01
 -1        95 8.40548E+01
 -1        96 8.40548E+01
 -1        97 7.92082E+01
 -1        98 7.45734E+01
 -1        99 7.39231E+01
 -1       100 7.72270E+01
 -1       101 7.90284E+01
 -1       102 7.90284E+01
 -1       103 6.81469E+01
 -1       104 7.85898E+01
 -1       105 7.85898E+01
 -1       106 7.47758E+01
 -1       107 7.41313E+01
 -1       108 7.41313E+01
 -1       109 7.47758E+01
 -1       110 7.85898E+01
 -1       111 7.85898E+01
 -1       112 6.81469E+01
 -1       113 7.90284E+01
 -1       114 7.90284E+01
 -1       115 7.72270E+01
 -1       116 7.39231E+01
 -1       117 7.45734E+01
 -1       118 7.92082E+01
 -1       119 8.40548E+01
 -1       120 8.40548E+01
 -1       121 7.80647E+01
 -1       122 6.11478E+01
 -1       123 6.56963E+01
 -1       124 7.12766E+01
 -1       125 7.12766E+01
 -1       126 6.92384E+01
 -3
    1PSTEP                        65          17           1          
  100CL  117 1.70000E-01         126                     1   17           1
 -4  DISP        4    1
 -5  D1          1    2    1    0
 -5  D2          1    2    2    0
 -5  D3          1    2    3    0
 -5  ALL         1    2    0    0    1ALL
 -1         1 0.00000E+00 0.00000E+00 0.00000E+00
 -1         2 0.00000E+00 0.00000E+00 0.00000E+00
 -1         3 1.68804E-02-7.26885E-05 0.00000E+00
 -1         4 1.68804E-02-7.26885E-05 0.00000E+00
 -1         5 1.68687E-02 1.48702E-03 0.00000E+00
 -1         6 1.68687E-02 1.48702E-03 0.00000E+00
 -1         7 0.00000E+00 0.00000E+00 0.00000E+00
 -1         8 0.00000E+00 0.00000E+00 0.00000E+00
 -1         9 1.68673E-02 7.17058E-04 0.00000E+00
 -1        10 1.68673E-02 7.17058E-04 0.00000E+00
 -1        11 0.00000E+00 0.00000E+00 0.00000E+00
 -1        12 0.00000E+00 0.00000E+00 0.00000E+00
 -1        13 9.92710E-04 1.05331E-03 0.00000E+00
 -1        14 2.65320E-03 1.88610E-03 0.00000E+00
 -1        15 4.98165E-03 2.42679E-03 0.00000E+00
 -1        16 7.67521E-03 2.71509E-03 0.00000E+00
 -1        17 1.05149E-02 2.79424E-03 0.00000E+00
 -1        18 1.33313E-02 2.70718E-03 0.00000E+00
 -1        19 1.59520E-02 2.49198E-03 0.00000E+00
 -1        20 1.82573E-02 2.18361E-03 0.00000E+00
 -1        21 2.01568E-02 1.80819E-03 0.00000E+00
 -1        22 2.15676E-02 1.39886E-03 0.00000E+00
 -1        23 2.24735E-02 9.83560E-04 0.00000E+00
 -1        24 2.28777E-02 5.74430E-04 0.00000E+00
 -1        25 2.27634E-02 2.09681E-04 0.00000E+00
 -1        26 2.22303E-02-5.50928E-05 0.00000E+00
 -1        27 2.14508E-02-2.13391E-04 0.00000E+00
 -1        28 2.05218E-02-2.91125E-04 0.00000E+00
 -1        29 1.95068E-02-2.88523E-04 0.00000E+00
 -1        30 1.85245E-02-2.11693E-04 0.00000E+00
 -1        31 1.76609E-02-1.17925E-04 0.00000E+00
 -1        32 9.92710E-04 1.05331E-03 0.00000E+00
 -1        33 2.65320E-03 1.88610E-03 0.00000E+00
 -1        34 4.98165E-03 2.42679E-03 0.00000E+00
 -1        35 7.67521E-03 2.71509E-03 0.00000E+00
 -1        36 1.05149E-02 2.79424E-03 0.00000E+00
 -1        37 1.33313E-02 2.70718E-03 0.00000E+00
 -1        38 1.59520E-02 2.49198E-03 0.00000E+00
 -1        39 1.82573E-02 2.18361E-03 0.00000E+00
 -1        40 2.01568E-02 1.80819E-03 0.00000E+00
 -1        41 2.15676E-02 1.39886E-03 0.00000E+00
 -1        42 2.24735E-02 9.83560E-04 0.00000E+00
 -1        43 2.28777E-02 5.74430E-04 0.00000E+00
 -1        44 2.27634E-02 2.09681E-04 0.00000E+00
 -1        45 2.22303E-02-5.50928E-05 0.00000E+00
 -1        46 2.14508E-02-2.13391E-04 0.00000E+00
 -1        47 2.05218E-02-2.91125E-04 0.00000E+00
 -1        48 1.95068E-02-2.88523E-04 0.00000E+00
 -1        49 1.85245E-02-2.11693E-04 0.00000E+00
 -1        50 1.76609E-02-1.17925E-04 0.00000E+00
 -1        51 1.76384E-02 1.51313E-03 0.00000E+00
 -1        52 1.84896E-02 1.56655E-03 0.00000E+00
 -1        53 1.94706E-02 1.58704E-03 0.00000E+00
 -1        54 2.04794E-02 1.52056E-03 0.00000E+00
 -1        55 2.14009E-02 1.35864E-03 0.00000E+00
 -1        56 2.21826E-02 1.09591E-03 0.00000E+00
 -1        57 2.27151E-02 7.07356E-04 0.00000E+00
 -1        58 2.28218E-02 2.02315E-04 0.00000E+00
 -1        59 2.24039E-02-3.55491E-04 0.00000E+00
 -1        60 2.14775E-02-9.13989E-04 0.00000E+00
 -1        61 2.00405E-02-1.44613E-03 0.00000E+00
 -1        62 1.81108E-02-1.91385E-03 0.00000E+00
 -1        63 1.57754E-02-2.28004E-03 0.00000E+00
 -1        64 1.31363E-02-2.51591E-03 0.00000E+00
 -1        65 1.03204E-02-2.59341E-03 0.00000E+00
 -1        66 7.48924E-03-2.49776E-03 0.00000E+00
 -1        67 4.81886E-03-2.21170E-03 0.00000E+00
 -1        68 2.53043E-03-1.70844E-03 0.00000E+00
 -1        69 9.05534E-04-9.49818E-04 0.00000E+00
 -1        70 1.76384E-02 1.51313E-03 0.00000E+00
 -1        71 1.84896E-02 1.56655E-03 0.00000E+00
 -1        72 1.94706E-02 1.58704E-03 0.00000E+00
 -1        73 2.04794E-02 1.52056E-03 0.00000E+00
 -1        74 2.14009E-02 1.35864E-03 0.00000E+00
 -1        75 2.21826E-02 1.09591E-03 0.00000E+00
 -1        76 2.27151E-02 7.07356E-04 0.00000E+00
 -1        77 2.28218E-02 2.02315E-04 0.00000E+00
 -1        78 2.24039E-02-3.55491E-04 0.00000E+00
 -1        79 2.14775E-02-9.13989E-04 0.00000E+00
 -1        80 2.00405E-02-1.44613E-03 0.00000E+00
 -1        81 1.81108E-02-1.91385E-03 0.00000E+00
 -1        82 1.57754E-02-2.28004E-03 0.00000E+00
 -1        83 1.31363E-02-2.51591E-03 0.00000E+00
 -1        84 1.03204E-02-2.59341E-03 0.00000E+00
 -1        85 7.48924E-03-2.49776E-03 0.00000E+00
 -1        86 4.81886E-03-2.21170E-03 0.00000E+00
 -1        87 2.53043E-03-1.70844E-03 0.00000E+00
 -1        88 9.05534E-04-9.49818E-04 0.00000E+00
 -1        89 7.03535E-04 5.40151E-05 0.00000E+00
 -1        90 2.45819E-03 9.79815E-05 0.00000E+00
 -1        91 4.81223E-03 1.14213E-04 0.00000E+00
 -1        92 7.54250E-03 1.11692E-04 0.00000E+00
 -1        93 1.04169E-02 9.89820E-05 0.00000E+00
 -1        94 1.32653E-02 9.19452E-05 0.00000E+00
 -1        95 1.59241E-02 1.02466E-04 0.00000E+00
 -1        96 1.82651E-02 1.31293E-04 0.00000E+00
 -1        97 2.01945E-02 1.77606E-04 0.00000E+00
 -1        98 2.16233E-02 2.40472E-04 0.00000E+00
 -1        99 2.25424E-02 3.13990E-04 0.00000E+00
 -1       100 2.29487E-02 3.90224E-04 0.00000E+00
 -1       101 2.28207E-02 4.61081E-04 0.00000E+00
 -1       102 2.22602E-02 5.22421E-04 0.00000E+00
 -1       103 2.14591E-02 5.75565E-04 0.00000E+00
 -1       104 2.05151E-02 6.18074E-04 0.00000E+00
 -1       105 1.94841E-02 6.49364E-04 0.00000E+00
 -1       106 1.84887E-02 6.76115E-04 0.00000E+00
 -1       107 1.76359E-02 6.99365E-04 0.00000E+00
 -1       108 1.76359E-02 6.99365E-04 0.00000E+00
 -1       109 1.84887E-02 6.76115E-04 0.00000E+00
 -1       110 1.94841E-02 6.49364E-04 0.00000E+00
 -1       111 2.05151E-02 6.18074E-04 0.00000E+00
 -1       112 2.14591E-02 5.75565E-04 0.00000E+00
 -1       113 2.22602E-02 5.22421E-04 0.00000E+00
 -1       114 2.28207E-02 4.61081E-04 0.00000E+00
 -1       115 2.29487E-02 3.90224E-04 0.00000E+00
 -1       116 2.25424E-02 3.13990E-04 0.00000E+00
 -1       117 2.16233E-02 2.40472E-04 0.00000E+00
 -1       118 2.01945E-02 1.77606E-04 0.00000E+00
 -1       119 1.82651E-02 1.31293E-04 0.00000E+00
 -1       120 1.59241E-02 1.02466E-04 0.00000E+00
 -1       121 1.32653E-02 9.19452E-05 0.00000E+00
 -1       122 1.04169E-02 9.89820E-05 0.00000E+00
 -1       123 7.54250E-03 1.11692E-04 0.00000E+00
 -1       124 4.81223E-03 1.14213E-04 0.00000E+00
 -1       125 2.45819E-03 9.79815E-05 0.00000E+00
 -1       126 7.03535E-04 5.40151E-05 0.00000E+00
 -3
    1PSTEP                        66          17           1          
  100CL  117 1.70000E-01         126                     1   17           1
 -4  STRESS      6    1
 -5  SXX         1    4    1    1
 -5  SYY         1    4    2    2
 -5  SZZ         1    4    3    3
 -5  SXY         1    4    1    2
 -5  SYZ         1    4    2    3
 -5  SZX         1    4    3    1
 -1         1 4.96187E+03 1.17276E+04 4.85550E+03 3.26287E+03 2.66913E-11 4.15667E-11
 -1         2 4.96187E+03 1.17276E+04 4.85550E+03 3.26287E+03 2.66913E-11 4.15667E-11
 -1         3 1.61163E+02 5.22393E+02 2.04781E+02 2.57210E+01-3.34614E-08-1.11495E-07
 -1         4 1.61163E+02 5.22393E+02 2.04781E+02 2.57210E+01-3.34614E-08-1.11495E-07
 -1         5-1.34041E+01-1.83187E+02-5.89675E+01 2.32889E+00 2.05222E-08-5.73335E-08
 -1         6-1.34041E+01-1.83187E+02-5.89675E+01 2.32889E+00 2.05222E-08-5.73326E-08
 -1         7-4.30174E+03-9.93379E+03-4.38737E+03 2.61847E+03 6.40576E-11-1.66706E-11
 -1         8-4.30174E+03-9.93379E+03-4.38737E+03 2.61847E+03 6.40614E-11-1.66706E-11
 -1         9 1.10367E+02 2.56383E+02 1.09976E+02 3.33368E+01 2.09158E-08-8.79812E-08
 -1        10 1.10367E+02 2.56383E+02 1.09976E+02 3.33368E+01 2.09158E-08-8.79813E-08
 -1        11 3.17546E+02 5.52891E+02 2.71961E+02 2.17012E+03 4.11938E-11 3.85072E-11
 -1        12 3.17546E+02 5.52891E+02 2.71961E+02 2.17012E+03 4.11867E-11 3.85072E-11
 -1        13 1.50161E+03 9.28954E+03 3.15218E+03 1.12426E+03 7.86824E-09 7.59017E-09
 -1        14 1.65906E+03 7.18520E+03 2.59950E+03 7.54789E+02 2.60447E-08-8.09176E-09
 -1        15 1.01991E+03 4.61811E+03 1.66718E+03 7.07531E+02 4.68025E-08 4.74385E-08
 -1        16 5.57757E+02 2.47100E+03 9.00211E+02 5.59115E+02 3.66927E-08 1.08288E-07
 -1        17 1.24432E+02 6.60876E+02 2.33708E+02 4.25441E+02 1.17300E-08 1.44091E-07
 -1        18-2.93840E+02-8.49630E+02-3.44336E+02 3.03130E+02-2.23712E-08 1.27187E-07
 -1        19-5.87565E+02-2.03889E+03-7.91820E+02 1.90038E+02-5.33651E-08 6.59419E-08
 -1        20-8.18914E+02-2.96199E+03-1.14218E+03 1.08372E+02-3.87596E-08-8.19258E-10
 -1        21-9.79716E+02-3.60051E+03-1.38593E+03 3.16729E+01-1.38345E-08 2.33294E-08
 -1        22-1.09067E+03-3.93342E+03-1.52127E+03-3.30137E+01-1.37423E-08 9.37118E-09
 -1        23-1.08731E+03-4.00825E+03-1.54326E+03-6.32815E+01-1.57668E-08-4.26461E-08
 -1        24-1.01051E+03-3.79347E+03-1.45479E+03-1.24064E+02-1.12660E-08-3.77498E-08
 -1        25-8.16420E+02-3.08587E+03-1.17985E+03-2.14352E+02-4.11863E-09-4.30033E-08
 -1        26-5.91436E+02-2.07266E+03-8.03235E+02-2.31791E+02 9.83221E-09-4.43432E-08
 -1        27-3.47223E+02-1.12849E+03-4.43910E+02-1.93810E+02 2.17435E-08 2.21903E-08
 -1        28-1.04903E+02-3.02024E+02-1.22389E+02-1.91447E+02 8.58343E-09 4.14119E-08
 -1        29 8.72243E+01 4.65095E+02 1.65164E+02-1.90858E+02-1.86165E-08 1.61013E-08
 -1        30 1.36374E+02 8.80401E+02 3.04014E+02-1.15087E+02-3.55232E-08-1.45942E-08
 -1        31 1.55258E+02 7.38236E+02 2.67348E+02-1.96587E+01-3.50172E-08-5.83125E-08
 -1        32 1.50161E+03 9.28954E+03 3.15218E+03 1.12426E+03 7.86824E-09 7.59017E-09
 -1        33 1.65906E+03 7.18520E+03 2.59950E+03 7.54789E+02 2.60447E-08-8.09176E-09
 -1        34 1.01991E+03 4.61811E+03 1.66718E+03 7.07531E+02 4.68025E-08 4.74385E-08
 -1        35 5.57757E+02 2.47100E+03 9.00211E+02 5.59115E+02 3.66926E-08 1.08288E-07
 -1        36 1.24432E+02 6.60876E+02 2.33708E+02 4.25441E+02 1.17300E-08 1.44090E-07
 -1        37-2.93840E+02-8.49630E+02-3.44336E+02 3.03130E+02-2.23709E-08 1.27187E-07
 -1        38-5.87565E+02-2.03889E+03-7.91820E+02 1.90038E+02-5.33652E-08 6.59421E-08
 -1        39-8.18914E+02-2.96199E+03-1.14218E+03 1.08372E+02-3.87596E-08-8.19289E-10
 -1        40-9.79716E+02-3.60051E+03-1.38593E+03 3.16729E+01-1.38345E-08 2.33293E-08
 -1        41-1.09067E+03-3.93342E+03-1.52127E+03-3.30137E+01-1.37423E-08 9.37164E-09
 -1        42-1.08731E+03-4.00825E+03-1.54326E+03-6.32815E+01-1.57668E-08-4.26465E-08
 -1        43-1.01051E+03-3.79347E+03-1.45479E+03-1.24064E+02-1.12660E-08-3.77502E-08
 -1        44-8.16420E+02-3.08587E+03-1.17985E+03-2.14352E+02-4.11863E-09-4.30031E-08
 -1        45-5.91436E+02-2.07266E+03-8.03235E+02-2.31791E+02 9.83219E-09-4.43433E-08
 -1        46-3.47223E+02-1.12849E+03-4.43910E+02-1.93810E+02 2.17435E-08 2.21902E-08
 -1        47-1.04903E+02-3.02024E+02-1.22389E+02-1.91447E+02 8.58340E-09 4.14119E-08
 -1        48 8.72243E+01 4.65095E+02 1.65164E+02-1.90858E+02-1.86165E-08 1.61014E-08
 -1        49 1.36374E+02 8.80401E+02 3.04014E+02-1.15087E+02-3.55232E-08-1.45939E-08
 -1        50 1.55258E+02 7.38236E+02 2.67348E+02-1.96587E+01-3.50172E-08-5.83139E-08
 -1        51-5.56868E+01-3.15001E+02-1.11302E+02 1.25254E+01 3.21909E-08-7.52642E-08
 -1        52-3.32129E+01-2.69107E+02-9.08882E+01-7.70436E+01 3.42892E-08-1.93083E-08
 -1        53 1.08448E+02 3.26895E+02 1.30163E+02-1.78749E+02 2.66148E-08 2.72062E-08
 -1        54 2.80955E+02 1.20142E+03 4.42757E+02-2.02200E+02 2.25160E-09 6.51258E-08
 -1        55 4.60065E+02 2.13303E+03 7.72779E+02-2.26054E+02-2.32512E-08 2.00567E-08
 -1        56 7.30539E+02 3.23875E+03 1.17951E+03-2.75423E+02-2.00472E-08-4.05989E-08
 -1        57 9.44318E+02 4.39949E+03 1.58278E+03-2.38062E+02-3.19739E-09-3.36806E-08
 -1        58 1.09995E+03 5.23180E+03 1.87142E+03-9.37048E+01 7.16228E-09-5.24995E-08
 -1        59 1.16197E+03 5.53885E+03 1.97933E+03 3.75990E+01 2.16675E-08-1.85413E-08
 -1        60 1.16773E+03 5.50444E+03 1.97095E+03 1.35860E+02 2.25095E-08 6.06312E-09
 -1        61 1.08387E+03 5.17318E+03 1.84947E+03 2.54116E+02 8.06477E-09-1.27364E-08
 -1        62 9.50920E+02 4.50260E+03 1.61463E+03 3.47142E+02 2.37800E-08 6.64435E-09
 -1        63 7.20333E+02 3.49195E+03 1.24998E+03 3.93705E+02 4.70611E-08 7.67772E-08
 -1        64 4.50784E+02 2.18463E+03 7.84199E+02 4.17526E+02 2.28965E-08 1.41976E-07
 -1        65 1.13955E+02 6.10108E+02 2.15373E+02 4.18718E+02-1.87262E-08 1.32115E-07
 -1        66-3.23210E+02-1.20996E+03-4.62515E+02 4.10040E+02-4.75822E-08 1.01878E-07
 -1        67-8.33358E+02-3.31473E+03-1.25616E+03 4.08464E+02-4.46519E-08 5.46361E-08
 -1        68-1.56134E+03-5.82603E+03-2.25065E+03 3.73820E+02-9.93258E-09 6.98260E-09
 -1        69-1.52891E+03-7.88156E+03-2.88519E+03 7.13934E+02 4.82301E-09 1.95013E-08
 -1        70-5.56868E+01-3.15001E+02-1.11302E+02 1.25254E+01 3.21910E-08-7.52659E-08
 -1        71-3.32129E+01-2.69107E+02-9.08882E+01-7.70436E+01 3.42891E-08-1.93089E-08
 -1        72 1.08448E+02 3.26895E+02 1.30163E+02-1.78749E+02 2.66149E-08 2.72064E-08
 -1        73 2.80955E+02 1.20142E+03 4.42757E+02-2.02200E+02 2.25160E-09 6.51260E-08
 -1        74 4.60065E+02 2.13303E+03 7.72779E+02-2.26054E+02-2.32511E-08 2.00569E-08
 -1        75 7.30539E+02 3.23875E+03 1.17951E+03-2.75423E+02-2.00472E-08-4.05995E-08
 -1        76 9.44318E+02 4.39949E+03 1.58278E+03-2.38062E+02-3.19740E-09-3.36774E-08
 -1        77 1.09995E+03 5.23180E+03 1.87142E+03-9.37048E+01 7.16227E-09-5.25017E-08
 -1        78 1.16197E+03 5.53885E+03 1.97933E+03 3.75990E+01 2.16675E-08-1.85428E-08
 -1        79 1.16773E+03 5.50444E+03 1.97095E+03 1.35860E+02 2.25095E-08 6.06263E-09
 -1        80 1.08387E+03 5.17318E+03 1.84947E+03 2.54116E+02 8.06474E-09-1.27347E-08
 -1        81 9.50920E+02 4.50260E+03 1.61463E+03 3.47142E+02 2.37800E-08 6.64447E-09
 -1        82 7.20333E+02 3.49195E+03 1.24998E+03 3.93705E+02 4.70611E-08 7.67768E-08
 -1        83 4.50784E+02 2.18463E+03 7.84199E+02 4.17526E+02 2.28962E-08 1.41976E-07
 -1        84 1.13955E+02 6.10108E+02 2.15373E+02 4.18718E+02-1.87262E-08 1.32116E-07
 -1        85-3.23210E+02-1.20996E+03-4.62515E+02 4.10040E+02-4.75823E-08 1.01878E-07
 -1        86-8.33358E+02-3.31473E+03-1.25616E+03 4.08464E+02-4.46517E-08 5.46361E-08
 -1        87-1.56134E+03-5.82603E+03-2.25065E+03 3.73820E+02-9.93258E-09 6.98260E-09
 -1        88-1.52891E+03-7.88156E+03-2.88519E+03 7.13934E+02 4.82301E-09 1.95013E-08
 -1        89 2.40417E+01 4.67995E+02 1.51021E+02 7.05613E+02 1.03378E-08 1.24913E-08
 -1        90 1.01602E+02 5.60468E+02 2.02823E+02 8.01668E+02 1.08251E-08-4.55970E-09
 -1        91 1.09547E+02 5.68935E+02 2.03916E+02 6.99295E+02-4.65718E-10 4.38115E-08
 -1        92 1.26672E+02 5.83360E+02 2.12036E+02 6.17556E+02-1.16379E-08 1.08254E-07
 -1        93 1.26525E+02 6.06915E+02 2.18735E+02 5.31220E+02-5.19931E-09 1.43057E-07
 -1        94 9.29838E+01 6.54684E+02 2.23336E+02 4.53988E+02 1.40205E-09 1.46717E-07
 -1        95 8.20589E+01 7.04486E+02 2.35709E+02 3.66903E+02-3.47190E-09 6.96400E-08
 -1        96 7.75396E+01 7.23500E+02 2.40971E+02 2.80375E+02-1.19612E-08 5.81664E-10
 -1        97 6.37342E+01 7.27010E+02 2.38448E+02 1.70928E+02-4.42412E-09 1.04593E-09
 -1        98 5.20152E+01 7.24022E+02 2.34744E+02 6.16545E+01 1.28885E-08 8.66023E-09
 -1        99 5.10109E+01 7.03616E+02 2.28428E+02-1.67582E+01 4.13029E-09-3.25351E-08
 -1       100 5.51867E+01 6.59447E+02 2.15695E+02-1.43651E+02 1.49774E-09-4.65529E-08
 -1       101 6.95512E+01 6.07109E+02 2.03710E+02-2.95841E+02 6.30531E-10-4.23760E-08
 -1       102 7.57303E+01 5.60539E+02 1.91271E+02-3.27841E+02-9.00331E-09-4.16275E-08
 -1       103 6.40133E+01 5.01126E+02 1.69435E+02-2.70387E+02 3.04119E-09 2.52132E-08
 -1       104 8.58615E+01 4.33649E+02 1.55500E+02-2.55119E+02 6.01704E-09 6.27703E-08
 -1       105 9.08432E+01 3.71895E+02 1.38486E+02-2.35343E+02 5.81664E-10 2.80186E-08
 -1       106 5.65686E+01 3.13715E+02 1.10799E+02-1.10074E+02 5.81911E-09-1.15903E-08
 -1       107 7.47425E+01 2.70462E+02 1.03481E+02 1.32457E+01 1.83114E-08-6.75143E-08
 -1       108 7.47425E+01 2.70462E+02 1.03481E+02 1.32457E+01 1.83113E-08-6.75140E-08
 -1       109 5.65686E+01 3.13715E+02 1.10799E+02-1.10074E+02 5.81911E-09-1.15894E-08
 -1       110 9.08432E+01 3.71895E+02 1.38486E+02-2.35343E+02 5.81636E-10 2.80181E-08
 -1       111 8.58615E+01 4.33649E+02 1.55500E+02-2.55119E+02 6.01708E-09 6.27700E-08
 -1       112 6.40133E+01 5.01126E+02 1.69435E+02-2.70387E+02 3.04115E-09 2.52131E-08
 -1       113 7.57303E+01 5.60539E+02 1.91271E+02-3.27841E+02-9.00331E-09-4.16262E-08
 -1       114 6.95512E+01 6.07109E+02 2.03710E+02-2.95841E+02 6.30548E-10-4.23781E-08
 -1       115 5.51867E+01 6.59447E+02 2.15695E+02-1.43651E+02 1.49773E-09-4.65516E-08
 -1       116 5.10109E+01 7.03616E+02 2.28428E+02-1.67582E+01 4.13029E-09-3.25346E-08
 -1       117 5.20152E+01 7.24022E+02 2.34744E+02 6.16545E+01 1.28885E-08 8.65948E-09
 -1       118 6.37342E+01 7.27010E+02 2.38448E+02 1.70928E+02-4.42413E-09 1.04593E-09
 -1       119 7.75396E+01 7.23500E+02 2.40971E+02 2.80375E+02-1.19612E-08 5.81706E-10
 -1       120 8.20589E+01 7.04486E+02 2.35709E+02 3.66903E+02-3.47183E-09 6.96398E-08
 -1       121 9.29838E+01 6.54684E+02 2.23336E+02 4.53988E+02 1.40203E-09 1.46717E-07
 -1       122 1.26525E+02 6.06915E+02 2.18735E+02 5.31220E+02-5.19934E-09 1.43057E-07
 -1       123 1.26672E+02 5.83360E+02 2.12036E+02 6.17556E+02-1.16378E-08 1.08254E-07
 -1       124 1.09547E+02 5.68935E+02 2.03916E+02 6.99295E+02-4.65754E-10 4.38115E-08
 -1       125 1.01602E+02 5.60468E+02 2.02823E+02 8.01668E+02 1.08251E-08-4.55970E-09
 -1       126 2.40417E+01 4.67995E+02 1.51021E+02 7.05613E+02 1.03378E-08 1.24913E-08
 -3
    1PSTEP                        67          17           1          
  100CL  117 1.70000E-01         126                     1   17           1
 -4  TOSTRAIN    6    1
 -5  EXX         1    4    1    1
 -5  EYY         1    4    2    2
 -5  EZZ         1    4    3    3
 -5  EXY         1    4    1    2
 -5  EYZ         1    4    2    3
 -5  EZX         1    4    3    1
 -1         1-3.59785E-05 2.14487E-02-3.75815E-28 9.92693E-03-6.49488E-19 1.03719E-16
 -1         2-3.59785E-05 2.14487E-02-3.75815E-28 9.92693E-03-6.49488E-19 1.03719E-16
 -1         3-1.38811E-04 1.02692E-03 2.64403E-25 1.01677E-04-1.02869E-13-3.63907E-13
 -1         4-1.38811E-04 1.02692E-03 2.64403E-25 1.01677E-04-1.02869E-13-3.63907E-13
 -1         5 1.48159E-04-4.03747E-04 7.43992E-26-9.13928E-07 6.95876E-14-1.85289E-13
 -1         6 1.48159E-04-4.03747E-04 7.43964E-26-9.13928E-07 6.95874E-14-1.85286E-13
 -1         7-3.50198E-05-1.86865E-02-1.37254E-27 9.05518E-03-5.18568E-19 1.05267E-17
 -1         8-3.50198E-05-1.86865E-02-1.37254E-27 9.05518E-03-5.06029E-19 1.05265E-17
 -1         9 4.67417E-06 4.72043E-04 1.64205E-25 1.15523E-04 7.23725E-14-2.84795E-13
 -1        10 4.67417E-06 4.72043E-04 1.64205E-25 1.15523E-04 7.23726E-14-2.84795E-13
 -1        11-3.54992E-05 1.14432E-03-8.82327E-28 7.03519E-03-3.84984E-19 1.16543E-16
 -1        12-3.54992E-05 1.14432E-03-8.82329E-28 7.03519E-03-4.08383E-19 1.16544E-16
 -1        13-5.59547E-03 1.93866E-02 1.15797E-27 3.00770E-03 2.54002E-14 2.39009E-14
 -1        14-3.26806E-03 1.46358E-02 7.40345E-27 1.73997E-03 8.20829E-14-2.95456E-14
 -1        15-2.31898E-03 9.58885E-03 7.10947E-26 1.70737E-03 1.57104E-13 1.46238E-13
 -1        16-1.29665E-03 5.21359E-03 2.56755E-25 1.46299E-03 1.36502E-13 3.44611E-13
 -1        17-5.05507E-04 1.52149E-03 4.35308E-25 1.27436E-03 6.31688E-14 4.65395E-13
 -1        18 4.82699E-05-1.53824E-03 3.39786E-25 1.07624E-03-5.11303E-14 4.16997E-13
 -1        19 5.82109E-04-4.00595E-03 1.28425E-25 8.46580E-04-1.63915E-13 2.22865E-13
 -1        20 9.92745E-04-5.92674E-03 1.99638E-26 6.44382E-04-1.26946E-13 2.66964E-15
 -1        21 1.28076E-03-7.26346E-03 1.15961E-26 3.85740E-04-4.28299E-14 7.73546E-14
 -1        22 1.37476E-03-7.93879E-03-1.41576E-27 1.08237E-04-4.44146E-14 3.15446E-14
 -1        23 1.46113E-03-8.11962E-03 3.74086E-26-8.06853E-05-5.36775E-14-1.38134E-13
 -1        24 1.41979E-03-7.69804E-03 3.19871E-26-3.76150E-04-3.73792E-14-1.22802E-13
 -1        25 1.15467E-03-6.25001E-03 3.90829E-26-7.42697E-04-1.27848E-14-1.40031E-13
 -1        26 6.62039E-04-4.13447E-03 3.40452E-26-8.16374E-04 3.38043E-14-1.43835E-13
 -1        27 2.89897E-04-2.21111E-03 1.04420E-26-6.73020E-04 6.97804E-14 7.33604E-14
 -1        28 3.17256E-05-5.61648E-04 3.31580E-26-6.33673E-04 2.54719E-14 1.35147E-13
 -1        29-2.77683E-04 9.94320E-04 6.67693E-27-5.95401E-04-6.13891E-14 5.11106E-14
 -1        30-5.59425E-04 1.87831E-03 1.97042E-26-3.29259E-04-1.14315E-13-4.95470E-14
 -1        31-3.66585E-04 1.52648E-03 7.94188E-26-3.21222E-05-1.10477E-13-1.91317E-13
 -1        32-5.59547E-03 1.93866E-02 1.15797E-27 3.00770E-03 2.54002E-14 2.39009E-14
 -1        33-3.26806E-03 1.46358E-02 7.40345E-27 1.73997E-03 8.20829E-14-2.95456E-14
 -1        34-2.31898E-03 9.58885E-03 7.10947E-26 1.70737E-03 1.57104E-13 1.46238E-13
 -1        35-1.29665E-03 5.21359E-03 2.56755E-25 1.46299E-03 1.36502E-13 3.44611E-13
 -1        36-5.05507E-04 1.52149E-03 4.35305E-25 1.27436E-03 6.31687E-14 4.65393E-13
 -1        37 4.82699E-05-1.53824E-03 3.39786E-25 1.07624E-03-5.11294E-14 4.16998E-13
 -1        38 5.82109E-04-4.00595E-03 1.28426E-25 8.46580E-04-1.63915E-13 2.22865E-13
 -1        39 9.92745E-04-5.92674E-03 1.99638E-26 6.44382E-04-1.26946E-13 2.66954E-15
 -1        40 1.28076E-03-7.26346E-03 1.15961E-26 3.85740E-04-4.28299E-14 7.73542E-14
 -1        41 1.37476E-03-7.93879E-03-1.41560E-27 1.08237E-04-4.44146E-14 3.15461E-14
 -1        42 1.46113E-03-8.11962E-03 3.74091E-26-8.06853E-05-5.36775E-14-1.38135E-13
 -1        43 1.41979E-03-7.69804E-03 3.19880E-26-3.76150E-04-3.73792E-14-1.22804E-13
 -1        44 1.15467E-03-6.25001E-03 3.90826E-26-7.42697E-04-1.27848E-14-1.40031E-13
 -1        45 6.62039E-04-4.13447E-03 3.40453E-26-8.16374E-04 3.38043E-14-1.43836E-13
 -1        46 2.89897E-04-2.21111E-03 1.04419E-26-6.73020E-04 6.97805E-14 7.33600E-14
 -1        47 3.17256E-05-5.61648E-04 3.31580E-26-6.33673E-04 2.54718E-14 1.35148E-13
 -1        48-2.77683E-04 9.94320E-04 6.67725E-27-5.95401E-04-6.13891E-14 5.11109E-14
 -1        49-5.59425E-04 1.87831E-03 1.97040E-26-3.29259E-04-1.14315E-13-4.95459E-14
 -1        50-3.66585E-04 1.52648E-03 7.94222E-26-3.21222E-05-1.10477E-13-1.91321E-13
 -1        51 1.81155E-04-6.63424E-04 1.34941E-25 2.66619E-05 1.08691E-13-2.42892E-13
 -1        52 1.76332E-04-5.70178E-04 2.03134E-26-2.63616E-04 1.12633E-13-6.07003E-14
 -1        53-9.33690E-05 6.58354E-04 2.10343E-26-5.65570E-04 8.47489E-14 9.00987E-14
 -1        54-5.50785E-04 2.47340E-03 8.18385E-26-5.99039E-04 3.50180E-15 2.11674E-13
 -1        55-1.04195E-03 4.40085E-03 6.18998E-27-6.41741E-04-7.60896E-14 6.38602E-14
 -1        56-1.48784E-03 6.62157E-03 3.58355E-26-7.88383E-04-6.30501E-14-1.32628E-13
 -1        57-2.10390E-03 9.00091E-03 2.26585E-26-7.04469E-04-9.72350E-15-1.09349E-13
 -1        58-2.53512E-03 1.06964E-02 5.62086E-26-3.46921E-04 2.23071E-14-1.70420E-13
 -1        59-2.68569E-03 1.13206E-02 1.18036E-26-6.67634E-05 6.85306E-14-6.10447E-14
 -1        60-2.65206E-03 1.12504E-02 8.74025E-27 1.11830E-04 7.25335E-14 1.79498E-14
 -1        61-2.55550E-03 1.06208E-02 1.83105E-27 3.82027E-04 2.45830E-14-4.22107E-14
 -1        62-2.25051E-03 9.28704E-03-2.40448E-27 6.37485E-04 7.71804E-14 1.83008E-14
 -1        63-1.83675E-03 7.27844E-03 1.42697E-25 8.29923E-04 1.63095E-13 2.41462E-13
 -1        64-1.21815E-03 4.62809E-03 4.23734E-25 1.04431E-03 9.77675E-14 4.56470E-13
 -1        65-4.77672E-04 1.41422E-03 3.70016E-25 1.26162E-03-3.75847E-14 4.32121E-13
 -1        66 2.95505E-04-2.29485E-03 2.57221E-25 1.48346E-03-1.37596E-13 3.39359E-13
 -1        67 1.20871E-03-6.62879E-03 8.96429E-26 1.72172E-03-1.37936E-13 1.84818E-13
 -1        68 2.08270E-03-1.17635E-02-5.43927E-27 1.75854E-03-3.18337E-14 2.39827E-14
 -1        69 4.22108E-03-1.66187E-02 6.95503E-27 2.83630E-03 1.73683E-14 6.30657E-14
 -1        70 1.81155E-04-6.63424E-04 1.34946E-25 2.66619E-05 1.08691E-13-2.42897E-13
 -1        71 1.76332E-04-5.70178E-04 2.03134E-26-2.63616E-04 1.12632E-13-6.07020E-14
 -1        72-9.33690E-05 6.58354E-04 2.10344E-26-5.65570E-04 8.47491E-14 9.00994E-14
 -1        73-5.50785E-04 2.47340E-03 8.18388E-26-5.99039E-04 3.50181E-15 2.11675E-13
 -1        74-1.04195E-03 4.40085E-03 6.19008E-27-6.41741E-04-7.60895E-14 6.38607E-14
 -1        75-1.48784E-03 6.62157E-03 3.58366E-26-7.88383E-04-6.30500E-14-1.32631E-13
 -1        76-2.10390E-03 9.00091E-03 2.26529E-26-7.04469E-04-9.72356E-15-1.09338E-13
 -1        77-2.53512E-03 1.06964E-02 5.62133E-26-3.46921E-04 2.23071E-14-1.70427E-13
 -1        78-2.68569E-03 1.13206E-02 1.18054E-26-6.67634E-05 6.85306E-14-6.10497E-14
 -1        79-2.65206E-03 1.12504E-02 8.74040E-27 1.11830E-04 7.25334E-14 1.79482E-14
 -1        80-2.55550E-03 1.06208E-02 1.83057E-27 3.82027E-04 2.45831E-14-4.22051E-14
 -1        81-2.25051E-03 9.28704E-03-2.40419E-27 6.37485E-04 7.71804E-14 1.83011E-14
 -1        82-1.83675E-03 7.27844E-03 1.42696E-25 8.29923E-04 1.63095E-13 2.41460E-13
 -1        83-1.21815E-03 4.62809E-03 4.23733E-25 1.04431E-03 9.77667E-14 4.56470E-13
 -1        84-4.77672E-04 1.41422E-03 3.70021E-25 1.26162E-03-3.75843E-14 4.32124E-13
 -1        85 2.95505E-04-2.29485E-03 2.57221E-25 1.48346E-03-1.37596E-13 3.39359E-13
 -1        86 1.20871E-03-6.62879E-03 8.96426E-26 1.72172E-03-1.37935E-13 1.84818E-13
 -1        87 2.08270E-03-1.17635E-02-5.43927E-27 1.75854E-03-3.18337E-14 2.39827E-14
 -1        88 4.22108E-03-1.66187E-02 6.95503E-27 2.83630E-03 1.73683E-14 6.30657E-14
 -1        89-6.87196E-04 1.30910E-03 4.42356E-27 2.25466E-03 3.43712E-14 3.97348E-14
 -1        90-5.92682E-04 1.44882E-03-3.00508E-27 2.53459E-03 3.46828E-14-1.62826E-14
 -1        91-5.55135E-04 1.43066E-03 2.14426E-26 2.18445E-03 5.14654E-15 1.42280E-13
 -1        92-5.00571E-04 1.41773E-03 2.35030E-25 1.91074E-03-1.93730E-14 3.53403E-13
 -1        93-4.91590E-04 1.43977E-03 4.30625E-25 1.62536E-03 8.16051E-15 4.65147E-13
 -1        94-5.84938E-04 1.55208E-03 4.42762E-25 1.36608E-03 2.93773E-14 4.75910E-13
 -1        95-6.27322E-04 1.64569E-03 7.52818E-26 1.08537E-03-4.51359E-16 2.26639E-13
 -1        96-6.28885E-04 1.66706E-03-8.83689E-27 8.18116E-04-3.86106E-14 3.54915E-15
 -1        97-6.37369E-04 1.66206E-03-1.54692E-27 4.81796E-04-1.41353E-14 3.83455E-15
 -1        98-6.38647E-04 1.64566E-03 1.18975E-28 1.48841E-04 4.24859E-14 2.71540E-14
 -1        99-6.12282E-04 1.59172E-03 1.77315E-26-8.27112E-05 1.19836E-14-1.05886E-13
 -1       100-5.57667E-04 1.48303E-03 4.51658E-26-4.72522E-04 4.33778E-15-1.51337E-13
 -1       101-4.74617E-04 1.35090E-03 3.77521E-26-9.49185E-04 2.74446E-15-1.37697E-13
 -1       102-4.12898E-04 1.23851E-03 2.93964E-26-1.04327E-03-2.76422E-14-1.35670E-13
 -1       103-3.76025E-04 1.10925E-03 1.33868E-27-8.53285E-04 8.62188E-15 8.21027E-14
 -1       104-2.59530E-04 9.33372E-04 7.89303E-26-8.05870E-04 1.58490E-14 2.04339E-13
 -1       105-1.85526E-04 7.85870E-04 9.81824E-27-7.45296E-04 1.82935E-16 9.10693E-14
 -1       106-1.91547E-04 6.71777E-04-9.41858E-27-3.41845E-04 1.95595E-14-3.73118E-14
 -1       107-9.27151E-05 5.41185E-04 9.17298E-26 5.33716E-05 6.30332E-14-2.18397E-13
 -1       108-9.27151E-05 5.41185E-04 9.17288E-26 5.33716E-05 6.30330E-14-2.18396E-13
 -1       109-1.91547E-04 6.71777E-04-9.41873E-27-3.41845E-04 1.95595E-14-3.73088E-14
 -1       110-1.85526E-04 7.85870E-04 9.81809E-27-7.45296E-04 1.82872E-16 9.10678E-14
 -1       111-2.59530E-04 9.33372E-04 7.89297E-26-8.05870E-04 1.58492E-14 2.04338E-13
 -1       112-3.76025E-04 1.10925E-03 1.33878E-27-8.53285E-04 8.62174E-15 8.21024E-14
 -1       113-4.12898E-04 1.23851E-03 2.93943E-26-1.04327E-03-2.76422E-14-1.35666E-13
 -1       114-4.74617E-04 1.35090E-03 3.77558E-26-9.49185E-04 2.74455E-15-1.37704E-13
 -1       115-5.57667E-04 1.48303E-03 4.51635E-26-4.72522E-04 4.33775E-15-1.51333E-13
 -1       116-6.12282E-04 1.59172E-03 1.77307E-26-8.27112E-05 1.19836E-14-1.05884E-13
 -1       117-6.38647E-04 1.64566E-03 1.18609E-28 1.48841E-04 4.24858E-14 2.71516E-14
 -1       118-6.37369E-04 1.66206E-03-1.54678E-27 4.81796E-04-1.41354E-14 3.83455E-15
 -1       119-6.28885E-04 1.66706E-03-8.83680E-27 8.18116E-04-3.86106E-14 3.54929E-15
 -1       120-6.27322E-04 1.64569E-03 7.52814E-26 1.08537E-03-4.51152E-16 2.26638E-13
 -1       121-5.84938E-04 1.55208E-03 4.42761E-25 1.36608E-03 2.93772E-14 4.75910E-13
 -1       122-4.91590E-04 1.43977E-03 4.30629E-25 1.62536E-03 8.16054E-15 4.65149E-13
 -1       123-5.00571E-04 1.41773E-03 2.35030E-25 1.91074E-03-1.93729E-14 3.53403E-13
 -1       124-5.55135E-04 1.43066E-03 2.14426E-26 2.18445E-03 5.14643E-15 1.42280E-13
 -1       125-5.92682E-04 1.44882E-03-3.00508E-27 2.53459E-03 3.46828E-14-1.62826E-14
 -1       126-6.87196E-04 1.30910E-03 4.42356E-27 2.25466E-03 3.43712E-14 3.97348E-14
 -3
    1PSTEP                        68          17           1          
  100CL  117 1.70000E-01         126                     1   17           1
 -4  ERROR       1    1
 -5  STR(%)      1    1    0    0
 -1         1 6.03901E+01
 -1         2 6.03901E+01
 -1         3 2.21978E+01
 -1         4 2.21978E+01
 -1         5 6.50837E+01
 -1         6 6.50837E+01
 -1         7 6.77784E+01
 -1         8 6.77784E+01
 -1         9 6.50837E+01
 -1        10 6.50837E+01
 -1        11 6.77784E+01
 -1        12 6.77784E+01
 -1        13 6.03901E+01
 -1        14 5.47860E+01
 -1        15 5.15868E+01
 -1        16 4.17778E+01
 -1        17 4.71701E+01
 -1        18 8.04090E+01
 -1        19 8.59598E+01
 -1        20 8.59598E+01
 -1        21 8.17886E+01
 -1        22 7.59436E+01
 -1        23 7.37338E+01
 -1        24 7.78999E+01
 -1        25 7.96005E+01
 -1        26 8.33428E+01
 -1        27 8.82959E+01
 -1        28 8.82959E+01
 -1        29 2.98846E+01
 -1        30 3.88757E+01
 -1        31 3.88757E+01
 -1        32 6.03901E+01
 -1        33 5.47860E+01
 -1        34 5.15868E+01
 -1        35 4.17778E+01
 -1        36 4.71701E+01
 -1        37 8.04090E+01
 -1        38 8.59598E+01
 -1        39 8.59598E+01
 -1        40 8.17886E+01
 -1        41 7.59436E+01
 -1        42 7.37338E+01
 -1        43 7.78999E+01
 -1        44 7.96005E+01
 -1        45 8.33428E+01
 -1        46 8.82959E+01
 -1        47 8.82959E+01
 -1        48 2.98846E+01
 -1        49 3.88757E+01
 -1        50 3.88757E+01
 -1        51 1.07596E+02
 -1        52 1.07596E+02
 -1        53 5.27213E+01
 -1        54 3.44845E+01
 -1        55 4.32197E+01
 -1        56 4.81286E+01
 -1        57 5.04969E+01
 -1        58 5.04969E+01
 -1        59 4.97275E+01
 -1        60 4.92510E+01
 -1        61 4.92510E+01
 -1        62 4.88273E+01
 -1        63 4.63285E+01
 -1        64 3.93425E+01
 -1        65 4.76442E+01
 -1        66 6.59995E+01
 -1        67 7.03962E+01
 -1        68 7.03962E+01
 -1        69 6.90697E+01
 -1        70 1.07596E+02
 -1        71 1.07596E+02
 -1        72 5.27213E+01
 -1        73 3.44845E+01
 -1        74 4.32197E+01
 -1        75 4.81286E+01
 -1        76 5.04969E+01
 -1        77 5.04969E+01
 -1        78 4.97275E+01
 -1        79 4.92510E+01
 -1        80 4.92510E+01
 -1        81 4.88273E+01
 -1        82 4.63285E+01
 -1        83 3.93425E+01
 -1        84 4.76442E+01
 -1        85 6.59995E+01
 -1        86 7.03962E+01
 -1        87 7.03962E+01
 -1        88 6.90697E+01
 -1        89 6.90697E+01
 -1        90 7.03962E+01
 -1        91 7.03962E+01
 -1        92 6.59995E+01
 -1        93 4.76442E+01
 -1        94 8.04090E+01
 -1        95 8.59598E+01
 -1        96 8.59598E+01
 -1        97 8.17886E+01
 -1        98 7.59436E+01
 -1        99 7.37338E+01
 -1       100 7.78999E+01
 -1       101 7.96005E+01
 -1       102 8.33428E+01
 -1       103 8.82959E+01
 -1       104 8.82959E+01
 -1       105 5.27213E+01
 -1       106 1.07596E+02
 -1       107 1.07596E+02
 -1       108 1.07596E+02
 -1       109 1.07596E+02
 -1       110 5.27213E+01
 -1       111 8.82959E+01
 -1       112 8.82959E+01
 -1       113 8.33428E+01
 -1       114 7.96005E+01
 -1       115 7.78999E+01
 -1       116 7.37338E+01
 -1       117 7.59436E+01
 -1       118 8.17886E+01
 -1       119 8.59598E+01
 -1       120 8.59598E+01
 -1       121 8.04090E+01
 -1       122 4.76442E+01
 -1       123 6.59995E+01
 -1       124 7.03962E+01
 -1       125 7.03962E+01
 -1       126 6.90697E+01
 -3
    1PSTEP                        69          18           1          
  100CL  118 1.80000E-01         126                     1   18           1
 -4  DISP        4    1
 -5  D1          1    2    1    0
 -5  D2          1    2    2    0
 -5  D3          1    2    3    0
 -5  ALL         1    2    0    0    1ALL
 -1         1 0.00000E+00 0.00000E+00 0.00000E+00
 -1         2 0.00000E+00 0.00000E+00 0.00000E+00
 -1         3 1.75974E-02-9.24415E-04 0.00000E+00
 -1         4 1.75974E-02-9.24415E-04 0.00000E+00
 -1         5 1.75392E-02 2.08610E-03 0.00000E+00
 -1         6 1.75392E-02 2.08610E-03 0.00000E+00
 -1         7 0.00000E+00 0.00000E+00 0.00000E+00
 -1         8 0.00000E+00 0.00000E+00 0.00000E+00
 -1         9 1.75713E-02 5.93685E-04 0.00000E+00
 -1        10 1.75713E-02 5.93685E-04 0.00000E+00
 -1        11 0.00000E+00 0.00000E+00 0.00000E+00
 -1        12 0.00000E+00 0.00000E+00 0.00000E+00
 -1        13 1.05788E-03 1.09843E-03 0.00000E+00
 -1        14 2.79446E-03 1.96096E-03 0.00000E+00
 -1        15 5.21555E-03 2.52418E-03 0.00000E+00
 -1        16 8.04491E-03 2.83671E-03 0.00000E+00
 -1        17 1.10544E-02 2.92949E-03 0.00000E+00
 -1        18 1.40487E-02 2.84606E-03 0.00000E+00
 -1        19 1.68725E-02 2.62268E-03 0.00000E+00
 -1        20 1.93894E-02 2.29327E-03 0.00000E+00
 -1        21 2.14926E-02 1.89514E-03 0.00000E+00
 -1        22 2.31194E-02 1.45701E-03 0.00000E+00
 -1        23 2.42029E-02 1.01156E-03 0.00000E+00
 -1        24 2.47618E-02 5.89372E-04 0.00000E+00
 -1        25 2.48239E-02 2.12958E-04 0.00000E+00
 -1        26 2.44420E-02-8.61903E-05 0.00000E+00
 -1        27 2.37368E-02-2.88263E-04 0.00000E+00
 -1        28 2.28690E-02-4.30879E-04 0.00000E+00
 -1        29 2.18547E-02-5.82388E-04 0.00000E+00
 -1        30 2.06099E-02-7.51217E-04 0.00000E+00
 -1        31 1.91403E-02-8.76191E-04 0.00000E+00
 -1        32 1.05788E-03 1.09843E-03 0.00000E+00
 -1        33 2.79446E-03 1.96096E-03 0.00000E+00
 -1        34 5.21555E-03 2.52418E-03 0.00000E+00
 -1        35 8.04491E-03 2.83671E-03 0.00000E+00
 -1        36 1.10544E-02 2.92949E-03 0.00000E+00
 -1        37 1.40487E-02 2.84606E-03 0.00000E+00
 -1        38 1.68725E-02 2.62268E-03 0.00000E+00
 -1        39 1.93894E-02 2.29327E-03 0.00000E+00
 -1        40 2.14926E-02 1.89514E-03 0.00000E+00
 -1        41 2.31194E-02 1.45701E-03 0.00000E+00
 -1        42 2.42029E-02 1.01156E-03 0.00000E+00
 -1        43 2.47618E-02 5.89372E-04 0.00000E+00
 -1        44 2.48239E-02 2.12958E-04 0.00000E+00
 -1        45 2.44420E-02-8.61903E-05 0.00000E+00
 -1        46 2.37368E-02-2.88263E-04 0.00000E+00
 -1        47 2.28690E-02-4.30879E-04 0.00000E+00
 -1        48 2.18547E-02-5.82388E-04 0.00000E+00
 -1        49 2.06099E-02-7.51217E-04 0.00000E+00
 -1        50 1.91403E-02-8.76191E-04 0.00000E+00
 -1        51 1.90747E-02 2.04473E-03 0.00000E+00
 -1        52 2.05377E-02 1.89592E-03 0.00000E+00
 -1        53 2.17749E-02 1.67446E-03 0.00000E+00
 -1        54 2.27953E-02 1.43883E-03 0.00000E+00
 -1        55 2.36660E-02 1.19107E-03 0.00000E+00
 -1        56 2.43683E-02 8.68861E-04 0.00000E+00
 -1        57 2.47468E-02 4.31813E-04 0.00000E+00
 -1        58 2.46804E-02-9.30274E-05 0.00000E+00
 -1        59 2.41092E-02-6.59198E-04 0.00000E+00
 -1        60 2.30060E-02-1.22917E-03 0.00000E+00
 -1        61 2.13485E-02-1.76000E-03 0.00000E+00
 -1        62 1.92106E-02-2.21312E-03 0.00000E+00
 -1        63 1.66647E-02-2.55584E-03 0.00000E+00
 -1        64 1.38230E-02-2.75670E-03 0.00000E+00
 -1        65 1.08174E-02-2.79864E-03 0.00000E+00
 -1        66 7.81838E-03-2.66610E-03 0.00000E+00
 -1        67 5.02526E-03-2.33401E-03 0.00000E+00
 -1        68 2.64319E-03-1.79045E-03 0.00000E+00
 -1        69 9.54671E-04-9.94987E-04 0.00000E+00
 -1        70 1.90747E-02 2.04473E-03 0.00000E+00
 -1        71 2.05377E-02 1.89592E-03 0.00000E+00
 -1        72 2.17749E-02 1.67446E-03 0.00000E+00
 -1        73 2.27953E-02 1.43883E-03 0.00000E+00
 -1        74 2.36660E-02 1.19107E-03 0.00000E+00
 -1        75 2.43683E-02 8.68861E-04 0.00000E+00
 -1        76 2.47468E-02 4.31813E-04 0.00000E+00
 -1        77 2.46804E-02-9.30274E-05 0.00000E+00
 -1        78 2.41092E-02-6.59198E-04 0.00000E+00
 -1        79 2.30060E-02-1.22917E-03 0.00000E+00
 -1        80 2.13485E-02-1.76000E-03 0.00000E+00
 -1        81 1.92106E-02-2.21312E-03 0.00000E+00
 -1        82 1.66647E-02-2.55584E-03 0.00000E+00
 -1        83 1.38230E-02-2.75670E-03 0.00000E+00
 -1        84 1.08174E-02-2.79864E-03 0.00000E+00
 -1        85 7.81838E-03-2.66610E-03 0.00000E+00
 -1        86 5.02526E-03-2.33401E-03 0.00000E+00
 -1        87 2.64319E-03-1.79045E-03 0.00000E+00
 -1        88 9.54671E-04-9.94987E-04 0.00000E+00
 -1        89 7.41756E-04 4.98973E-05 0.00000E+00
 -1        90 2.57009E-03 9.29030E-05 0.00000E+00
 -1        91 5.01722E-03 1.02478E-04 0.00000E+00
 -1        92 7.87865E-03 8.93163E-05 0.00000E+00
 -1        93 1.09236E-02 6.73162E-05 0.00000E+00
 -1        94 1.39548E-02 4.32010E-05 0.00000E+00
 -1        95 1.68204E-02 2.90787E-05 0.00000E+00
 -1        96 1.93755E-02 3.57650E-05 0.00000E+00
 -1        97 2.15115E-02 6.37716E-05 0.00000E+00
 -1        98 2.31597E-02 1.10493E-04 0.00000E+00
 -1        99 2.42571E-02 1.73920E-04 0.00000E+00
 -1       100 2.48166E-02 2.47682E-04 0.00000E+00
 -1       101 2.48673E-02 3.23724E-04 0.00000E+00
 -1       102 2.44627E-02 3.94064E-04 0.00000E+00
 -1       103 2.37415E-02 4.53322E-04 0.00000E+00
 -1       104 2.28664E-02 5.03968E-04 0.00000E+00
 -1       105 2.18518E-02 5.48170E-04 0.00000E+00
 -1       106 2.06040E-02 5.78374E-04 0.00000E+00
 -1       107 1.91217E-02 5.91261E-04 0.00000E+00
 -1       108 1.91217E-02 5.91261E-04 0.00000E+00
 -1       109 2.06040E-02 5.78374E-04 0.00000E+00
 -1       110 2.18518E-02 5.48170E-04 0.00000E+00
 -1       111 2.28664E-02 5.03968E-04 0.00000E+00
 -1       112 2.37415E-02 4.53322E-04 0.00000E+00
 -1       113 2.44627E-02 3.94064E-04 0.00000E+00
 -1       114 2.48673E-02 3.23724E-04 0.00000E+00
 -1       115 2.48166E-02 2.47682E-04 0.00000E+00
 -1       116 2.42571E-02 1.73920E-04 0.00000E+00
 -1       117 2.31597E-02 1.10493E-04 0.00000E+00
 -1       118 2.15115E-02 6.37716E-05 0.00000E+00
 -1       119 1.93755E-02 3.57650E-05 0.00000E+00
 -1       120 1.68204E-02 2.90787E-05 0.00000E+00
 -1       121 1.39548E-02 4.32010E-05 0.00000E+00
 -1       122 1.09236E-02 6.73162E-05 0.00000E+00
 -1       123 7.87865E-03 8.93163E-05 0.00000E+00
 -1       124 5.01722E-03 1.02478E-04 0.00000E+00
 -1       125 2.57009E-03 9.29030E-05 0.00000E+00
 -1       126 7.41756E-04 4.98973E-05 0.00000E+00
 -3
    1PSTEP                        70          18           1          
  100CL  118 1.80000E-01         126                     1   18           1
 -4  STRESS      6    1
 -5  SXX         1    4    1    1
 -5  SYY         1    4    2    2
 -5  SZZ         1    4    3    3
 -5  SXY         1    4    1    2
 -5  SYZ         1    4    2    3
 -5  SZX         1    4    3    1
 -1         1 5.18621E+03 1.22513E+04 5.06537E+03 3.48613E+03 2.07224E-11 8.08476E-11
 -1         2 5.18621E+03 1.22513E+04 5.06537E+03 3.48613E+03 2.07224E-11 8.08476E-11
 -1         3-1.40459E+02-2.81351E+02-1.26581E+02-7.41774E+01-3.45478E-08-3.58821E-08
 -1         4-1.40459E+02-2.81351E+02-1.26581E+02-7.41774E+01-3.45478E-08-3.58812E-08
 -1         5 2.02019E+02 6.47176E+02 2.54259E+02-1.39745E+02 6.10251E-08-8.02247E-08
 -1         6 2.02019E+02 6.47176E+02 2.54259E+02-1.39745E+02 6.10251E-08-8.02291E-08
 -1         7-4.50025E+03-1.03893E+04-4.59564E+03 2.75222E+03 5.57880E-11-1.40870E-10
 -1         8-4.50025E+03-1.03893E+04-4.59564E+03 2.75222E+03 5.57880E-11-1.40870E-10
 -1         9 6.16333E+01 2.47010E+02 9.24970E+01-1.41996E+02-8.04716E-09-4.30407E-08
 -1        10 6.16333E+01 2.47010E+02 9.24970E+01-1.41996E+02-8.04717E-09-4.30418E-08
 -1        11 3.06102E+02 5.06647E+02 2.55522E+02 2.28674E+03-1.28101E-11-4.04042E-11
 -1        12 3.06102E+02 5.06647E+02 2.55522E+02 2.28674E+03-1.28101E-11-4.04042E-11
 -1        13 1.41520E+03 9.61187E+03 3.21660E+03 1.20128E+03 2.17570E-08 3.77555E-09
 -1        14 1.51857E+03 7.39235E+03 2.61613E+03 7.80091E+02 3.87092E-08 7.70887E-08
 -1        15 9.07407E+02 4.82798E+03 1.69405E+03 7.35618E+02 4.04128E-08 1.54922E-07
 -1        16 4.15417E+02 2.64797E+03 9.09232E+02 5.98238E+02 2.17131E-08 2.13557E-07
 -1        17-3.58714E+01 7.50578E+02 2.12074E+02 4.55148E+02-3.25675E-08 1.99463E-07
 -1        18-4.42208E+02-8.43542E+02-3.87188E+02 3.15175E+02-7.55820E-08 1.33975E-07
 -1        19-7.54771E+02-2.14802E+03-8.75327E+02 1.98367E+02-5.98445E-08 4.98789E-08
 -1        20-1.01479E+03-3.15723E+03-1.26078E+03 1.11200E+02-2.22273E-08 1.41460E-08
 -1        21-1.19200E+03-3.85198E+03-1.52674E+03 5.29500E+01 4.06270E-09 3.47563E-09
 -1        22-1.31802E+03-4.24195E+03-1.68471E+03-1.34340E+01 8.00090E-09 1.55354E-08
 -1        23-1.30883E+03-4.26609E+03-1.68915E+03-7.47556E+01-1.33539E-08 6.28970E-08
 -1        24-1.23189E+03-3.98775E+03-1.58042E+03-1.04004E+02-3.80961E-08 2.61037E-08
 -1        25-1.08422E+03-3.40422E+03-1.35722E+03-1.46649E+02-5.05305E-08-7.76706E-09
 -1        26-8.90211E+02-2.54892E+03-1.03770E+03-1.84963E+02-3.78172E-08-6.40915E-08
 -1        27-6.52864E+02-1.74023E+03-7.20303E+02-1.29043E+02-6.58088E-09-1.15673E-07
 -1        28-5.71121E+02-1.45668E+03-6.09873E+02-1.04399E+01 1.93043E-08-7.72410E-08
 -1        29-5.73481E+02-1.53613E+03-6.34958E+02 1.41473E+01 1.73653E-08 7.40854E-09
 -1        30-4.60033E+02-1.32858E+03-5.38328E+02-7.32747E+01-4.88811E-09 2.29807E-08
 -1        31-2.56208E+02-6.80273E+02-2.81460E+02-1.12981E+02-2.43382E-08-2.01489E-09
 -1        32 1.41520E+03 9.61187E+03 3.21660E+03 1.20128E+03 2.17570E-08 3.77555E-09
 -1        33 1.51857E+03 7.39235E+03 2.61613E+03 7.80091E+02 3.87092E-08 7.70887E-08
 -1        34 9.07407E+02 4.82798E+03 1.69405E+03 7.35618E+02 4.04129E-08 1.54922E-07
 -1        35 4.15417E+02 2.64797E+03 9.09232E+02 5.98238E+02 2.17131E-08 2.13557E-07
 -1        36-3.58714E+01 7.50578E+02 2.12074E+02 4.55148E+02-3.25675E-08 1.99463E-07
 -1        37-4.42208E+02-8.43542E+02-3.87188E+02 3.15175E+02-7.55818E-08 1.33975E-07
 -1        38-7.54771E+02-2.14802E+03-8.75327E+02 1.98367E+02-5.98446E-08 4.98807E-08
 -1        39-1.01479E+03-3.15723E+03-1.26078E+03 1.11200E+02-2.22273E-08 1.41460E-08
 -1        40-1.19200E+03-3.85198E+03-1.52674E+03 5.29500E+01 4.06270E-09 3.47563E-09
 -1        41-1.31802E+03-4.24195E+03-1.68471E+03-1.34340E+01 8.00089E-09 1.55354E-08
 -1        42-1.30883E+03-4.26609E+03-1.68915E+03-7.47556E+01-1.33539E-08 6.28967E-08
 -1        43-1.23189E+03-3.98775E+03-1.58042E+03-1.04004E+02-3.80961E-08 2.61033E-08
 -1        44-1.08422E+03-3.40422E+03-1.35722E+03-1.46649E+02-5.05305E-08-7.76694E-09
 -1        45-8.90211E+02-2.54892E+03-1.03770E+03-1.84963E+02-3.78172E-08-6.40918E-08
 -1        46-6.52864E+02-1.74023E+03-7.20303E+02-1.29043E+02-6.58088E-09-1.15673E-07
 -1        47-5.71121E+02-1.45668E+03-6.09873E+02-1.04399E+01 1.93043E-08-7.72404E-08
 -1        48-5.73481E+02-1.53613E+03-6.34958E+02 1.41473E+01 1.73653E-08 7.40655E-09
 -1        49-4.60033E+02-1.32858E+03-5.38328E+02-7.32747E+01-4.88807E-09 2.29814E-08
 -1        50-2.56208E+02-6.80273E+02-2.81460E+02-1.12981E+02-2.43383E-08-2.01619E-09
 -1        51 2.71907E+02 1.14285E+03 4.22702E+02-1.54322E+02 4.43933E-08 1.20371E-09
 -1        52 4.19219E+02 1.97236E+03 7.13039E+02-1.21233E+02 1.47976E-08 1.44190E-08
 -1        53 4.24653E+02 2.32004E+03 8.17636E+02-2.89590E+01-2.60492E-08-2.91324E-09
 -1        54 4.86935E+02 2.42910E+03 8.68749E+02-5.13739E+01-3.01558E-08-8.60179E-08
 -1        55 5.94337E+02 2.83373E+03 1.02008E+03-1.68664E+02 1.91014E-09-1.12371E-07
 -1        56 7.81053E+02 3.73713E+03 1.34064E+03-2.19049E+02 3.16784E-08-7.42090E-08
 -1        57 9.33068E+02 4.69944E+03 1.66681E+03-1.54270E+02 3.99162E-08-3.06725E-08
 -1        58 1.07674E+03 5.35705E+03 1.90096E+03-5.42196E+01 2.62536E-08 5.11651E-08
 -1        59 1.14736E+03 5.64503E+03 2.00556E+03 5.05373E+01-4.13132E-09 4.36776E-08
 -1        60 1.18383E+03 5.59914E+03 2.00298E+03 1.87496E+02-1.86998E-08 3.24864E-08
 -1        61 1.06534E+03 5.15437E+03 1.83863E+03 3.07245E+02 3.06557E-09-5.92004E-09
 -1        62 8.92043E+02 4.38322E+03 1.56217E+03 3.70646E+02 2.70796E-08 5.81619E-09
 -1        63 6.70712E+02 3.29756E+03 1.17811E+03 4.08314E+02 4.12176E-08 5.23518E-08
 -1        64 4.24921E+02 1.95134E+03 7.07493E+02 4.27404E+02 4.18628E-08 1.60610E-07
 -1        65-4.34892E-01 3.26876E+02 9.63517E+01 4.30336E+02 5.67262E-09 2.41338E-07
 -1        66-4.64933E+02-1.56295E+03-6.11924E+02 4.00365E+02-3.18279E-08 1.94241E-07
 -1        67-9.33502E+02-3.68285E+03-1.39899E+03 3.91009E+02-4.87838E-08 1.11655E-07
 -1        68-1.68276E+03-6.17983E+03-2.39726E+03 3.70023E+02-5.38159E-08 6.26937E-08
 -1        69-1.57978E+03-8.23712E+03-3.01305E+03 7.52041E+02-3.25453E-08 1.09298E-08
 -1        70 2.71907E+02 1.14285E+03 4.22702E+02-1.54322E+02 4.43933E-08 1.20569E-09
 -1        71 4.19219E+02 1.97236E+03 7.13039E+02-1.21233E+02 1.47974E-08 1.44191E-08
 -1        72 4.24653E+02 2.32004E+03 8.17636E+02-2.89590E+01-2.60491E-08-2.91233E-09
 -1        73 4.86935E+02 2.42910E+03 8.68749E+02-5.13739E+01-3.01559E-08-8.60183E-08
 -1        74 5.94337E+02 2.83373E+03 1.02008E+03-1.68664E+02 1.91021E-09-1.12370E-07
 -1        75 7.81053E+02 3.73713E+03 1.34064E+03-2.19049E+02 3.16784E-08-7.42091E-08
 -1        76 9.33068E+02 4.69944E+03 1.66681E+03-1.54270E+02 3.99162E-08-3.06718E-08
 -1        77 1.07674E+03 5.35705E+03 1.90096E+03-5.42196E+01 2.62536E-08 5.11634E-08
 -1        78 1.14736E+03 5.64503E+03 2.00556E+03 5.05373E+01-4.13138E-09 4.36776E-08
 -1        79 1.18383E+03 5.59914E+03 2.00298E+03 1.87496E+02-1.86998E-08 3.24864E-08
 -1        80 1.06534E+03 5.15437E+03 1.83863E+03 3.07245E+02 3.06562E-09-5.92027E-09
 -1        81 8.92043E+02 4.38322E+03 1.56217E+03 3.70646E+02 2.70796E-08 5.81622E-09
 -1        82 6.70712E+02 3.29756E+03 1.17811E+03 4.08314E+02 4.12176E-08 5.23517E-08
 -1        83 4.24921E+02 1.95134E+03 7.07493E+02 4.27404E+02 4.18625E-08 1.60610E-07
 -1        84-4.34892E-01 3.26876E+02 9.63517E+01 4.30336E+02 5.67304E-09 2.41338E-07
 -1        85-4.64933E+02-1.56295E+03-6.11924E+02 4.00365E+02-3.18280E-08 1.94240E-07
 -1        86-9.33502E+02-3.68285E+03-1.39899E+03 3.91009E+02-4.87837E-08 1.11655E-07
 -1        87-1.68276E+03-6.17983E+03-2.39726E+03 3.70023E+02-5.38160E-08 6.26937E-08
 -1        88-1.57978E+03-8.23712E+03-3.01305E+03 7.52041E+02-3.25452E-08 1.09298E-08
 -1        89-4.89599E+01 4.15897E+02 1.13561E+02 7.39039E+02-1.14262E-08-3.77389E-09
 -1        90-1.60126E+01 4.97949E+02 1.49161E+02 8.17643E+02-1.76453E-08 6.65039E-08
 -1        91 1.07868E+01 4.93941E+02 1.51913E+02 7.06933E+02-6.27752E-09 1.32358E-07
 -1        92-6.71838E+00 5.05745E+02 1.48774E+02 6.37525E+02 6.72807E-09 2.07227E-07
 -1        93-6.38863E+00 5.17079E+02 1.51899E+02 5.52909E+02-5.66714E-09 2.35416E-07
 -1        94-1.47314E+00 5.21216E+02 1.55103E+02 4.69095E+02-2.18691E-08 1.48873E-07
 -1        95-2.97334E+01 5.39747E+02 1.52963E+02 3.88590E+02-1.55544E-08 4.81273E-08
 -1        96-4.66448E+01 5.69391E+02 1.57714E+02 2.98800E+02-4.53577E-10 2.81541E-09
 -1        97-5.20310E+01 5.85709E+02 1.61902E+02 2.10539E+02 8.93609E-09-6.13371E-09
 -1        98-5.65567E+01 6.01891E+02 1.65804E+02 1.00183E+02-5.17691E-09 2.27988E-08
 -1        99-6.82929E+01 6.18028E+02 1.67279E+02-1.58288E+01-8.33397E-09 5.82801E-08
 -1       100-6.47323E+01 6.26089E+02 1.70377E+02-1.09131E+02-1.18033E-08 4.13809E-08
 -1       101-6.32114E+01 6.06743E+02 1.64237E+02-2.09131E+02-1.28088E-08-1.29727E-08
 -1       102-4.82654E+01 5.63083E+02 1.55178E+02-2.66329E+02 3.83364E-09-7.70207E-08
 -1       103-3.23356E+01 5.14371E+02 1.45148E+02-1.84477E+02 7.43340E-10-1.20443E-07
 -1       104-4.04548E+01 4.74381E+02 1.30554E+02-3.56444E+01-5.61687E-09-8.43966E-08
 -1       105-5.89699E+01 4.11737E+02 1.05928E+02-1.37540E+01-6.01502E-09-3.30556E-10
 -1       106-4.96229E+00 3.39907E+02 1.00413E+02-1.32327E+02-3.63232E-09 2.60785E-08
 -1       107 2.83650E+01 2.66512E+02 8.84729E+01-1.75772E+02-5.94570E-09-3.76948E-09
 -1       108 2.83650E+01 2.66512E+02 8.84729E+01-1.75772E+02-5.94564E-09-3.76919E-09
 -1       109-4.96229E+00 3.39907E+02 1.00413E+02-1.32327E+02-3.63231E-09 2.60787E-08
 -1       110-5.89699E+01 4.11737E+02 1.05928E+02-1.37540E+01-6.01498E-09-3.30237E-10
 -1       111-4.04548E+01 4.74381E+02 1.30554E+02-3.56444E+01-5.61689E-09-8.43976E-08
 -1       112-3.23356E+01 5.14371E+02 1.45148E+02-1.84477E+02 7.43347E-10-1.20443E-07
 -1       113-4.82654E+01 5.63083E+02 1.55178E+02-2.66329E+02 3.83364E-09-7.70208E-08
 -1       114-6.32114E+01 6.06743E+02 1.64237E+02-2.09131E+02-1.28089E-08-1.29732E-08
 -1       115-6.47323E+01 6.26089E+02 1.70377E+02-1.09131E+02-1.18033E-08 4.13819E-08
 -1       116-6.82929E+01 6.18028E+02 1.67279E+02-1.58288E+01-8.33395E-09 5.82807E-08
 -1       117-5.65567E+01 6.01891E+02 1.65804E+02 1.00183E+02-5.17690E-09 2.27987E-08
 -1       118-5.20310E+01 5.85709E+02 1.61902E+02 2.10539E+02 8.93614E-09-6.13328E-09
 -1       119-4.66448E+01 5.69391E+02 1.57714E+02 2.98800E+02-4.53577E-10 2.81540E-09
 -1       120-2.97334E+01 5.39747E+02 1.52963E+02 3.88590E+02-1.55544E-08 4.81270E-08
 -1       121-1.47314E+00 5.21216E+02 1.55103E+02 4.69095E+02-2.18691E-08 1.48872E-07
 -1       122-6.38863E+00 5.17079E+02 1.51899E+02 5.52909E+02-5.66714E-09 2.35417E-07
 -1       123-6.71838E+00 5.05745E+02 1.48774E+02 6.37525E+02 6.72807E-09 2.07227E-07
 -1       124 1.07868E+01 4.93941E+02 1.51913E+02 7.06933E+02-6.27754E-09 1.32358E-07
 -1       125-1.60126E+01 4.97949E+02 1.49161E+02 8.17643E+02-1.76453E-08 6.65039E-08
 -1       126-4.89599E+01 4.15897E+02 1.13561E+02 7.39039E+02-1.14262E-08-3.77388E-09
 -3
    1PSTEP                        71          18           1          
  100CL  118 1.80000E-01         126                     1   18           1
 -4  TOSTRAIN    6    1
 -5  EXX         1    4    1    1
 -5  EYY         1    4    2    2
 -5  EZZ         1    4    3    3
 -5  EXY         1    4    1    2
 -5  EYZ         1    4    2    3
 -5  EZX         1    4    3    1
 -1         1-3.98745E-05 2.23933E-02-9.46014E-28 1.05786E-02-7.31964E-20 2.49965E-16
 -1         2-3.98745E-05 2.23933E-02-9.46014E-28 1.05786E-02-7.31964E-20 2.49965E-16
 -1         3-6.04347E-05-4.87955E-04 4.55334E-26-2.55059E-04-1.08767E-13-1.20068E-13
 -1         4-6.04347E-05-4.87955E-04 4.55321E-26-2.55059E-04-1.08767E-13-1.20065E-13
 -1         5-1.96172E-04 1.29906E-03 1.69181E-25-4.08306E-04 2.05659E-13-2.54451E-13
 -1         6-1.96172E-04 1.29906E-03 1.69190E-25-4.08306E-04 2.05660E-13-2.54465E-13
 -1         7-3.79781E-05-1.95569E-02-4.06063E-27 9.54654E-03 1.07375E-18-4.09940E-16
 -1         8-3.79781E-05-1.95569E-02-4.06063E-27 9.54654E-03 1.07375E-18-4.09940E-16
 -1         9-1.28303E-04 5.29143E-04 2.36347E-26-4.41777E-04-2.18998E-14-1.40618E-13
 -1        10-1.28303E-04 5.29143E-04 2.36360E-26-4.41777E-04-2.18998E-14-1.40621E-13
 -1        11-3.89263E-05 1.06949E-03 4.02684E-29 7.41740E-03 4.72285E-19-1.29933E-16
 -1        12-3.89263E-05 1.06949E-03 4.02684E-29 7.41740E-03 4.72285E-19-1.29933E-16
 -1        13-6.11376E-03 2.01864E-02-4.59103E-27 3.19284E-03 6.92497E-14 1.04449E-14
 -1        14-3.79568E-03 1.52345E-02 1.23029E-25 1.74798E-03 1.32474E-13 2.44718E-13
 -1        15-2.79251E-03 1.01784E-02 5.13276E-25 1.71892E-03 1.53553E-13 4.95560E-13
 -1        16-1.81194E-03 5.76772E-03 9.62718E-25 1.51183E-03 1.07799E-13 6.88670E-13
 -1        17-9.74720E-04 1.89703E-03 8.44433E-25 1.31601E-03-6.83989E-14 6.53751E-13
 -1        18-3.05227E-04-1.36922E-03 4.69059E-25 1.09338E-03-2.21333E-13 4.49494E-13
 -1        19 3.01266E-04-4.08380E-03 1.05593E-25 8.83106E-04-1.86917E-13 1.72554E-13
 -1        20 7.35093E-04-6.17775E-03 6.83882E-27 6.83083E-04-7.06852E-14 4.93507E-14
 -1        21 1.04166E-03-7.62737E-03-1.25723E-27 4.96493E-04 1.37991E-14 1.07907E-14
 -1        22 1.15922E-03-8.42274E-03 9.59059E-28 2.16318E-04 2.77478E-14 4.98999E-14
 -1        23 1.21549E-03-8.49834E-03 7.94652E-26-8.31389E-05-4.03935E-14 2.05578E-13
 -1        24 1.11337E-03-7.92978E-03 3.73380E-26-2.81424E-04-1.24632E-13 8.58406E-14
 -1        25 8.65627E-04-6.72311E-03 4.35604E-26-4.99835E-04-1.65724E-13-2.58292E-14
 -1        26 4.55874E-04-4.93820E-03 9.93277E-26-6.59313E-04-1.21755E-13-2.10011E-13
 -1        27 2.02712E-04-3.31744E-03 2.74339E-25-4.75708E-04-1.58966E-14-3.76739E-13
 -1        28 1.21630E-04-2.75995E-03 1.15731E-25-8.87071E-05 6.77501E-14-2.50110E-13
 -1        29 1.95152E-04-2.94165E-03-8.27389E-27-2.53896E-05 5.61533E-14 2.53733E-14
 -1        30 2.34601E-04-2.56362E-03 8.85445E-27-3.13671E-04-1.79325E-14 7.43005E-14
 -1        31 5.82104E-05-1.27649E-03 7.60956E-27-4.07968E-04-7.90219E-14-8.93496E-15
 -1        32-6.11376E-03 2.01864E-02-4.59103E-27 3.19284E-03 6.92497E-14 1.04449E-14
 -1        33-3.79568E-03 1.52345E-02 1.23029E-25 1.74798E-03 1.32474E-13 2.44718E-13
 -1        34-2.79251E-03 1.01784E-02 5.13275E-25 1.71892E-03 1.53553E-13 4.95559E-13
 -1        35-1.81194E-03 5.76772E-03 9.62718E-25 1.51183E-03 1.07799E-13 6.88670E-13
 -1        36-9.74720E-04 1.89703E-03 8.44433E-25 1.31601E-03-6.83989E-14 6.53750E-13
 -1        37-3.05227E-04-1.36922E-03 4.69059E-25 1.09338E-03-2.21332E-13 4.49493E-13
 -1        38 3.01266E-04-4.08380E-03 1.05598E-25 8.83106E-04-1.86917E-13 1.72560E-13
 -1        39 7.35093E-04-6.17775E-03 6.83877E-27 6.83083E-04-7.06852E-14 4.93506E-14
 -1        40 1.04166E-03-7.62737E-03-1.25723E-27 4.96493E-04 1.37991E-14 1.07907E-14
 -1        41 1.15922E-03-8.42274E-03 9.59059E-28 2.16318E-04 2.77478E-14 4.98999E-14
 -1        42 1.21549E-03-8.49834E-03 7.94644E-26-8.31389E-05-4.03935E-14 2.05576E-13
 -1        43 1.11337E-03-7.92978E-03 3.73375E-26-2.81424E-04-1.24632E-13 8.58391E-14
 -1        44 8.65627E-04-6.72311E-03 4.35606E-26-4.99835E-04-1.65724E-13-2.58288E-14
 -1        45 4.55874E-04-4.93820E-03 9.93286E-26-6.59313E-04-1.21755E-13-2.10012E-13
 -1        46 2.02712E-04-3.31744E-03 2.74339E-25-4.75708E-04-1.58966E-14-3.76739E-13
 -1        47 1.21630E-04-2.75995E-03 1.15729E-25-8.87071E-05 6.77501E-14-2.50108E-13
 -1        48 1.95152E-04-2.94165E-03-8.27422E-27-2.53896E-05 5.61533E-14 2.53668E-14
 -1        49 2.34601E-04-2.56362E-03 8.85468E-27-3.13671E-04-1.79324E-14 7.43028E-14
 -1        50 5.82104E-05-1.27649E-03 7.60969E-27-4.07968E-04-7.90219E-14-8.93919E-15
 -1        51-5.18082E-04 2.35357E-03 1.93482E-26-4.16257E-04 1.43682E-13 8.22365E-15
 -1        52-9.77941E-04 4.07590E-03 2.90042E-27-2.59001E-04 4.66406E-14 4.81032E-14
 -1        53-1.28400E-03 4.83718E-03-2.37450E-27 4.41618E-05-8.38282E-14-1.13654E-14
 -1        54-1.24792E-03 5.02414E-03 1.58326E-25-4.80554E-05-9.20867E-14-2.81168E-13
 -1        55-1.40262E-03 5.83938E-03 2.60334E-25-4.33703E-04 1.14884E-14-3.64750E-13
 -1        56-1.84458E-03 7.68209E-03 1.27098E-25-6.10100E-04 1.04151E-13-2.39791E-13
 -1        57-2.41010E-03 9.67443E-03 2.65925E-26-4.65503E-04 1.28316E-13-9.91995E-14
 -1        58-2.70463E-03 1.09951E-02 5.12144E-26-2.64930E-04 8.52910E-14 1.65502E-13
 -1        59-2.82230E-03 1.15717E-02 3.84913E-26-7.83551E-05-1.08025E-14 1.41869E-13
 -1        60-2.71837E-03 1.14567E-02 2.47929E-26 2.16944E-04-5.69980E-14 1.07033E-13
 -1        61-2.59564E-03 1.06128E-02-3.44380E-27 4.97543E-04 9.15555E-15-1.95685E-14
 -1        62-2.28466E-03 9.09076E-03 8.19497E-27 6.74374E-04 8.77492E-14 1.47882E-14
 -1        63-1.77706E-03 6.90445E-03 5.67563E-26 8.64521E-04 1.41310E-13 1.62618E-13
 -1        64-1.06639E-03 4.14207E-03 5.32073E-25 1.09198E-03 1.64168E-13 5.12955E-13
 -1        65-4.78310E-04 8.98408E-04 1.21270E-24 1.32568E-03 6.32491E-14 7.82040E-13
 -1        66 3.11681E-04-2.95588E-03 7.96617E-25 1.49967E-03-6.88494E-14 6.36845E-13
 -1        67 1.34119E-03-7.37516E-03 2.91719E-25 1.72849E-03-1.42186E-13 3.71267E-13
 -1        68 2.15518E-03-1.24618E-02 1.34093E-25 1.80125E-03-1.70140E-13 2.11368E-13
 -1        69 4.45461E-03-1.73966E-02 1.69630E-26 3.01033E-03-1.07620E-13 3.83136E-14
 -1        70-5.18082E-04 2.35357E-03 1.93459E-26-4.16257E-04 1.43682E-13 8.23007E-15
 -1        71-9.77941E-04 4.07590E-03 2.90051E-27-2.59001E-04 4.66399E-14 4.81035E-14
 -1        72-1.28400E-03 4.83718E-03-2.37432E-27 4.41618E-05-8.38282E-14-1.13624E-14
 -1        73-1.24792E-03 5.02414E-03 1.58327E-25-4.80554E-05-9.20867E-14-2.81169E-13
 -1        74-1.40262E-03 5.83938E-03 2.60329E-25-4.33703E-04 1.14885E-14-3.64746E-13
 -1        75-1.84458E-03 7.68209E-03 1.27098E-25-6.10100E-04 1.04151E-13-2.39791E-13
 -1        76-2.41010E-03 9.67443E-03 2.65928E-26-4.65503E-04 1.28316E-13-9.91972E-14
 -1        77-2.70463E-03 1.09951E-02 5.12120E-26-2.64930E-04 8.52910E-14 1.65496E-13
 -1        78-2.82230E-03 1.15717E-02 3.84913E-26-7.83551E-05-1.08027E-14 1.41869E-13
 -1        79-2.71837E-03 1.14567E-02 2.47929E-26 2.16944E-04-5.69980E-14 1.07033E-13
 -1        80-2.59564E-03 1.06128E-02-3.44379E-27 4.97543E-04 9.15569E-15-1.95693E-14
 -1        81-2.28466E-03 9.09076E-03 8.19498E-27 6.74374E-04 8.77492E-14 1.47883E-14
 -1        82-1.77706E-03 6.90445E-03 5.67559E-26 8.64521E-04 1.41310E-13 1.62618E-13
 -1        83-1.06639E-03 4.14207E-03 5.32074E-25 1.09198E-03 1.64167E-13 5.12956E-13
 -1        84-4.78310E-04 8.98408E-04 1.21270E-24 1.32568E-03 6.32504E-14 7.82040E-13
 -1        85 3.11681E-04-2.95588E-03 7.96609E-25 1.49967E-03-6.88498E-14 6.36842E-13
 -1        86 1.34119E-03-7.37516E-03 2.91720E-25 1.72849E-03-1.42186E-13 3.71268E-13
 -1        87 2.15518E-03-1.24618E-02 1.34093E-25 1.80125E-03-1.70140E-13 2.11368E-13
 -1        88 4.45461E-03-1.73966E-02 1.69630E-26 3.01033E-03-1.07620E-13 3.83136E-14
 -1        89-8.29576E-04 1.28755E-03-8.85179E-27 2.36022E-03-3.72045E-14-1.13301E-14
 -1        90-8.20251E-04 1.44223E-03 7.61525E-26 2.57792E-03-4.90942E-14 2.18499E-13
 -1        91-7.25656E-04 1.37481E-03 3.45382E-25 2.20213E-03 5.33788E-16 4.30846E-13
 -1        92-7.50128E-04 1.39232E-03 8.94915E-25 1.96045E-03 5.87719E-14 6.71324E-13
 -1        93-7.26515E-04 1.38459E-03 1.15599E-24 1.68146E-03 2.53740E-14 7.65113E-13
 -1        94-6.85809E-04 1.35681E-03 4.35997E-25 1.41456E-03-4.37734E-14 4.87355E-13
 -1        95-7.37896E-04 1.39693E-03 2.33988E-26 1.15609E-03-4.22796E-14 1.58979E-13
 -1        96-7.74784E-04 1.45111E-03-6.12188E-27 8.73599E-04-1.01291E-15 9.20082E-15
 -1        97-7.76989E-04 1.46848E-03 4.10554E-28 6.04273E-04 2.82922E-14-2.10375E-14
 -1        98-7.79573E-04 1.48590E-03 6.94201E-27 2.66665E-04-1.47296E-14 7.45819E-14
 -1        99-8.03405E-04 1.51615E-03 7.06634E-26-8.82109E-05-2.37798E-14 1.89884E-13
 -1       100-7.95633E-04 1.52321E-03 2.96527E-26-3.68436E-04-3.73010E-14 1.34805E-13
 -1       101-7.72234E-04 1.47581E-03-1.34984E-26-6.72347E-04-4.14201E-14-4.23491E-14
 -1       102-6.94354E-04 1.36174E-03 1.10502E-25-8.43455E-04 1.48150E-14-2.50259E-13
 -1       103-5.99956E-04 1.22641E-03 3.01602E-25-5.71061E-04 8.18946E-15-3.91462E-13
 -1       104-5.63145E-04 1.12715E-03 1.34623E-25-8.42189E-05-1.30534E-14-2.74665E-13
 -1       105-5.44422E-04 1.00169E-03-1.43798E-26-1.02677E-05-1.94475E-14-1.52074E-15
 -1       106-3.71670E-04 8.05454E-04 1.15508E-26-3.99138E-04-1.39989E-14 8.44125E-14
 -1       107-2.29936E-04 6.12849E-04-7.76992E-27-5.46733E-04-1.89244E-14-1.28287E-14
 -1       108-2.29936E-04 6.12849E-04-7.76981E-27-5.46733E-04-1.89242E-14-1.28278E-14
 -1       109-3.71670E-04 8.05454E-04 1.15509E-26-3.99138E-04-1.39989E-14 8.44131E-14
 -1       110-5.44422E-04 1.00169E-03-1.43805E-26-1.02677E-05-1.94474E-14-1.51971E-15
 -1       111-5.63145E-04 1.12715E-03 1.34626E-25-8.42189E-05-1.30534E-14-2.74668E-13
 -1       112-5.99956E-04 1.22641E-03 3.01601E-25-5.71061E-04 8.18947E-15-3.91461E-13
 -1       113-6.94354E-04 1.36174E-03 1.10503E-25-8.43455E-04 1.48150E-14-2.50259E-13
 -1       114-7.72234E-04 1.47581E-03-1.34985E-26-6.72347E-04-4.14201E-14-4.23507E-14
 -1       115-7.95633E-04 1.52321E-03 2.96540E-26-3.68436E-04-3.73010E-14 1.34809E-13
 -1       116-8.03405E-04 1.51615E-03 7.06650E-26-8.82109E-05-2.37797E-14 1.89886E-13
 -1       117-7.79573E-04 1.48590E-03 6.94201E-27 2.66665E-04-1.47295E-14 7.45817E-14
 -1       118-7.76989E-04 1.46848E-03 4.10535E-28 6.04273E-04 2.82924E-14-2.10361E-14
 -1       119-7.74784E-04 1.45111E-03-6.12180E-27 8.73599E-04-1.01291E-15 9.20077E-15
 -1       120-7.37896E-04 1.39693E-03 2.33985E-26 1.15609E-03-4.22796E-14 1.58978E-13
 -1       121-6.85809E-04 1.35681E-03 4.35993E-25 1.41456E-03-4.37735E-14 4.87353E-13
 -1       122-7.26515E-04 1.38459E-03 1.15599E-24 1.68146E-03 2.53741E-14 7.65113E-13
 -1       123-7.50128E-04 1.39232E-03 8.94915E-25 1.96045E-03 5.87718E-14 6.71323E-13
 -1       124-7.25656E-04 1.37481E-03 3.45384E-25 2.20213E-03 5.33764E-16 4.30847E-13
 -1       125-8.20251E-04 1.44223E-03 7.61524E-26 2.57792E-03-4.90940E-14 2.18499E-13
 -1       126-8.29576E-04 1.28755E-03-8.85178E-27 2.36022E-03-3.72045E-14-1.13301E-14
 -3
    1PSTEP                        72          18           1          
  100CL  118 1.80000E-01         126                     1   18           1
 -4  ERROR       1    1
 -5  STR(%)      1    1    0    0
 -1         1 6.12704E+01
 -1         2 6.12704E+01
 -1         3 7.63348E+01
 -1         4 7.63348E+01
 -1         5 1.98373E+01
 -1         6 1.98373E+01
 -1         7 6.73675E+01
 -1         8 6.73675E+01
 -1         9 7.63348E+01
 -1        10 7.63348E+01
 -1        11 6.73675E+01
 -1        12 6.73675E+01
 -1        13 6.12704E+01
 -1        14 5.57830E+01
 -1        15 5.35599E+01
 -1        16 4.61512E+01
 -1        17 4.69634E+01
 -1        18 6.45216E+01
 -1        19 7.91861E+01
 -1        20 7.91861E+01
 -1        21 7.60840E+01
 -1        22 7.24049E+01
 -1        23 7.11917E+01
 -1        24 7.43249E+01
 -1        25 7.90371E+01
 -1        26 8.06004E+01
 -1        27 8.59104E+01
 -1        28 8.59104E+01
 -1        29 7.96184E+01
 -1        30 7.61888E+01
 -1        31 7.63348E+01
 -1        32 6.12704E+01
 -1        33 5.57830E+01
 -1        34 5.35599E+01
 -1        35 4.61512E+01
 -1        36 4.69634E+01
 -1        37 6.45216E+01
 -1        38 7.91861E+01
 -1        39 7.91861E+01
 -1        40 7.60840E+01
 -1        41 7.24049E+01
 -1        42 7.11917E+01
 -1        43 7.43249E+01
 -1        44 7.90371E+01
 -1        45 8.06004E+01
 -1        46 8.59104E+01
 -1        47 8.59104E+01
 -1        48 7.96184E+01
 -1        49 7.61888E+01
 -1        50 7.63348E+01
 -1        51 4.22233E+01
 -1        52 4.53498E+01
 -1        53 4.53498E+01
 -1        54 4.43522E+01
 -1        55 4.62452E+01
 -1        56 4.87860E+01
 -1        57 5.03169E+01
 -1        58 5.06108E+01
 -1        59 5.06108E+01
 -1        60 5.13585E+01
 -1        61 5.13585E+01
 -1        62 5.05874E+01
 -1        63 4.81440E+01
 -1        64 4.02330E+01
 -1        65 5.92969E+01
 -1        66 6.55893E+01
 -1        67 7.00729E+01
 -1        68 7.00729E+01
 -1        69 6.88051E+01
 -1        70 4.22233E+01
 -1        71 4.53498E+01
 -1        72 4.53498E+01
 -1        73 4.43522E+01
 -1        74 4.62452E+01
 -1        75 4.87860E+01
 -1        76 5.03169E+01
 -1        77 5.06108E+01
 -1        78 5.06108E+01
 -1        79 5.13585E+01
 -1        80 5.13585E+01
 -1        81 5.05874E+01
 -1        82 4.81440E+01
 -1        83 4.02330E+01
 -1        84 5.92969E+01
 -1        85 6.55893E+01
 -1        86 7.00729E+01
 -1        87 7.00729E+01
 -1        88 6.88051E+01
 -1        89 6.88051E+01
 -1        90 7.00729E+01
 -1        91 7.00729E+01
 -1        92 6.55893E+01
 -1        93 5.92969E+01
 -1        94 6.45216E+01
 -1        95 7.91861E+01
 -1        96 7.91861E+01
 -1        97 7.60840E+01
 -1        98 7.24049E+01
 -1        99 7.11917E+01
 -1       100 7.43249E+01
 -1       101 7.90371E+01
 -1       102 8.06004E+01
 -1       103 8.59104E+01
 -1       104 8.59104E+01
 -1       105 7.96184E+01
 -1       106 7.61888E+01
 -1       107 7.63348E+01
 -1       108 7.63348E+01
 -1       109 7.61888E+01
 -1       110 7.96184E+01
 -1       111 8.59104E+01
 -1       112 8.59104E+01
 -1       113 8.06004E+01
 -1       114 7.90371E+01
 -1       115 7.43249E+01
 -1       116 7.11917E+01
 -1       117 7.24049E+01
 -1       118 7.60840E+01
 -1       119 7.91861E+01
 -1       120 7.91861E+01
 -1       121 6.45216E+01
 -1       122 5.92969E+01
 -1       123 6.55893E+01
 -1       124 7.00729E+01
 -1       125 7.00729E+01
 -1       126 6.88051E+01
 -3
    1PSTEP                        73          19           1          
  100CL  119 1.90000E-01         126                     1   19           1
 -4  DISP        4    1
 -5  D1          1    2    1    0
 -5  D2          1    2    2    0
 -5  D3          1    2    3    0
 -5  ALL         1    2    0    0    1ALL
 -1         1 0.00000E+00 0.00000E+00 0.00000E+00
 -1         2 0.00000E+00 0.00000E+00 0.00000E+00
 -1         3 1.86221E-02-1.63336E-03 0.00000E+00
 -1         4 1.86221E-02-1.63336E-03 0.00000E+00
 -1         5 1.85393E-02 2.41229E-03 0.00000E+00
 -1         6 1.85393E-02 2.41229E-03 0.00000E+00
 -1         7 0.00000E+00 0.00000E+00 0.00000E+00
 -1         8 0.00000E+00 0.00000E+00 0.00000E+00
 -1         9 1.85908E-02 4.01875E-04 0.00000E+00
 -1        10 1.85908E-02 4.01875E-04 0.00000E+00
 -1        11 0.00000E+00 0.00000E+00 0.00000E+00
 -1        12 0.00000E+00 0.00000E+00 0.00000E+00
 -1        13 1.09084E-03 1.13336E-03 0.00000E+00
 -1        14 2.90729E-03 2.02632E-03 0.00000E+00
 -1        15 5.43927E-03 2.61441E-03 0.00000E+00
 -1        16 8.39377E-03 2.95084E-03 0.00000E+00
 -1        17 1.15692E-02 3.06475E-03 0.00000E+00
 -1        18 1.47542E-02 2.98715E-03 0.00000E+00
 -1        19 1.77681E-02 2.75907E-03 0.00000E+00
 -1        20 2.04898E-02 2.41738E-03 0.00000E+00
 -1        21 2.27997E-02 1.99661E-03 0.00000E+00
 -1        22 2.46189E-02 1.53085E-03 0.00000E+00
 -1        23 2.58930E-02 1.05504E-03 0.00000E+00
 -1        24 2.66106E-02 6.16507E-04 0.00000E+00
 -1        25 2.68540E-02 2.42577E-04 0.00000E+00
 -1        26 2.66987E-02-8.05895E-05 0.00000E+00
 -1        27 2.61738E-02-3.71415E-04 0.00000E+00
 -1        28 2.53302E-02-6.51458E-04 0.00000E+00
 -1        29 2.41736E-02-9.55620E-04 0.00000E+00
 -1        30 2.26323E-02-1.27663E-03 0.00000E+00
 -1        31 2.06995E-02-1.52508E-03 0.00000E+00
 -1        32 1.09084E-03 1.13336E-03 0.00000E+00
 -1        33 2.90729E-03 2.02632E-03 0.00000E+00
 -1        34 5.43927E-03 2.61441E-03 0.00000E+00
 -1        35 8.39377E-03 2.95084E-03 0.00000E+00
 -1        36 1.15692E-02 3.06475E-03 0.00000E+00
 -1        37 1.47542E-02 2.98715E-03 0.00000E+00
 -1        38 1.77681E-02 2.75907E-03 0.00000E+00
 -1        39 2.04898E-02 2.41738E-03 0.00000E+00
 -1        40 2.27997E-02 1.99661E-03 0.00000E+00
 -1        41 2.46189E-02 1.53085E-03 0.00000E+00
 -1        42 2.58930E-02 1.05504E-03 0.00000E+00
 -1        43 2.66106E-02 6.16507E-04 0.00000E+00
 -1        44 2.68540E-02 2.42577E-04 0.00000E+00
 -1        45 2.66987E-02-8.05895E-05 0.00000E+00
 -1        46 2.61738E-02-3.71415E-04 0.00000E+00
 -1        47 2.53302E-02-6.51458E-04 0.00000E+00
 -1        48 2.41736E-02-9.55620E-04 0.00000E+00
 -1        49 2.26323E-02-1.27663E-03 0.00000E+00
 -1        50 2.06995E-02-1.52508E-03 0.00000E+00
 -1        51 2.06105E-02 2.35247E-03 0.00000E+00
 -1        52 2.25514E-02 2.10702E-03 0.00000E+00
 -1        53 2.41048E-02 1.74023E-03 0.00000E+00
 -1        54 2.52643E-02 1.35516E-03 0.00000E+00
 -1        55 2.61154E-02 9.65909E-04 0.00000E+00
 -1        56 2.66457E-02 5.45387E-04 0.00000E+00
 -1        57 2.68000E-02 8.52478E-05 0.00000E+00
 -1        58 2.65515E-02-4.21785E-04 0.00000E+00
 -1        59 2.58209E-02-9.79507E-04 0.00000E+00
 -1        60 2.45189E-02-1.54882E-03 0.00000E+00
 -1        61 2.26660E-02-2.07109E-03 0.00000E+00
 -1        62 2.03211E-02-2.50407E-03 0.00000E+00
 -1        63 1.75655E-02-2.81765E-03 0.00000E+00
 -1        64 1.45197E-02-2.99284E-03 0.00000E+00
 -1        65 1.13266E-02-3.00624E-03 0.00000E+00
 -1        66 8.16940E-03-2.83343E-03 0.00000E+00
 -1        67 5.24839E-03-2.46711E-03 0.00000E+00
 -1        68 2.76680E-03-1.89416E-03 0.00000E+00
 -1        69 1.01023E-03-1.05603E-03 0.00000E+00
 -1        70 2.06105E-02 2.35247E-03 0.00000E+00
 -1        71 2.25514E-02 2.10702E-03 0.00000E+00
 -1        72 2.41048E-02 1.74023E-03 0.00000E+00
 -1        73 2.52643E-02 1.35516E-03 0.00000E+00
 -1        74 2.61154E-02 9.65909E-04 0.00000E+00
 -1        75 2.66457E-02 5.45387E-04 0.00000E+00
 -1        76 2.68000E-02 8.52478E-05 0.00000E+00
 -1        77 2.65515E-02-4.21785E-04 0.00000E+00
 -1        78 2.58209E-02-9.79507E-04 0.00000E+00
 -1        79 2.45189E-02-1.54882E-03 0.00000E+00
 -1        80 2.26660E-02-2.07109E-03 0.00000E+00
 -1        81 2.03211E-02-2.50407E-03 0.00000E+00
 -1        82 1.75655E-02-2.81765E-03 0.00000E+00
 -1        83 1.45197E-02-2.99284E-03 0.00000E+00
 -1        84 1.13266E-02-3.00624E-03 0.00000E+00
 -1        85 8.16940E-03-2.83343E-03 0.00000E+00
 -1        86 5.24839E-03-2.46711E-03 0.00000E+00
 -1        87 2.76680E-03-1.89416E-03 0.00000E+00
 -1        88 1.01023E-03-1.05603E-03 0.00000E+00
 -1        89 7.83543E-04 3.95005E-05 0.00000E+00
 -1        90 2.69188E-03 7.18506E-05 0.00000E+00
 -1        91 5.24253E-03 7.94876E-05 0.00000E+00
 -1        92 8.22829E-03 6.22622E-05 0.00000E+00
 -1        93 1.14374E-02 3.02317E-05 0.00000E+00
 -1        94 1.46632E-02-3.03649E-06 0.00000E+00
 -1        95 1.77235E-02-3.20162E-05 0.00000E+00
 -1        96 2.04860E-02-4.84476E-05 0.00000E+00
 -1        97 2.28317E-02-4.21259E-05 0.00000E+00
 -1        98 2.46776E-02-1.23778E-05 0.00000E+00
 -1        99 2.59669E-02 3.55178E-05 0.00000E+00
 -1       100 2.66805E-02 9.65317E-05 0.00000E+00
 -1       101 2.69143E-02 1.64955E-04 0.00000E+00
 -1       102 2.67495E-02 2.34010E-04 0.00000E+00
 -1       103 2.62162E-02 2.99227E-04 0.00000E+00
 -1       104 2.53675E-02 3.56945E-04 0.00000E+00
 -1       105 2.42130E-02 4.00006E-04 0.00000E+00
 -1       106 2.26566E-02 4.22123E-04 0.00000E+00
 -1       107 2.06878E-02 4.19863E-04 0.00000E+00
 -1       108 2.06878E-02 4.19863E-04 0.00000E+00
 -1       109 2.26566E-02 4.22123E-04 0.00000E+00
 -1       110 2.42130E-02 4.00006E-04 0.00000E+00
 -1       111 2.53675E-02 3.56945E-04 0.00000E+00
 -1       112 2.62162E-02 2.99227E-04 0.00000E+00
 -1       113 2.67495E-02 2.34010E-04 0.00000E+00
 -1       114 2.69143E-02 1.64955E-04 0.00000E+00
 -1       115 2.66805E-02 9.65317E-05 0.00000E+00
 -1       116 2.59669E-02 3.55178E-05 0.00000E+00
 -1       117 2.46776E-02-1.23778E-05 0.00000E+00
 -1       118 2.28317E-02-4.21259E-05 0.00000E+00
 -1       119 2.04860E-02-4.84476E-05 0.00000E+00
 -1       120 1.77235E-02-3.20162E-05 0.00000E+00
 -1       121 1.46632E-02-3.03649E-06 0.00000E+00
 -1       122 1.14374E-02 3.02317E-05 0.00000E+00
 -1       123 8.22829E-03 6.22622E-05 0.00000E+00
 -1       124 5.24253E-03 7.94876E-05 0.00000E+00
 -1       125 2.69188E-03 7.18506E-05 0.00000E+00
 -1       126 7.83543E-04 3.95005E-05 0.00000E+00
 -3
    1PSTEP                        74          19           1          
  100CL  119 1.90000E-01         126                     1   19           1
 -4  STRESS      6    1
 -5  SXX         1    4    1    1
 -5  SYY         1    4    2    2
 -5  SZZ         1    4    3    3
 -5  SXY         1    4    1    2
 -5  SYZ         1    4    2    3
 -5  SZX         1    4    3    1
 -1         1 5.35547E+03 1.26526E+04 5.22621E+03 3.60364E+03 2.04330E-10 2.28490E-10
 -1         2 5.35547E+03 1.26526E+04 5.22621E+03 3.60364E+03 2.04330E-10 2.28490E-10
 -1         3-1.80776E+02-6.63625E+02-2.53647E+02-1.19301E+02 1.25737E-08 7.72469E-08
 -1         4-1.80776E+02-6.63625E+02-2.53647E+02-1.19301E+02 1.25737E-08 7.72469E-08
 -1         5 3.70133E+02 1.04252E+03 4.22613E+02-2.01932E+02-2.34838E-08 6.84478E-08
 -1         6 3.70133E+02 1.04252E+03 4.22613E+02-2.01932E+02-2.34838E-08 6.84462E-08
 -1         7-4.77123E+03-1.10039E+04-4.87810E+03 2.90049E+03 1.88590E-10-2.47382E-10
 -1         8-4.77123E+03-1.10039E+04-4.87810E+03 2.90049E+03 1.88590E-10-2.47385E-10
 -1         9 1.34066E+02 2.58853E+02 1.17783E+02-2.31531E+02-9.94071E-09 7.45808E-08
 -1        10 1.34066E+02 2.58853E+02 1.17783E+02-2.31531E+02-9.94074E-09 7.45810E-08
 -1        11 2.67874E+02 3.92831E+02 2.10530E+02 2.41486E+03 1.55166E-10-4.91370E-12
 -1        12 2.67874E+02 3.92831E+02 2.10530E+02 2.41486E+03 1.55166E-10-4.90642E-12
 -1        13 1.68053E+03 1.00402E+04 3.41781E+03 1.24538E+03 2.75025E-08 5.50022E-08
 -1        14 1.79884E+03 7.79767E+03 2.81648E+03 8.17839E+02 3.36159E-08 1.01136E-07
 -1        15 1.12936E+03 5.19528E+03 1.86753E+03 7.60372E+02 8.29659E-09 1.58644E-07
 -1        16 6.57276E+02 3.02445E+03 1.09268E+03 6.20040E+02-3.23260E-08 1.46358E-07
 -1        17 1.80963E+02 1.05294E+03 3.67155E+02 4.78446E+02-4.93341E-08 1.22444E-07
 -1        18-2.34932E+02-6.54160E+02-2.68067E+02 3.23864E+02-3.84749E-08 8.00072E-08
 -1        19-5.45390E+02-2.03866E+03-7.79423E+02 1.92938E+02-2.39149E-08 3.41577E-08
 -1        20-8.31732E+02-3.14297E+03-1.20183E+03 9.52125E+01-1.57272E-08 1.30172E-08
 -1        21-1.04346E+03-3.93358E+03-1.50768E+03 1.93513E+01-6.28487E-09 9.39503E-09
 -1        22-1.16545E+03-4.37482E+03-1.68017E+03-3.92905E+01 7.62946E-09 5.11379E-08
 -1        23-1.15155E+03-4.36823E+03-1.67410E+03-1.04650E+02 3.42049E-09 8.10989E-08
 -1        24-1.07943E+03-3.96795E+03-1.52877E+03-1.34736E+02-2.75450E-08 8.21789E-08
 -1        25-9.56318E+02-3.44295E+03-1.33035E+03-1.03810E+02-5.05943E-08 2.28296E-10
 -1        26-8.50243E+02-3.03136E+03-1.17258E+03-7.06792E+01-5.33231E-08-8.34538E-08
 -1        27-7.87782E+02-2.78802E+03-1.07936E+03-2.78925E+01-2.90675E-08-1.33859E-07
 -1        28-7.90115E+02-2.79705E+03-1.08290E+03 4.57442E+01 2.10674E-08-1.29138E-07
 -1        29-7.33865E+02-2.87766E+03-1.09125E+03 4.96035E+01 5.45092E-08-7.08353E-08
 -1        30-5.89038E+02-2.48273E+03-9.27979E+02-8.53174E+01 4.40858E-08 1.77914E-08
 -1        31-3.40219E+02-1.37403E+03-5.16477E+02-1.64373E+02 1.73743E-08 5.41881E-08
 -1        32 1.68053E+03 1.00402E+04 3.41781E+03 1.24538E+03 2.75025E-08 5.50022E-08
 -1        33 1.79884E+03 7.79767E+03 2.81648E+03 8.17839E+02 3.36160E-08 1.01136E-07
 -1        34 1.12936E+03 5.19528E+03 1.86753E+03 7.60372E+02 8.29658E-09 1.58644E-07
 -1        35 6.57276E+02 3.02445E+03 1.09268E+03 6.20040E+02-3.23260E-08 1.46358E-07
 -1        36 1.80963E+02 1.05294E+03 3.67155E+02 4.78446E+02-4.93341E-08 1.22444E-07
 -1        37-2.34932E+02-6.54160E+02-2.68067E+02 3.23864E+02-3.84750E-08 8.00063E-08
 -1        38-5.45390E+02-2.03866E+03-7.79423E+02 1.92938E+02-2.39149E-08 3.41597E-08
 -1        39-8.31732E+02-3.14297E+03-1.20183E+03 9.52125E+01-1.57272E-08 1.30172E-08
 -1        40-1.04346E+03-3.93358E+03-1.50768E+03 1.93513E+01-6.28487E-09 9.39457E-09
 -1        41-1.16545E+03-4.37482E+03-1.68017E+03-3.92905E+01 7.62945E-09 5.11381E-08
 -1        42-1.15155E+03-4.36823E+03-1.67410E+03-1.04650E+02 3.42050E-09 8.10984E-08
 -1        43-1.07943E+03-3.96795E+03-1.52877E+03-1.34736E+02-2.75450E-08 8.21795E-08
 -1        44-9.56318E+02-3.44295E+03-1.33035E+03-1.03810E+02-5.05943E-08 2.28843E-10
 -1        45-8.50243E+02-3.03136E+03-1.17258E+03-7.06792E+01-5.33231E-08-8.34543E-08
 -1        46-7.87782E+02-2.78802E+03-1.07936E+03-2.78925E+01-2.90675E-08-1.33859E-07
 -1        47-7.90115E+02-2.79705E+03-1.08290E+03 4.57442E+01 2.10674E-08-1.29138E-07
 -1        48-7.33865E+02-2.87766E+03-1.09125E+03 4.96035E+01 5.45092E-08-7.08344E-08
 -1        49-5.89038E+02-2.48273E+03-9.27979E+02-8.53174E+01 4.40858E-08 1.77917E-08
 -1        50-3.40219E+02-1.37403E+03-5.16477E+02-1.64373E+02 1.73743E-08 5.41863E-08
 -1        51 4.76772E+02 1.88676E+03 7.04478E+02-2.54983E+02-3.59494E-08 7.51570E-08
 -1        52 7.44319E+02 3.29299E+03 1.19926E+03-2.36411E+02-5.93534E-08 3.59380E-08
 -1        53 8.56034E+02 3.87496E+03 1.40389E+03-9.13552E+01-6.34326E-08-6.25628E-08
 -1        54 8.33148E+02 3.89479E+03 1.40320E+03-5.27924E+01-3.62991E-08-1.47339E-07
 -1        55 8.58204E+02 4.01645E+03 1.44613E+03-9.63509E+01 1.28950E-08-1.40910E-07
 -1        56 9.36576E+02 4.33963E+03 1.56377E+03-1.07654E+02 4.65118E-08-6.79062E-08
 -1        57 1.00694E+03 4.75356E+03 1.70546E+03-9.95517E+01 4.19635E-08 1.32924E-08
 -1        58 1.11392E+03 5.26654E+03 1.88630E+03-6.88872E+01 1.34013E-08 6.91104E-08
 -1        59 1.19899E+03 5.65554E+03 2.02408E+03 4.94301E+01-1.61299E-08 8.62515E-08
 -1        60 1.19773E+03 5.61330E+03 2.01158E+03 1.97041E+02-2.18345E-08 2.92849E-08
 -1        61 1.09198E+03 5.10604E+03 1.83277E+03 3.01413E+02-1.09835E-08 3.47749E-08
 -1        62 9.31210E+02 4.26413E+03 1.53938E+03 3.78622E+02 2.70064E-09 3.11154E-08
 -1        63 6.94299E+02 3.15765E+03 1.14422E+03 4.28270E+02 1.56512E-08 2.66140E-08
 -1        64 3.52497E+02 1.77688E+03 6.34005E+02 4.45500E+02 2.77789E-08 5.07913E-08
 -1        65-4.83757E+01 9.25921E+01 1.17261E+01 4.32099E+02 3.09190E-08 1.12091E-07
 -1        66-4.93160E+02-1.82976E+03-7.01196E+02 3.99810E+02 4.66822E-09 1.65908E-07
 -1        67-1.01299E+03-3.94239E+03-1.50251E+03 3.93602E+02-3.49143E-08 1.62168E-07
 -1        68-1.77648E+03-6.49564E+03-2.52438E+03 3.64729E+02-5.54683E-08 1.04329E-07
 -1        69-1.64671E+03-8.68533E+03-3.17573E+03 7.76053E+02-4.10070E-08 4.42874E-08
 -1        70 4.76772E+02 1.88676E+03 7.04478E+02-2.54983E+02-3.59494E-08 7.51524E-08
 -1        71 7.44319E+02 3.29299E+03 1.19926E+03-2.36411E+02-5.93534E-08 3.59385E-08
 -1        72 8.56034E+02 3.87496E+03 1.40389E+03-9.13552E+01-6.34326E-08-6.25624E-08
 -1        73 8.33148E+02 3.89479E+03 1.40320E+03-5.27924E+01-3.62991E-08-1.47339E-07
 -1        74 8.58204E+02 4.01645E+03 1.44613E+03-9.63509E+01 1.28949E-08-1.40909E-07
 -1        75 9.36576E+02 4.33963E+03 1.56377E+03-1.07654E+02 4.65118E-08-6.79061E-08
 -1        76 1.00694E+03 4.75356E+03 1.70546E+03-9.95517E+01 4.19635E-08 1.32927E-08
 -1        77 1.11392E+03 5.26654E+03 1.88630E+03-6.88872E+01 1.34013E-08 6.91108E-08
 -1        78 1.19899E+03 5.65554E+03 2.02408E+03 4.94301E+01-1.61299E-08 8.62496E-08
 -1        79 1.19773E+03 5.61330E+03 2.01158E+03 1.97041E+02-2.18344E-08 2.92832E-08
 -1        80 1.09198E+03 5.10604E+03 1.83277E+03 3.01413E+02-1.09836E-08 3.47757E-08
 -1        81 9.31210E+02 4.26413E+03 1.53938E+03 3.78622E+02 2.70063E-09 3.11154E-08
 -1        82 6.94299E+02 3.15765E+03 1.14422E+03 4.28270E+02 1.56512E-08 2.66136E-08
 -1        83 3.52497E+02 1.77688E+03 6.34005E+02 4.45500E+02 2.77791E-08 5.07911E-08
 -1        84-4.83757E+01 9.25921E+01 1.17261E+01 4.32099E+02 3.09194E-08 1.12093E-07
 -1        85-4.93160E+02-1.82976E+03-7.01196E+02 3.99810E+02 4.66821E-09 1.65907E-07
 -1        86-1.01299E+03-3.94239E+03-1.50251E+03 3.93602E+02-3.49145E-08 1.62168E-07
 -1        87-1.77648E+03-6.49564E+03-2.52438E+03 3.64729E+02-5.54683E-08 1.04329E-07
 -1        88-1.64671E+03-8.68533E+03-3.17573E+03 7.76053E+02-4.10070E-08 4.42875E-08
 -1        89 4.92789E+01 3.68577E+02 1.30073E+02 7.77749E+02-5.11669E-09 4.24577E-08
 -1        90 7.14597E+01 5.05470E+02 1.78736E+02 8.39267E+02-8.55259E-09 1.02942E-07
 -1        91 8.61770E+01 5.47065E+02 1.90974E+02 7.14245E+02-1.34177E-08 1.66129E-07
 -1        92 1.03482E+02 5.60057E+02 1.98280E+02 6.47998E+02-1.76142E-08 1.70818E-07
 -1        93 8.62783E+01 5.61362E+02 1.92960E+02 5.77266E+02-1.66342E-08 1.13448E-07
 -1        94 7.40628E+01 5.44368E+02 1.84528E+02 4.87311E+02-5.15124E-09 5.87026E-08
 -1        95 8.21043E+01 5.14934E+02 1.79029E+02 3.92269E+02 3.35797E-09 3.10453E-08
 -1        96 5.95412E+01 5.03631E+02 1.69856E+02 2.99053E+02 8.40186E-10 2.07090E-08
 -1        97 3.90813E+01 5.23874E+02 1.70699E+02 2.00606E+02-1.42914E-08 2.40463E-08
 -1        98 2.95556E+01 5.44007E+02 1.74405E+02 9.31191E+01-1.16640E-08 3.87652E-08
 -1        99 3.43174E+01 5.66157E+02 1.82296E+02-4.36839E+01-8.02246E-09 8.96049E-08
 -1       100 2.82635E+01 5.89346E+02 1.87456E+02-1.37536E+02-4.58210E-09 8.07697E-08
 -1       101 3.43834E+01 6.07730E+02 1.94430E+02-1.36016E+02 9.65080E-10 9.74497E-09
 -1       102 4.87177E+01 6.10521E+02 1.99085E+02-1.13060E+02-1.06895E-08-7.47440E-08
 -1       103 4.61213E+01 5.91551E+02 1.92544E+02-7.25242E+01-1.67550E-08-1.48749E-07
 -1       104 3.67181E+01 5.39309E+02 1.74113E+02 4.13639E-01-8.15206E-09-1.47023E-07
 -1       105 6.88415E+01 4.67719E+02 1.61769E+02-2.82118E+01 3.46477E-09-6.42984E-08
 -1       106 8.45011E+01 3.69515E+02 1.36222E+02-2.22717E+02 7.51768E-11 3.11261E-08
 -1       107 9.38473E+01 2.79529E+02 1.12253E+02-2.93877E+02-9.39445E-09 6.58244E-08
 -1       108 9.38473E+01 2.79529E+02 1.12253E+02-2.93877E+02-9.39440E-09 6.58244E-08
 -1       109 8.45011E+01 3.69515E+02 1.36222E+02-2.22717E+02 7.51423E-11 3.11259E-08
 -1       110 6.88415E+01 4.67719E+02 1.61769E+02-2.82118E+01 3.46479E-09-6.42986E-08
 -1       111 3.67181E+01 5.39309E+02 1.74113E+02 4.13639E-01-8.15208E-09-1.47022E-07
 -1       112 4.61213E+01 5.91551E+02 1.92544E+02-7.25243E+01-1.67550E-08-1.48750E-07
 -1       113 4.87177E+01 6.10521E+02 1.99085E+02-1.13060E+02-1.06895E-08-7.47441E-08
 -1       114 3.43834E+01 6.07730E+02 1.94430E+02-1.36016E+02 9.65083E-10 9.74431E-09
 -1       115 2.82635E+01 5.89346E+02 1.87456E+02-1.37536E+02-4.58210E-09 8.07687E-08
 -1       116 3.43174E+01 5.66157E+02 1.82296E+02-4.36839E+01-8.02246E-09 8.96063E-08
 -1       117 2.95556E+01 5.44007E+02 1.74405E+02 9.31191E+01-1.16640E-08 3.87653E-08
 -1       118 3.90813E+01 5.23874E+02 1.70699E+02 2.00606E+02-1.42914E-08 2.40466E-08
 -1       119 5.95412E+01 5.03631E+02 1.69856E+02 2.99053E+02 8.40195E-10 2.07091E-08
 -1       120 8.21043E+01 5.14934E+02 1.79029E+02 3.92269E+02 3.35792E-09 3.10457E-08
 -1       121 7.40628E+01 5.44368E+02 1.84528E+02 4.87311E+02-5.15123E-09 5.87026E-08
 -1       122 8.62783E+01 5.61362E+02 1.92960E+02 5.77266E+02-1.66343E-08 1.13447E-07
 -1       123 1.03482E+02 5.60057E+02 1.98280E+02 6.47998E+02-1.76141E-08 1.70818E-07
 -1       124 8.61770E+01 5.47065E+02 1.90974E+02 7.14245E+02-1.34177E-08 1.66130E-07
 -1       125 7.14597E+01 5.05470E+02 1.78736E+02 8.39267E+02-8.55260E-09 1.02942E-07
 -1       126 4.92789E+01 3.68577E+02 1.30073E+02 7.77749E+02-5.11669E-09 4.24577E-08
 -3
    1PSTEP                        75          19           1          
  100CL  119 1.90000E-01         126                     1   19           1
 -4  TOSTRAIN    6    1
 -5  EXX         1    4    1    1
 -5  EYY         1    4    2    2
 -5  EZZ         1    4    3    3
 -5  EXY         1    4    1    2
 -5  EYZ         1    4    2    3
 -5  EZX         1    4    3    1
 -1         1-4.29307E-05 2.31185E-02-1.23258E-26 1.09082E-02-4.52726E-19 4.87452E-16
 -1         2-4.29307E-05 2.31185E-02-1.23258E-26 1.09082E-02-4.52726E-19 4.87452E-16
 -1         3 2.01970E-04-1.30047E-03 1.25854E-25-4.52518E-04 3.06609E-14 2.52619E-13
 -1         4 2.01970E-04-1.30047E-03 1.25854E-25-4.52518E-04 3.06609E-14 2.52619E-13
 -1         5-2.20733E-04 2.05496E-03 1.09012E-25-5.61965E-04-8.49757E-14 2.18948E-13
 -1         6-2.20733E-04 2.05496E-03 1.09008E-25-5.61965E-04-8.49755E-14 2.18942E-13
 -1         7-4.17984E-05-2.07347E-02-1.26335E-26 1.01021E-02 1.11030E-18-6.22103E-16
 -1         8-4.17984E-05-2.07347E-02-1.26335E-26 1.01021E-02 1.11009E-18-6.22115E-16
 -1         9-9.38141E-06 5.19572E-04 1.18041E-25-7.32296E-04-4.20717E-14 2.40760E-13
 -1        10-9.38141E-06 5.19572E-04 1.18042E-25-7.32296E-04-4.20718E-14 2.40760E-13
 -1        11-4.23645E-05 8.70695E-04-5.71233E-27 7.83526E-03 3.25261E-19-4.57947E-17
 -1        12-4.23645E-05 8.70695E-04-5.71232E-27 7.83526E-03 3.25652E-19-4.57711E-17
 -1        13-5.92154E-03 2.08858E-02 6.40663E-26 3.28675E-03 9.07559E-14 1.75798E-13
 -1        14-3.55297E-03 1.58774E-02 2.20843E-25 1.81418E-03 1.19585E-13 3.22794E-13
 -1        15-2.64946E-03 1.07971E-02 5.22356E-25 1.74083E-03 5.23807E-14 5.12556E-13
 -1        16-1.63791E-03 6.39462E-03 4.69562E-25 1.53236E-03-7.67134E-14 4.80762E-13
 -1        17-7.90927E-04 2.38721E-03 3.61039E-25 1.36209E-03-1.35456E-13 4.07303E-13
 -1        18-3.02667E-05-1.12894E-03 1.54429E-25 1.12735E-03-1.09453E-13 2.67415E-13
 -1        19 6.64731E-04-4.03409E-03 2.95314E-26 9.00484E-04-7.17945E-14 1.15404E-13
 -1        20 1.13616E-03-6.32563E-03 6.93737E-27 6.86131E-04-4.93534E-14 4.49161E-14
 -1        21 1.46393E-03-7.96837E-03-1.38466E-27 4.52154E-04-1.93375E-14 3.14498E-14
 -1        22 1.64164E-03-8.88655E-03 5.00600E-26 1.97495E-04 3.03213E-14 1.65625E-13
 -1        23 1.67722E-03-8.89631E-03 1.35637E-25-1.28775E-04 1.66880E-14 2.63801E-13
 -1        24 1.44608E-03-8.04128E-03 1.43255E-25-3.45615E-04-8.77588E-14 2.68412E-13
 -1        25 1.20091E-03-6.94389E-03 2.09734E-26-3.29774E-04-1.66096E-13 9.17823E-16
 -1        26 1.03102E-03-6.09561E-03 1.84793E-25-2.78081E-04-1.73112E-13-2.72779E-13
 -1        27 9.34221E-04-5.59757E-03 3.86526E-25-1.80333E-04-8.93612E-14-4.36921E-13
 -1        28 9.45519E-04-5.62383E-03 3.46096E-25 1.69242E-05 7.74942E-14-4.18834E-13
 -1        29 1.15039E-03-5.86468E-03 1.39179E-25-2.83682E-05 1.84842E-13-2.25574E-13
 -1        30 1.05957E-03-5.06986E-03 2.35646E-26-4.88381E-04 1.42247E-13 6.28622E-14
 -1        31 5.22700E-04-2.75598E-03 6.10883E-26-6.66427E-04 4.97577E-14 1.78349E-13
 -1        32-5.92154E-03 2.08858E-02 6.40663E-26 3.28675E-03 9.07559E-14 1.75798E-13
 -1        33-3.55297E-03 1.58774E-02 2.20843E-25 1.81418E-03 1.19585E-13 3.22794E-13
 -1        34-2.64946E-03 1.07971E-02 5.22355E-25 1.74083E-03 5.23807E-14 5.12555E-13
 -1        35-1.63791E-03 6.39462E-03 4.69562E-25 1.53236E-03-7.67134E-14 4.80762E-13
 -1        36-7.90927E-04 2.38721E-03 3.61040E-25 1.36209E-03-1.35456E-13 4.07304E-13
 -1        37-3.02667E-05-1.12894E-03 1.54427E-25 1.12735E-03-1.09453E-13 2.67412E-13
 -1        38 6.64731E-04-4.03409E-03 2.95349E-26 9.00484E-04-7.17939E-14 1.15411E-13
 -1        39 1.13616E-03-6.32563E-03 6.93733E-27 6.86131E-04-4.93535E-14 4.49160E-14
 -1        40 1.46393E-03-7.96837E-03-1.38515E-27 4.52154E-04-1.93375E-14 3.14483E-14
 -1        41 1.64164E-03-8.88655E-03 5.00601E-26 1.97495E-04 3.03213E-14 1.65626E-13
 -1        42 1.67722E-03-8.89631E-03 1.35635E-25-1.28775E-04 1.66880E-14 2.63800E-13
 -1        43 1.44608E-03-8.04128E-03 1.43257E-25-3.45615E-04-8.77588E-14 2.68414E-13
 -1        44 1.20091E-03-6.94389E-03 2.09728E-26-3.29774E-04-1.66096E-13 9.19603E-16
 -1        45 1.03102E-03-6.09561E-03 1.84794E-25-2.78081E-04-1.73112E-13-2.72781E-13
 -1        46 9.34221E-04-5.59757E-03 3.86522E-25-1.80333E-04-8.93613E-14-4.36920E-13
 -1        47 9.45519E-04-5.62383E-03 3.46100E-25 1.69242E-05 7.74943E-14-4.18836E-13
 -1        48 1.15039E-03-5.86468E-03 1.39177E-25-2.83682E-05 1.84842E-13-2.25571E-13
 -1        49 1.05957E-03-5.06986E-03 2.35662E-26-4.88381E-04 1.42247E-13 6.28633E-14
 -1        50 5.22700E-04-2.75598E-03 6.10848E-26-6.66427E-04 4.97579E-14 1.78343E-13
 -1        51-8.00597E-04 3.86360E-03 1.39556E-25-6.44159E-04-1.25541E-13 2.39226E-13
 -1        52-1.53774E-03 6.75661E-03 6.67861E-26-4.82681E-04-1.94965E-13 1.09920E-13
 -1        53-1.80589E-03 7.91848E-03 1.19261E-25-3.21742E-05-1.98494E-13-2.08521E-13
 -1        54-1.86627E-03 7.97613E-03 4.67059E-25 2.72050E-05-1.07210E-13-4.80504E-13
 -1        55-1.92902E-03 8.22696E-03 4.05976E-25-1.72561E-04 4.74983E-14-4.56733E-13
 -1        56-2.05814E-03 8.87109E-03 1.07387E-25-2.74784E-04 1.50738E-13-2.19340E-13
 -1        57-2.28763E-03 9.72115E-03 1.54646E-26-3.34917E-04 1.34631E-13 4.30062E-14
 -1        58-2.53009E-03 1.07563E-02 9.48173E-26-3.55529E-04 4.51765E-14 2.23755E-13
 -1        59-2.71740E-03 1.15478E-02 1.54976E-25-1.31276E-04-4.59358E-14 2.80780E-13
 -1        60-2.70408E-03 1.14796E-02 2.12537E-26 1.92479E-04-6.68861E-14 9.71376E-14
 -1        61-2.49321E-03 1.04844E-02 2.71889E-26 4.36048E-04-3.06051E-14 1.14243E-13
 -1        62-2.09201E-03 8.79829E-03 1.96386E-26 6.78554E-04 1.36155E-14 1.00436E-13
 -1        63-1.60564E-03 6.58489E-03 1.79369E-26 9.22850E-04 5.51547E-14 8.33359E-14
 -1        64-1.07971E-03 3.83541E-03 5.85537E-26 1.15066E-03 9.95120E-14 1.59097E-13
 -1        65-3.71367E-04 4.24860E-04 2.64320E-25 1.36464E-03 1.22366E-13 3.57323E-13
 -1        66 4.97423E-04-3.52735E-03 5.71512E-25 1.55417E-03 4.65282E-14 5.37826E-13
 -1        67 1.40633E-03-7.88505E-03 5.72774E-25 1.78926E-03-8.75487E-14 5.33380E-13
 -1        68 2.25389E-03-1.31017E-02 2.78863E-25 1.83973E-03-1.69959E-13 3.47486E-13
 -1        69 4.75003E-03-1.83827E-02 6.28038E-26 3.14878E-03-1.33545E-13 1.47886E-13
 -1        70-8.00597E-04 3.86360E-03 1.39542E-25-6.44159E-04-1.25541E-13 2.39211E-13
 -1        71-1.53774E-03 6.75661E-03 6.67877E-26-4.82681E-04-1.94965E-13 1.09922E-13
 -1        72-1.80589E-03 7.91848E-03 1.19260E-25-3.21742E-05-1.98494E-13-2.08520E-13
 -1        73-1.86627E-03 7.97613E-03 4.67060E-25 2.72050E-05-1.07210E-13-4.80505E-13
 -1        74-1.92902E-03 8.22696E-03 4.05973E-25-1.72561E-04 4.74981E-14-4.56732E-13
 -1        75-2.05814E-03 8.87109E-03 1.07386E-25-2.74784E-04 1.50738E-13-2.19339E-13
 -1        76-2.28763E-03 9.72115E-03 1.54649E-26-3.34917E-04 1.34631E-13 4.30073E-14
 -1        77-2.53009E-03 1.07563E-02 9.48189E-26-3.55529E-04 4.51766E-14 2.23756E-13
 -1        78-2.71740E-03 1.15478E-02 1.54969E-25-1.31276E-04-4.59359E-14 2.80774E-13
 -1        79-2.70408E-03 1.14796E-02 2.12514E-26 1.92479E-04-6.68859E-14 9.71320E-14
 -1        80-2.49321E-03 1.04844E-02 2.71898E-26 4.36048E-04-3.06051E-14 1.14246E-13
 -1        81-2.09201E-03 8.79829E-03 1.96386E-26 6.78554E-04 1.36154E-14 1.00436E-13
 -1        82-1.60564E-03 6.58489E-03 1.79362E-26 9.22850E-04 5.51548E-14 8.33344E-14
 -1        83-1.07971E-03 3.83541E-03 5.85525E-26 1.15066E-03 9.95124E-14 1.59096E-13
 -1        84-3.71367E-04 4.24860E-04 2.64330E-25 1.36464E-03 1.22368E-13 3.57329E-13
 -1        85 4.97423E-04-3.52735E-03 5.71511E-25 1.55417E-03 4.65281E-14 5.37825E-13
 -1        86 1.40633E-03-7.88505E-03 5.72774E-25 1.78926E-03-8.75494E-14 5.33380E-13
 -1        87 2.25389E-03-1.31017E-02 2.78863E-25 1.83973E-03-1.69959E-13 3.47486E-13
 -1        88 4.75003E-03-1.83827E-02 6.28039E-26 3.14878E-03-1.33545E-13 1.47886E-13
 -1        89-5.85754E-04 1.11035E-03 2.50001E-26 2.49358E-03-1.35682E-14 1.38420E-13
 -1        90-6.49538E-04 1.39627E-03 2.05558E-25 2.65324E-03-1.45802E-14 3.35528E-13
 -1        91-6.21563E-04 1.43839E-03 5.79867E-25 2.22396E-03-1.61104E-14 5.41600E-13
 -1        92-5.70245E-04 1.42638E-03 6.16912E-25 1.99782E-03-2.50114E-14 5.57698E-13
 -1        93-5.81147E-04 1.41718E-03 2.61523E-25 1.76147E-03-3.15055E-14 3.71476E-13
 -1        94-5.54987E-04 1.35401E-03 6.18803E-26 1.47526E-03-5.26609E-15 1.91474E-13
 -1        95-4.70456E-04 1.24314E-03 1.74749E-26 1.18405E-03 1.65343E-14 1.00093E-13
 -1        96-4.77924E-04 1.20741E-03 7.83928E-27 8.93132E-04 6.08237E-15 6.71020E-14
 -1        97-5.14640E-04 1.24456E-03 1.53366E-26 5.83763E-04-4.31227E-14 8.00665E-14
 -1        98-5.31224E-04 1.27502E-03 2.87274E-26 2.49700E-04-3.38922E-14 1.27098E-13
 -1        99-5.20090E-04 1.29811E-03 1.66352E-25-1.76224E-04-2.00657E-14 2.91713E-13
 -1       100-5.42005E-04 1.34418E-03 1.28102E-25-4.63852E-04-1.21804E-14 2.62643E-13
 -1       101-5.43357E-04 1.37805E-03-2.72854E-26-4.43177E-04 3.14435E-15 3.16863E-14
 -1       102-5.13562E-04 1.37006E-03 8.93254E-26-3.54589E-04-3.31786E-14-2.43154E-13
 -1       103-4.97399E-04 1.32656E-03 4.62855E-25-2.11197E-04-4.79183E-14-4.84179E-13
 -1       104-4.60376E-04 1.20973E-03 4.43751E-25 3.37060E-05-1.68675E-14-4.78309E-13
 -1       105-3.27752E-04 1.02353E-03 4.72205E-26-5.69917E-05 1.68718E-14-2.08571E-13
 -1       106-2.39085E-04 8.25410E-04-7.49905E-27-6.89678E-04-3.20141E-15 1.01110E-13
 -1       107-1.38948E-04 6.23743E-04 8.83024E-26-9.27166E-04-3.87946E-14 2.12498E-13
 -1       108-1.38948E-04 6.23743E-04 8.83025E-26-9.27166E-04-3.87944E-14 2.12498E-13
 -1       109-2.39085E-04 8.25410E-04-7.49947E-27-6.89678E-04-3.20150E-15 1.01109E-13
 -1       110-3.27752E-04 1.02353E-03 4.72208E-26-5.69917E-05 1.68719E-14-2.08571E-13
 -1       111-4.60376E-04 1.20973E-03 4.43742E-25 3.37060E-05-1.68677E-14-4.78305E-13
 -1       112-4.97399E-04 1.32656E-03 4.62862E-25-2.11197E-04-4.79182E-14-4.84183E-13
 -1       113-5.13562E-04 1.37006E-03 8.93257E-26-3.54589E-04-3.31786E-14-2.43154E-13
 -1       114-5.43357E-04 1.37805E-03-2.72859E-26-4.43177E-04 3.14436E-15 3.16842E-14
 -1       115-5.42005E-04 1.34418E-03 1.28098E-25-4.63852E-04-1.21805E-14 2.62640E-13
 -1       116-5.20090E-04 1.29811E-03 1.66357E-25-1.76224E-04-2.00656E-14 2.91718E-13
 -1       117-5.31224E-04 1.27502E-03 2.87274E-26 2.49700E-04-3.38922E-14 1.27098E-13
 -1       118-5.14640E-04 1.24456E-03 1.53369E-26 5.83763E-04-4.31226E-14 8.00675E-14
 -1       119-4.77924E-04 1.20741E-03 7.83941E-27 8.93132E-04 6.08242E-15 6.71024E-14
 -1       120-4.70456E-04 1.24314E-03 1.74755E-26 1.18405E-03 1.65342E-14 1.00094E-13
 -1       121-5.54987E-04 1.35401E-03 6.18806E-26 1.47526E-03-5.26607E-15 1.91474E-13
 -1       122-5.81147E-04 1.41718E-03 2.61518E-25 1.76147E-03-3.15061E-14 3.71473E-13
 -1       123-5.70245E-04 1.42638E-03 6.16912E-25 1.99782E-03-2.50112E-14 5.57698E-13
 -1       124-6.21563E-04 1.43839E-03 5.79868E-25 2.22396E-03-1.61103E-14 5.41600E-13
 -1       125-6.49538E-04 1.39627E-03 2.05558E-25 2.65324E-03-1.45802E-14 3.35528E-13
 -1       126-5.85754E-04 1.11035E-03 2.50000E-26 2.49358E-03-1.35682E-14 1.38419E-13
 -3
    1PSTEP                        76          19           1          
  100CL  119 1.90000E-01         126                     1   19           1
 -4  ERROR       1    1
 -5  STR(%)      1    1    0    0
 -1         1 6.15090E+01
 -1         2 6.15090E+01
 -1         3 7.30210E+01
 -1         4 7.30210E+01
 -1         5 2.78494E+01
 -1         6 2.78494E+01
 -1         7 6.64113E+01
 -1         8 6.64113E+01
 -1         9 7.30210E+01
 -1        10 7.30210E+01
 -1        11 6.64113E+01
 -1        12 6.64113E+01
 -1        13 6.15090E+01
 -1        14 5.60365E+01
 -1        15 5.29656E+01
 -1        16 4.60043E+01
 -1        17 3.27990E+01
 -1        18 6.98629E+01
 -1        19 7.86490E+01
 -1        20 7.86490E+01
 -1        21 7.52572E+01
 -1        22 7.19617E+01
 -1        23 7.22886E+01
 -1        24 7.56728E+01
 -1        25 7.73144E+01
 -1        26 7.90712E+01
 -1        27 7.90712E+01
 -1        28 7.66989E+01
 -1        29 7.46344E+01
 -1        30 7.24842E+01
 -1        31 7.30210E+01
 -1        32 6.15090E+01
 -1        33 5.60365E+01
 -1        34 5.29656E+01
 -1        35 4.60043E+01
 -1        36 3.27990E+01
 -1        37 6.98629E+01
 -1        38 7.86490E+01
 -1        39 7.86490E+01
 -1        40 7.52572E+01
 -1        41 7.19617E+01
 -1        42 7.22886E+01
 -1        43 7.56728E+01
 -1        44 7.73144E+01
 -1        45 7.90712E+01
 -1        46 7.90712E+01
 -1        47 7.66989E+01
 -1        48 7.46344E+01
 -1        49 7.24842E+01
 -1        50 7.30210E+01
 -1        51 4.82077E+01
 -1        52 5.09518E+01
 -1        53 5.09518E+01
 -1        54 4.99207E+01
 -1        55 4.87199E+01
 -1        56 4.94072E+01
 -1        57 5.09860E+01
 -1        58 5.21770E+01
 -1        59 5.21770E+01
 -1        60 5.23859E+01
 -1        61 5.23859E+01
 -1        62 5.19572E+01
 -1        63 4.96935E+01
 -1        64 4.06044E+01
 -1        65 6.92418E+01
 -1        66 6.92418E+01
 -1        67 7.02940E+01
 -1        68 7.02940E+01
 -1        69 6.74794E+01
 -1        70 4.82077E+01
 -1        71 5.09518E+01
 -1        72 5.09518E+01
 -1        73 4.99207E+01
 -1        74 4.87199E+01
 -1        75 4.94072E+01
 -1        76 5.09860E+01
 -1        77 5.21770E+01
 -1        78 5.21770E+01
 -1        79 5.23859E+01
 -1        80 5.23859E+01
 -1        81 5.19572E+01
 -1        82 4.96935E+01
 -1        83 4.06044E+01
 -1        84 6.92418E+01
 -1        85 6.92418E+01
 -1        86 7.02940E+01
 -1        87 7.02940E+01
 -1        88 6.74794E+01
 -1        89 6.74794E+01
 -1        90 7.02940E+01
 -1        91 7.02940E+01
 -1        92 6.92418E+01
 -1        93 6.92418E+01
 -1        94 6.98629E+01
 -1        95 7.86490E+01
 -1        96 7.86490E+01
 -1        97 7.52572E+01
 -1        98 7.19617E+01
 -1        99 7.22886E+01
 -1       100 7.56728E+01
 -1       101 7.73144E+01
 -1       102 7.90712E+01
 -1       103 7.90712E+01
 -1       104 7.66989E+01
 -1       105 7.46344E+01
 -1       106 7.24842E+01
 -1       107 7.30210E+01
 -1       108 7.30210E+01
 -1       109 7.24842E+01
 -1       110 7.46344E+01
 -1       111 7.66989E+01
 -1       112 7.90712E+01
 -1       113 7.90712E+01
 -1       114 7.73144E+01
 -1       115 7.56728E+01
 -1       116 7.22886E+01
 -1       117 7.19617E+01
 -1       118 7.52572E+01
 -1       119 7.86490E+01
 -1       120 7.86490E+01
 -1       121 6.98629E+01
 -1       122 6.92418E+01
 -1       123 6.92418E+01
 -1       124 7.02940E+01
 -1       125 7.02940E+01
 -1       126 6.74794E+01
 -3
    1PSTEP                        77          20           1          
  100CL  120 2.00000E-01         126                     1   20           1
 -4  DISP        4    1
 -5  D1          1    2    1    0
 -5  D2          1    2    2    0
 -5  D3          1    2    3    0
 -5  ALL         1    2    0    0    1ALL
 -1         1 0.00000E+00 0.00000E+00 0.00000E+00
 -1         2 0.00000E+00 0.00000E+00 0.00000E+00
 -1         3 2.01709E-02-2.02006E-03 0.00000E+00
 -1         4 2.01709E-02-2.02006E-03 0.00000E+00
 -1         5 2.00708E-02 2.30557E-03 0.00000E+00
 -1         6 2.00708E-02 2.30557E-03 0.00000E+00
 -1         7 0.00000E+00 0.00000E+00 0.00000E+00
 -1         8 0.00000E+00 0.00000E+00 0.00000E+00
 -1         9 2.01236E-02 1.53022E-04 0.00000E+00
 -1        10 2.01236E-02 1.53022E-04 0.00000E+00
 -1        11 0.00000E+00 0.00000E+00 0.00000E+00
 -1        12 0.00000E+00 0.00000E+00 0.00000E+00
 -1        13 1.13069E-03 1.17542E-03 0.00000E+00
 -1        14 3.02563E-03 2.10141E-03 0.00000E+00
 -1        15 5.67724E-03 2.71107E-03 0.00000E+00
 -1        16 8.77660E-03 3.05917E-03 0.00000E+00
 -1        17 1.21039E-02 3.18014E-03 0.00000E+00
 -1        18 1.54736E-02 3.10850E-03 0.00000E+00
 -1        19 1.86877E-02 2.87796E-03 0.00000E+00
 -1        20 2.16024E-02 2.52692E-03 0.00000E+00
 -1        21 2.41096E-02 2.09010E-03 0.00000E+00
 -1        22 2.61108E-02 1.60999E-03 0.00000E+00
 -1        23 2.75663E-02 1.13432E-03 0.00000E+00
 -1        24 2.85104E-02 6.92327E-04 0.00000E+00
 -1        25 2.89852E-02 2.94653E-04 0.00000E+00
 -1        26 2.90624E-02-8.18370E-05 0.00000E+00
 -1        27 2.87294E-02-4.92494E-04 0.00000E+00
 -1        28 2.78787E-02-9.51640E-04 0.00000E+00
 -1        29 2.64565E-02-1.39631E-03 0.00000E+00
 -1        30 2.45570E-02-1.74136E-03 0.00000E+00
 -1        31 2.23825E-02-1.93971E-03 0.00000E+00
 -1        32 1.13069E-03 1.17542E-03 0.00000E+00
 -1        33 3.02563E-03 2.10141E-03 0.00000E+00
 -1        34 5.67724E-03 2.71107E-03 0.00000E+00
 -1        35 8.77660E-03 3.05917E-03 0.00000E+00
 -1        36 1.21039E-02 3.18014E-03 0.00000E+00
 -1        37 1.54736E-02 3.10850E-03 0.00000E+00
 -1        38 1.86877E-02 2.87796E-03 0.00000E+00
 -1        39 2.16024E-02 2.52692E-03 0.00000E+00
 -1        40 2.41096E-02 2.09010E-03 0.00000E+00
 -1        41 2.61108E-02 1.60999E-03 0.00000E+00
 -1        42 2.75663E-02 1.13432E-03 0.00000E+00
 -1        43 2.85104E-02 6.92327E-04 0.00000E+00
 -1        44 2.89852E-02 2.94653E-04 0.00000E+00
 -1        45 2.90624E-02-8.18370E-05 0.00000E+00
 -1        46 2.87294E-02-4.92494E-04 0.00000E+00
 -1        47 2.78787E-02-9.51640E-04 0.00000E+00
 -1        48 2.64565E-02-1.39631E-03 0.00000E+00
 -1        49 2.45570E-02-1.74136E-03 0.00000E+00
 -1        50 2.23825E-02-1.93971E-03 0.00000E+00
 -1        51 2.22778E-02 2.29079E-03 0.00000E+00
 -1        52 2.44533E-02 2.13040E-03 0.00000E+00
 -1        53 2.63700E-02 1.77991E-03 0.00000E+00
 -1        54 2.78136E-02 1.27876E-03 0.00000E+00
 -1        55 2.86726E-02 7.27559E-04 0.00000E+00
 -1        56 2.90138E-02 2.07033E-04 0.00000E+00
 -1        57 2.89388E-02-2.83369E-04 0.00000E+00
 -1        58 2.84552E-02-7.87609E-04 0.00000E+00
 -1        59 2.74900E-02-1.31900E-03 0.00000E+00
 -1        60 2.60057E-02-1.85610E-03 0.00000E+00
 -1        61 2.39654E-02-2.35982E-03 0.00000E+00
 -1        62 2.14134E-02-2.78129E-03 0.00000E+00
 -1        63 1.84549E-02-3.08308E-03 0.00000E+00
 -1        64 1.52165E-02-3.23587E-03 0.00000E+00
 -1        65 1.18443E-02-3.21572E-03 0.00000E+00
 -1        66 8.53204E-03-3.01592E-03 0.00000E+00
 -1        67 5.47504E-03-2.62031E-03 0.00000E+00
 -1        68 2.88177E-03-2.00241E-03 0.00000E+00
 -1        69 1.04240E-03-1.10959E-03 0.00000E+00
 -1        70 2.22778E-02 2.29079E-03 0.00000E+00
 -1        71 2.44533E-02 2.13040E-03 0.00000E+00
 -1        72 2.63700E-02 1.77991E-03 0.00000E+00
 -1        73 2.78136E-02 1.27876E-03 0.00000E+00
 -1        74 2.86726E-02 7.27559E-04 0.00000E+00
 -1        75 2.90138E-02 2.07033E-04 0.00000E+00
 -1        76 2.89388E-02-2.83369E-04 0.00000E+00
 -1        77 2.84552E-02-7.87609E-04 0.00000E+00
 -1        78 2.74900E-02-1.31900E-03 0.00000E+00
 -1        79 2.60057E-02-1.85610E-03 0.00000E+00
 -1        80 2.39654E-02-2.35982E-03 0.00000E+00
 -1        81 2.14134E-02-2.78129E-03 0.00000E+00
 -1        82 1.84549E-02-3.08308E-03 0.00000E+00
 -1        83 1.52165E-02-3.23587E-03 0.00000E+00
 -1        84 1.18443E-02-3.21572E-03 0.00000E+00
 -1        85 8.53204E-03-3.01592E-03 0.00000E+00
 -1        86 5.47504E-03-2.62031E-03 0.00000E+00
 -1        87 2.88177E-03-2.00241E-03 0.00000E+00
 -1        88 1.04240E-03-1.10959E-03 0.00000E+00
 -1        89 7.99763E-04 3.65220E-05 0.00000E+00
 -1        90 2.79229E-03 5.98867E-05 0.00000E+00
 -1        91 5.46289E-03 5.41038E-05 0.00000E+00
 -1        92 8.59233E-03 2.69999E-05 0.00000E+00
 -1        93 1.19536E-02-1.61251E-05 0.00000E+00
 -1        94 1.53592E-02-6.49707E-05 0.00000E+00
 -1        95 1.86216E-02-1.04637E-04 0.00000E+00
 -1        96 2.15839E-02-1.30193E-04 0.00000E+00
 -1        97 2.41313E-02-1.39133E-04 0.00000E+00
 -1        98 2.61571E-02-1.26837E-04 0.00000E+00
 -1        99 2.76293E-02-9.44953E-05 0.00000E+00
 -1       100 2.85775E-02-4.87194E-05 0.00000E+00
 -1       101 2.90494E-02 4.11920E-06 0.00000E+00
 -1       102 2.91244E-02 6.16350E-05 0.00000E+00
 -1       103 2.88008E-02 1.19766E-04 0.00000E+00
 -1       104 2.79490E-02 1.67163E-04 0.00000E+00
 -1       105 2.64987E-02 1.94080E-04 0.00000E+00
 -1       106 2.45552E-02 1.97257E-04 0.00000E+00
 -1       107 2.23480E-02 1.79809E-04 0.00000E+00
 -1       108 2.23480E-02 1.79809E-04 0.00000E+00
 -1       109 2.45552E-02 1.97257E-04 0.00000E+00
 -1       110 2.64987E-02 1.94080E-04 0.00000E+00
 -1       111 2.79490E-02 1.67163E-04 0.00000E+00
 -1       112 2.88008E-02 1.19766E-04 0.00000E+00
 -1       113 2.91244E-02 6.16350E-05 0.00000E+00
 -1       114 2.90494E-02 4.11920E-06 0.00000E+00
 -1       115 2.85775E-02-4.87194E-05 0.00000E+00
 -1       116 2.76293E-02-9.44953E-05 0.00000E+00
 -1       117 2.61571E-02-1.26837E-04 0.00000E+00
 -1       118 2.41313E-02-1.39133E-04 0.00000E+00
 -1       119 2.15839E-02-1.30193E-04 0.00000E+00
 -1       120 1.86216E-02-1.04637E-04 0.00000E+00
 -1       121 1.53592E-02-6.49707E-05 0.00000E+00
 -1       122 1.19536E-02-1.61251E-05 0.00000E+00
 -1       123 8.59233E-03 2.69999E-05 0.00000E+00
 -1       124 5.46289E-03 5.41038E-05 0.00000E+00
 -1       125 2.79229E-03 5.98867E-05 0.00000E+00
 -1       126 7.99763E-04 3.65220E-05 0.00000E+00
 -3
    1PSTEP                        78          20           1          
  100CL  120 2.00000E-01         126                     1   20           1
 -4  STRESS      6    1
 -5  SXX         1    4    1    1
 -5  SYY         1    4    2    2
 -5  SZZ         1    4    3    3
 -5  SXY         1    4    1    2
 -5  SYZ         1    4    2    3
 -5  SZX         1    4    3    1
 -1         1 5.55813E+03 1.31384E+04 5.41992E+03 3.74389E+03 2.16858E-10 2.04724E-10
 -1         2 5.55813E+03 1.31384E+04 5.41992E+03 3.74389E+03 2.16858E-10 2.04724E-10
 -1         3-1.34370E+02-3.48149E+02-1.44858E+02-1.13810E+02 9.14432E-08 1.72310E-07
 -1         4-1.34370E+02-3.48149E+02-1.44858E+02-1.13810E+02 9.14432E-08 1.72311E-07
 -1         5 2.38095E+02 6.40224E+02 2.62974E+02-1.76849E+02-1.23893E-07 2.27336E-07
 -1         6 2.38095E+02 6.40224E+02 2.62974E+02-1.76849E+02-1.23892E-07 2.27335E-07
 -1         7-5.01465E+03-1.15457E+04-5.12760E+03 2.98276E+03 2.61229E-10-1.63243E-10
 -1         8-5.01465E+03-1.15457E+04-5.12760E+03 2.98276E+03 2.61229E-10-1.63243E-10
 -1         9 8.68974E+01 2.13117E+02 8.98746E+01-1.92459E+02 3.75021E-09 1.97401E-07
 -1        10 8.68974E+01 2.13117E+02 8.98746E+01-1.92459E+02 3.75017E-09 1.97400E-07
 -1        11 2.56461E+02 3.54551E+02 1.97983E+02 2.46400E+03 2.38606E-10 5.21347E-11
 -1        12 2.56461E+02 3.54551E+02 1.97983E+02 2.46400E+03 2.38606E-10 5.21347E-11
 -1        13 1.62920E+03 1.03797E+04 3.49739E+03 1.29969E+03 1.52859E-08 5.74030E-08
 -1        14 1.79895E+03 8.08174E+03 2.89714E+03 8.68119E+02-7.86905E-09 6.22425E-08
 -1        15 1.12748E+03 5.40274E+03 1.92682E+03 8.03705E+02-3.45050E-08 4.52843E-08
 -1        16 6.38625E+02 3.17630E+03 1.13157E+03 6.44006E+02-4.50928E-08 8.64560E-09
 -1        17 1.76883E+02 1.19806E+03 4.08996E+02 5.05164E+02-1.63129E-08-4.06854E-08
 -1        18-2.93876E+02-5.64745E+02-2.58997E+02 3.56239E+02 1.62512E-08-3.28011E-08
 -1        19-6.27978E+02-2.02870E+03-8.01258E+02 2.08468E+02 1.92801E-08-5.40721E-09
 -1        20-8.95216E+02-3.19428E+03-1.23658E+03 1.02572E+02 1.28396E-08 8.12158E-09
 -1        21-1.09763E+03-4.01609E+03-1.54958E+03 1.04961E+01 6.22208E-09 4.82999E-08
 -1        22-1.23751E+03-4.41088E+03-1.71314E+03-8.08177E+01-5.36518E-09 4.67712E-08
 -1        23-1.20767E+03-4.36543E+03-1.68991E+03-1.26541E+02-1.32747E-08 3.57280E-08
 -1        24-1.13070E+03-4.08176E+03-1.57928E+03-1.17611E+02-1.76492E-08 1.79890E-08
 -1        25-1.08014E+03-3.82000E+03-1.48312E+03-5.19609E+01-3.29202E-08 1.66071E-08
 -1        26-1.14398E+03-3.90866E+03-1.52950E+03 5.13034E+01-3.86111E-08-2.81851E-08
 -1        27-1.17673E+03-4.24541E+03-1.64372E+03 8.09212E+01-2.33031E-08-4.28228E-08
 -1        28-1.12222E+03-4.29113E+03-1.64212E+03-1.76933E+01-2.19665E-09-8.54807E-08
 -1        29-9.47359E+02-3.61594E+03-1.38218E+03-1.71478E+02 3.09178E-08-8.37090E-08
 -1        30-6.50201E+02-2.31916E+03-8.96627E+02-2.67760E+02 7.01814E-08-2.09730E-08
 -1        31-2.89614E+02-9.50205E+02-3.73114E+02-2.11143E+02 9.32355E-08 9.58601E-08
 -1        32 1.62920E+03 1.03797E+04 3.49739E+03 1.29969E+03 1.52859E-08 5.74030E-08
 -1        33 1.79895E+03 8.08174E+03 2.89714E+03 8.68119E+02-7.86907E-09 6.22424E-08
 -1        34 1.12748E+03 5.40274E+03 1.92682E+03 8.03705E+02-3.45050E-08 4.52842E-08
 -1        35 6.38625E+02 3.17630E+03 1.13157E+03 6.44006E+02-4.50928E-08 8.64557E-09
 -1        36 1.76883E+02 1.19806E+03 4.08996E+02 5.05164E+02-1.63129E-08-4.06849E-08
 -1        37-2.93876E+02-5.64745E+02-2.58997E+02 3.56239E+02 1.62514E-08-3.28013E-08
 -1        38-6.27978E+02-2.02870E+03-8.01258E+02 2.08468E+02 1.92800E-08-5.40718E-09
 -1        39-8.95216E+02-3.19428E+03-1.23658E+03 1.02572E+02 1.28396E-08 8.12158E-09
 -1        40-1.09763E+03-4.01609E+03-1.54958E+03 1.04961E+01 6.22207E-09 4.83003E-08
 -1        41-1.23751E+03-4.41088E+03-1.71314E+03-8.08177E+01-5.36518E-09 4.67716E-08
 -1        42-1.20767E+03-4.36543E+03-1.68991E+03-1.26541E+02-1.32747E-08 3.57274E-08
 -1        43-1.13070E+03-4.08176E+03-1.57928E+03-1.17611E+02-1.76492E-08 1.79894E-08
 -1        44-1.08014E+03-3.82000E+03-1.48312E+03-5.19609E+01-3.29202E-08 1.66083E-08
 -1        45-1.14398E+03-3.90866E+03-1.52950E+03 5.13034E+01-3.86111E-08-2.81862E-08
 -1        46-1.17673E+03-4.24541E+03-1.64372E+03 8.09212E+01-2.33031E-08-4.28227E-08
 -1        47-1.12222E+03-4.29113E+03-1.64212E+03-1.76933E+01-2.19664E-09-8.54807E-08
 -1        48-9.47359E+02-3.61594E+03-1.38218E+03-1.71478E+02 3.09178E-08-8.37062E-08
 -1        49-6.50201E+02-2.31916E+03-8.96627E+02-2.67760E+02 7.01813E-08-2.09741E-08
 -1        50-2.89614E+02-9.50205E+02-3.73114E+02-2.11143E+02 9.32356E-08 9.58611E-08
 -1        51 3.70603E+02 1.32659E+03 5.06682E+02-2.69375E+02-1.14235E-07 8.25355E-08
 -1        52 7.06484E+02 2.90347E+03 1.07322E+03-3.94442E+02-8.84966E-08-1.05819E-08
 -1        53 1.00634E+03 4.45602E+03 1.61773E+03-3.49692E+02-4.88967E-08-8.48209E-08
 -1        54 1.18154E+03 5.32591E+03 1.92332E+03-1.71042E+02-8.91223E-09-5.22137E-08
 -1        55 1.15772E+03 5.32547E+03 1.91664E+03-1.58443E+00 5.75551E-09-4.10638E-08
 -1        56 1.14945E+03 5.01371E+03 1.82436E+03 3.30243E+01 1.37602E-08-2.57336E-08
 -1        57 1.12045E+03 4.93266E+03 1.79216E+03-1.47478E+01 2.28413E-08 1.70267E-08
 -1        58 1.16090E+03 5.17823E+03 1.87520E+03-1.59537E+01 1.62338E-08 2.94338E-08
 -1        59 1.20421E+03 5.43216E+03 1.96170E+03 5.24335E+01 7.42830E-09 4.17715E-08
 -1        60 1.25290E+03 5.46179E+03 1.98455E+03 1.76973E+02-7.03545E-09 5.67340E-08
 -1        61 1.15142E+03 5.06791E+03 1.83961E+03 3.24564E+02-2.27242E-08 3.06657E-08
 -1        62 9.80465E+02 4.26949E+03 1.55577E+03 4.14208E+02-2.41237E-08 1.70721E-08
 -1        63 7.00738E+02 3.10669E+03 1.13108E+03 4.46725E+02-1.40853E-08 4.45702E-09
 -1        64 4.11463E+02 1.65292E+03 6.14876E+02 4.56915E+02-6.50102E-09-3.64947E-08
 -1        65-6.09313E+00-6.58159E+01-2.30321E+01 4.38048E+02 7.29805E-09-5.83524E-08
 -1        66-4.99461E+02-2.00019E+03-7.54844E+02 3.87480E+02 1.75153E-08 1.03949E-08
 -1        67-1.01093E+03-4.20064E+03-1.58169E+03 3.70656E+02 1.48000E-08 7.35378E-08
 -1        68-1.78424E+03-6.88390E+03-2.64876E+03 3.54515E+02 6.84894E-09 9.26777E-08
 -1        69-1.69794E+03-9.14463E+03-3.33775E+03 7.86954E+02-5.91327E-09 6.58765E-08
 -1        70 3.70603E+02 1.32659E+03 5.06682E+02-2.69375E+02-1.14235E-07 8.25366E-08
 -1        71 7.06484E+02 2.90347E+03 1.07322E+03-3.94442E+02-8.84966E-08-1.05816E-08
 -1        72 1.00634E+03 4.45602E+03 1.61773E+03-3.49692E+02-4.88967E-08-8.48212E-08
 -1        73 1.18154E+03 5.32591E+03 1.92332E+03-1.71042E+02-8.91223E-09-5.22104E-08
 -1        74 1.15772E+03 5.32547E+03 1.91664E+03-1.58443E+00 5.75550E-09-4.10643E-08
 -1        75 1.14945E+03 5.01371E+03 1.82436E+03 3.30243E+01 1.37602E-08-2.57339E-08
 -1        76 1.12045E+03 4.93266E+03 1.79216E+03-1.47478E+01 2.28413E-08 1.70268E-08
 -1        77 1.16090E+03 5.17823E+03 1.87520E+03-1.59537E+01 1.62338E-08 2.94359E-08
 -1        78 1.20421E+03 5.43216E+03 1.96170E+03 5.24335E+01 7.42820E-09 4.17693E-08
 -1        79 1.25290E+03 5.46179E+03 1.98455E+03 1.76973E+02-7.03544E-09 5.67343E-08
 -1        80 1.15142E+03 5.06791E+03 1.83961E+03 3.24564E+02-2.27242E-08 3.06646E-08
 -1        81 9.80465E+02 4.26949E+03 1.55577E+03 4.14208E+02-2.41237E-08 1.70722E-08
 -1        82 7.00738E+02 3.10669E+03 1.13108E+03 4.46725E+02-1.40852E-08 4.45659E-09
 -1        83 4.11463E+02 1.65292E+03 6.14876E+02 4.56915E+02-6.50126E-09-3.64943E-08
 -1        84-6.09313E+00-6.58160E+01-2.30321E+01 4.38048E+02 7.29852E-09-5.83553E-08
 -1        85-4.99461E+02-2.00019E+03-7.54844E+02 3.87480E+02 1.75152E-08 1.03970E-08
 -1        86-1.01093E+03-4.20064E+03-1.58169E+03 3.70656E+02 1.47999E-08 7.35374E-08
 -1        87-1.78424E+03-6.88390E+03-2.64876E+03 3.54515E+02 6.84894E-09 9.26777E-08
 -1        88-1.69794E+03-9.14463E+03-3.33775E+03 7.86954E+02-5.91327E-09 6.58765E-08
 -1        89 8.98279E+00 3.00339E+02 9.73695E+01 7.84236E+02 8.28848E-09 6.28717E-08
 -1        90 7.20479E+01 4.34502E+02 1.58060E+02 8.69856E+02 3.08813E-09 8.65798E-08
 -1        91 8.36550E+01 4.98333E+02 1.75784E+02 7.34711E+02-1.37099E-08 6.48906E-08
 -1        92 8.79916E+01 5.36145E+02 1.86558E+02 6.55991E+02-2.05938E-08-4.25887E-10
 -1        93 9.88304E+01 5.38369E+02 1.89807E+02 5.87972E+02-5.84428E-09-5.42861E-08
 -1        94 7.67154E+01 5.29137E+02 1.80723E+02 5.14810E+02 8.58348E-09-3.60815E-08
 -1        95 5.53058E+01 5.14315E+02 1.70721E+02 4.20940E+02 4.34707E-09-2.11053E-09
 -1        96 5.39779E+01 4.81076E+02 1.61527E+02 3.22405E+02-1.07081E-08 1.50916E-08
 -1        97 3.57680E+01 4.50319E+02 1.47658E+02 1.99249E+02-7.55451E-09 3.71446E-08
 -1        98 1.94378E+01 4.50855E+02 1.43601E+02 5.63009E+01-1.60293E-09 5.49822E-08
 -1        99 9.51400E+00 4.61953E+02 1.44103E+02-4.56008E+01 3.28040E-11 3.96091E-08
 -1       100 2.02406E+01 4.74497E+02 1.50922E+02-8.91763E+01 4.53106E-10 2.95764E-08
 -1       101 2.42453E+01 4.88629E+02 1.56502E+02-4.68240E+01-7.17211E-09 1.75626E-08
 -1       102 1.53113E+01 5.02165E+02 1.58055E+02 6.13926E+01-9.74674E-09-3.11899E-08
 -1       103 5.38832E+00 4.82207E+02 1.48603E+02 6.62029E+01-3.38207E-09-4.55873E-08
 -1       104 3.74263E+01 4.35432E+02 1.43505E+02-1.14617E+02-5.30080E-09-7.77978E-08
 -1       105 4.17085E+01 3.60190E+02 1.21547E+02-3.40184E+02-1.33905E-08-9.32886E-08
 -1       106 5.00207E+01 2.83366E+02 1.00361E+02-4.34560E+02-9.60073E-09-2.49488E-08
 -1       107 6.98359E+01 2.27998E+02 8.93560E+01-3.13458E+02 1.02946E-09 8.39938E-08
 -1       108 6.98359E+01 2.27998E+02 8.93560E+01-3.13458E+02 1.02945E-09 8.39955E-08
 -1       109 5.00207E+01 2.83366E+02 1.00361E+02-4.34560E+02-9.60071E-09-2.49485E-08
 -1       110 4.17085E+01 3.60190E+02 1.21547E+02-3.40184E+02-1.33905E-08-9.32885E-08
 -1       111 3.74263E+01 4.35432E+02 1.43505E+02-1.14617E+02-5.30079E-09-7.77980E-08
 -1       112 5.38832E+00 4.82207E+02 1.48603E+02 6.62029E+01-3.38206E-09-4.55875E-08
 -1       113 1.53113E+01 5.02165E+02 1.58055E+02 6.13926E+01-9.74674E-09-3.11893E-08
 -1       114 2.42453E+01 4.88629E+02 1.56502E+02-4.68240E+01-7.17211E-09 1.75622E-08
 -1       115 2.02406E+01 4.74497E+02 1.50922E+02-8.91763E+01 4.53109E-10 2.95754E-08
 -1       116 9.51400E+00 4.61953E+02 1.44103E+02-4.56008E+01 3.28149E-11 3.96104E-08
 -1       117 1.94378E+01 4.50855E+02 1.43601E+02 5.63009E+01-1.60295E-09 5.49816E-08
 -1       118 3.57680E+01 4.50319E+02 1.47658E+02 1.99249E+02-7.55445E-09 3.71437E-08
 -1       119 5.39779E+01 4.81076E+02 1.61527E+02 3.22405E+02-1.07081E-08 1.50916E-08
 -1       120 5.53058E+01 5.14315E+02 1.70721E+02 4.20940E+02 4.34709E-09-2.11047E-09
 -1       121 7.67154E+01 5.29137E+02 1.80723E+02 5.14810E+02 8.58343E-09-3.60815E-08
 -1       122 9.88304E+01 5.38369E+02 1.89807E+02 5.87972E+02-5.84434E-09-5.42865E-08
 -1       123 8.79916E+01 5.36145E+02 1.86558E+02 6.55991E+02-2.05938E-08-4.26141E-10
 -1       124 8.36550E+01 4.98333E+02 1.75784E+02 7.34711E+02-1.37099E-08 6.48908E-08
 -1       125 7.20479E+01 4.34502E+02 1.58060E+02 8.69856E+02 3.08817E-09 8.65799E-08
 -1       126 8.98279E+00 3.00339E+02 9.73695E+01 7.84236E+02 8.28848E-09 6.28717E-08
 -3
    1PSTEP                        79          20           1          
  100CL  120 2.00000E-01         126                     1   20           1
 -4  TOSTRAIN    6    1
 -5  EXX         1    4    1    1
 -5  EYY         1    4    2    2
 -5  EZZ         1    4    3    3
 -5  EXY         1    4    1    2
 -5  EYZ         1    4    2    3
 -5  EZX         1    4    3    1
 -1         1-4.67778E-05 2.39930E-02-1.22767E-26 1.13067E-02-6.60268E-19 3.75929E-16
 -1         2-4.67778E-05 2.39930E-02-1.22767E-26 1.13067E-02-6.60268E-19 3.75929E-16
 -1         3 3.91398E-08-6.27566E-04 7.56612E-25-3.99662E-04 2.72795E-13 5.72797E-13
 -1         4 3.91406E-08-6.27566E-04 7.56614E-25-3.99662E-04 2.72795E-13 5.72798E-13
 -1         5-1.28813E-04 1.26953E-03 1.27719E-24-5.14041E-04-4.33318E-13 7.20080E-13
 -1         6-1.28813E-04 1.26953E-03 1.27718E-24-5.14041E-04-4.33317E-13 7.20077E-13
 -1         7-4.58327E-05-2.17735E-02-1.52242E-26 1.04238E-02-9.21061E-20-2.58401E-16
 -1         8-4.58327E-05-2.17735E-02-1.52242E-26 1.04238E-02-9.21061E-20-2.58401E-16
 -1         9-6.43871E-05 4.53831E-04 7.34069E-25-6.04518E-04-1.55898E-14 6.41381E-13
 -1        10-6.43871E-05 4.53831E-04 7.34067E-25-6.04518E-04-1.55898E-14 6.41379E-13
 -1        11-4.63053E-05 8.12277E-04-1.40421E-26 7.99745E-03-3.67844E-19 1.24211E-16
 -1        12-4.63053E-05 8.12277E-04-1.40421E-26 7.99745E-03-3.67844E-19 1.24211E-16
 -1        13-6.37421E-03 2.16872E-02 6.68054E-26 3.39956E-03 5.21847E-14 1.84513E-13
 -1        14-3.84217E-03 1.65211E-02 7.86578E-26 1.89785E-03-1.69906E-14 2.02564E-13
 -1        15-2.87445E-03 1.12816E-02 6.13282E-26 1.80734E-03-1.02614E-13 1.53022E-13
 -1        16-1.84262E-03 6.76890E-03 3.30984E-26 1.55078E-03-1.43245E-13 3.73630E-14
 -1        17-9.59288E-04 2.73732E-03 3.18573E-26 1.40603E-03-6.11088E-14-1.28407E-13
 -1        18-2.71542E-04-8.48023E-04 2.50807E-26 1.20492E-03 4.60264E-14-1.09939E-13
 -1        19 4.54857E-04-3.91789E-03 6.09741E-27 9.50901E-04 6.18431E-14-2.14109E-14
 -1        20 1.03546E-03-6.37383E-03-3.63380E-28 7.37370E-04 4.34421E-14 2.41369E-14
 -1        21 1.42162E-03-8.10512E-03 4.61618E-26 4.63421E-04 2.74903E-14 1.56159E-13
 -1        22 1.52290E-03-8.90804E-03 4.62351E-26 9.72713E-05-1.23112E-14 1.52860E-13
 -1        23 1.55584E-03-8.84157E-03 2.92517E-26-1.61954E-04-4.07619E-14 1.17370E-13
 -1        24 1.44557E-03-8.25677E-03 1.10079E-26-2.44285E-04-5.70691E-14 5.94178E-14
 -1        25 1.29633E-03-7.69488E-03 2.30750E-26-1.19391E-04-1.07782E-13 5.46695E-14
 -1        26 1.23799E-03-7.83538E-03 4.19039E-26 1.42816E-04-1.26574E-13-9.21143E-14
 -1        27 1.49669E-03-8.58439E-03 4.45221E-26 1.42267E-04-7.49381E-14-1.40350E-13
 -1        28 1.64953E-03-8.73054E-03 1.48889E-25-2.93317E-04-1.08374E-15-2.78382E-13
 -1        29 1.34432E-03-7.30805E-03 1.50308E-25-8.43953E-04 1.10039E-13-2.68989E-13
 -1        30 7.13954E-04-4.58698E-03 5.80359E-26-1.08830E-03 2.31969E-13-5.88656E-14
 -1        31 2.07046E-04-1.82106E-03 3.14918E-25-7.79314E-04 2.90267E-13 3.24731E-13
 -1        32-6.37421E-03 2.16872E-02 6.68054E-26 3.39956E-03 5.21847E-14 1.84513E-13
 -1        33-3.84217E-03 1.65211E-02 7.86576E-26 1.89785E-03-1.69906E-14 2.02564E-13
 -1        34-2.87445E-03 1.12816E-02 6.13280E-26 1.80734E-03-1.02613E-13 1.53022E-13
 -1        35-1.84262E-03 6.76890E-03 3.30986E-26 1.55078E-03-1.43245E-13 3.73629E-14
 -1        36-9.59288E-04 2.73732E-03 3.18564E-26 1.40603E-03-6.11087E-14-1.28405E-13
 -1        37-2.71542E-04-8.48023E-04 2.50811E-26 1.20492E-03 4.60270E-14-1.09939E-13
 -1        38 4.54857E-04-3.91789E-03 6.09733E-27 9.50901E-04 6.18429E-14-2.14108E-14
 -1        39 1.03546E-03-6.37383E-03-3.63379E-28 7.37370E-04 4.34421E-14 2.41369E-14
 -1        40 1.42162E-03-8.10512E-03 4.61624E-26 4.63421E-04 2.74903E-14 1.56160E-13
 -1        41 1.52290E-03-8.90804E-03 4.62358E-26 9.72713E-05-1.23111E-14 1.52861E-13
 -1        42 1.55584E-03-8.84157E-03 2.92508E-26-1.61954E-04-4.07619E-14 1.17368E-13
 -1        43 1.44557E-03-8.25677E-03 1.10084E-26-2.44285E-04-5.70691E-14 5.94190E-14
 -1        44 1.29633E-03-7.69488E-03 2.30751E-26-1.19391E-04-1.07782E-13 5.46733E-14
 -1        45 1.23799E-03-7.83538E-03 4.19045E-26 1.42816E-04-1.26574E-13-9.21179E-14
 -1        46 1.49669E-03-8.58439E-03 4.45218E-26 1.42267E-04-7.49382E-14-1.40350E-13
 -1        47 1.64953E-03-8.73054E-03 1.48889E-25-2.93317E-04-1.08373E-15-2.78382E-13
 -1        48 1.34432E-03-7.30805E-03 1.50299E-25-8.43953E-04 1.10039E-13-2.68980E-13
 -1        49 7.13954E-04-4.58698E-03 5.80372E-26-1.08830E-03 2.31968E-13-5.88691E-14
 -1        50 2.07046E-04-1.82106E-03 3.14920E-25-7.79314E-04 2.90267E-13 3.24734E-13
 -1        51-5.12654E-04 2.71402E-03 3.16055E-25-7.34852E-04-3.80903E-13 2.51621E-13
 -1        52-1.29134E-03 5.96167E-03 1.14072E-25-9.89126E-04-2.83846E-13-4.59755E-14
 -1        53-2.07407E-03 9.12351E-03 1.81112E-25-7.64615E-04-1.48401E-13-2.80346E-13
 -1        54-2.46512E-03 1.08529E-02 5.23684E-26-2.49273E-04-2.49547E-14-1.69925E-13
 -1        55-2.49339E-03 1.08521E-02 3.51331E-26 1.57171E-04 2.00336E-14-1.32969E-13
 -1        56-2.21103E-03 1.01657E-02 1.20572E-26 1.40863E-04 4.43750E-14-8.33458E-14
 -1        57-2.19987E-03 1.00131E-02 1.00225E-26-1.16421E-04 7.36216E-14 5.48250E-14
 -1        58-2.34175E-03 1.05189E-02 2.21655E-26-2.39288E-04 5.34545E-14 9.47141E-14
 -1        59-2.49060E-03 1.10470E-02 3.67596E-26-1.62755E-04 2.70424E-14 1.34877E-13
 -1        60-2.43356E-03 1.10905E-02 6.67646E-26 9.73100E-05-1.62291E-14 1.84698E-13
 -1        61-2.33408E-03 1.03552E-02 2.76559E-26 4.73236E-04-6.83870E-14 1.02715E-13
 -1        62-2.00279E-03 8.78098E-03 1.67235E-26 7.55817E-04-7.44709E-14 5.95998E-14
 -1        63-1.55649E-03 6.47870E-03-2.89088E-28 9.61246E-04-4.44452E-14 1.72622E-14
 -1        64-8.40883E-04 3.51380E-03 2.41943E-26 1.20734E-03-2.84568E-14-1.16911E-13
 -1        65-1.35662E-04 3.82586E-05 6.32790E-26 1.42356E-03 1.15838E-14-1.90830E-13
 -1        66 6.44150E-04-3.90555E-03-1.19456E-26 1.55984E-03 5.92242E-14 3.01212E-14
 -1        67 1.66460E-03-8.48274E-03 1.07943E-25 1.78509E-03 6.14817E-14 2.36260E-13
 -1        68 2.62096E-03-1.39989E-02 1.79894E-25 1.89133E-03 3.51860E-14 3.00701E-13
 -1        69 5.08978E-03-1.94111E-02 8.22394E-26 3.24703E-03-1.50847E-14 2.15006E-13
 -1        70-5.12654E-04 2.71402E-03 3.16062E-25-7.34852E-04-3.80904E-13 2.51624E-13
 -1        71-1.29134E-03 5.96167E-03 1.14072E-25-9.89126E-04-2.83846E-13-4.59748E-14
 -1        72-2.07407E-03 9.12351E-03 1.81114E-25-7.64615E-04-1.48401E-13-2.80347E-13
 -1        73-2.46512E-03 1.08529E-02 5.23609E-26-2.49273E-04-2.49549E-14-1.69915E-13
 -1        74-2.49339E-03 1.08521E-02 3.51343E-26 1.57171E-04 2.00336E-14-1.32970E-13
 -1        75-2.21103E-03 1.01657E-02 1.20574E-26 1.40863E-04 4.43750E-14-8.33465E-14
 -1        76-2.19987E-03 1.00131E-02 1.00224E-26-1.16421E-04 7.36216E-14 5.48252E-14
 -1        77-2.34175E-03 1.05189E-02 2.21686E-26-2.39288E-04 5.34545E-14 9.47212E-14
 -1        78-2.49060E-03 1.10470E-02 3.67561E-26-1.62755E-04 2.70419E-14 1.34869E-13
 -1        79-2.43356E-03 1.10905E-02 6.67651E-26 9.73100E-05-1.62290E-14 1.84699E-13
 -1        80-2.33408E-03 1.03552E-02 2.76542E-26 4.73236E-04-6.83872E-14 1.02711E-13
 -1        81-2.00279E-03 8.78098E-03 1.67235E-26 7.55817E-04-7.44709E-14 5.96001E-14
 -1        82-1.55649E-03 6.47870E-03-2.89227E-28 9.61246E-04-4.44451E-14 1.72608E-14
 -1        83-8.40883E-04 3.51380E-03 2.41933E-26 1.20734E-03-2.84575E-14-1.16910E-13
 -1        84-1.35662E-04 3.82586E-05 6.32847E-26 1.42356E-03 1.15848E-14-1.90839E-13
 -1        85 6.44150E-04-3.90555E-03-1.19454E-26 1.55984E-03 5.92245E-14 3.01278E-14
 -1        86 1.66460E-03-8.48274E-03 1.07942E-25 1.78509E-03 6.14814E-14 2.36259E-13
 -1        87 2.62096E-03-1.39989E-02 1.79894E-25 1.89133E-03 3.51860E-14 3.00701E-13
 -1        88 5.08978E-03-1.94111E-02 8.22394E-26 3.24703E-03-1.50847E-14 2.15006E-13
 -1        89-6.42214E-04 1.02277E-03 7.63263E-26 2.51711E-03 3.12285E-14 2.03519E-13
 -1        90-6.10605E-04 1.26566E-03 1.55141E-25 2.75930E-03 2.14032E-14 2.80619E-13
 -1        91-6.04925E-04 1.35501E-03 8.17651E-26 2.29331E-03-3.31856E-14 2.13130E-13
 -1        92-5.99233E-04 1.40422E-03-7.80962E-27 2.01975E-03-6.67254E-14 2.95515E-15
 -1        93-5.47475E-04 1.36983E-03 5.59314E-26 1.79685E-03-3.01547E-14-1.74765E-13
 -1        94-5.56212E-04 1.33870E-03 2.58323E-26 1.56048E-03 2.03782E-14-1.18880E-13
 -1        95-5.50817E-04 1.28730E-03-3.54170E-27 1.26470E-03 1.36694E-14-7.71593E-15
 -1        96-4.83662E-04 1.17666E-03 4.18075E-27 9.64682E-04-3.21267E-14 5.09049E-14
 -1        97-4.56226E-04 1.08577E-03 2.81035E-26 5.83069E-04-1.91385E-14 1.21708E-13
 -1        98-4.55334E-04 1.06527E-03 6.29322E-26 1.33593E-04 9.88795E-16 1.78799E-13
 -1        99-4.67381E-04 1.07986E-03 3.22038E-26-1.83466E-04 3.27706E-15 1.28713E-13
 -1       100-4.48089E-04 1.09142E-03 1.67965E-26-3.10511E-04 2.96505E-15 9.61158E-14
 -1       101-4.51766E-04 1.12042E-03 3.36665E-28-1.60230E-04-2.28886E-14 5.72116E-14
 -1       102-4.86517E-04 1.16137E-03 1.54022E-26 2.03473E-04-3.12948E-14-1.01455E-13
 -1       103-4.98350E-04 1.13096E-03 4.12163E-26 2.32988E-04-9.17775E-15-1.48296E-13
 -1       104-4.07794E-04 1.01830E-03 1.25582E-25-3.42664E-04-1.17232E-14-2.53143E-13
 -1       105-3.64875E-04 8.83238E-04 1.74255E-25-1.06805E-03-3.40002E-14-3.04515E-13
 -1       106-2.88694E-04 7.19613E-04-3.58866E-26-1.37604E-03-2.81164E-14-8.23085E-14
 -1       107-1.52804E-04 5.39108E-04 6.74813E-26-9.91643E-04-8.25552E-15 2.72842E-13
 -1       108-1.52804E-04 5.39108E-04 6.74869E-26-9.91643E-04-8.25576E-15 2.72848E-13
 -1       109-2.88694E-04 7.19613E-04-3.58884E-26-1.37604E-03-2.81164E-14-8.23074E-14
 -1       110-3.64875E-04 8.83238E-04 1.74255E-25-1.06805E-03-3.40001E-14-3.04515E-13
 -1       111-4.07794E-04 1.01830E-03 1.25583E-25-3.42664E-04-1.17232E-14-2.53144E-13
 -1       112-4.98350E-04 1.13096E-03 4.12168E-26 2.32988E-04-9.17772E-15-1.48297E-13
 -1       113-4.86517E-04 1.16137E-03 1.54017E-26 2.03473E-04-3.12948E-14-1.01453E-13
 -1       114-4.51766E-04 1.12042E-03 3.36628E-28-1.60230E-04-2.28886E-14 5.72103E-14
 -1       115-4.48089E-04 1.09142E-03 1.67951E-26-3.10511E-04 2.96499E-15 9.61127E-14
 -1       116-4.67381E-04 1.07986E-03 3.22059E-26-1.83466E-04 3.27719E-15 1.28717E-13
 -1       117-4.55334E-04 1.06527E-03 6.29308E-26 1.33593E-04 9.88672E-16 1.78797E-13
 -1       118-4.56226E-04 1.08577E-03 2.81021E-26 5.83069E-04-1.91384E-14 1.21705E-13
 -1       119-4.83662E-04 1.17666E-03 4.18083E-27 9.64682E-04-3.21267E-14 5.09050E-14
 -1       120-5.50817E-04 1.28730E-03-3.54166E-27 1.26470E-03 1.36694E-14-7.71576E-15
 -1       121-5.56212E-04 1.33870E-03 2.58322E-26 1.56048E-03 2.03781E-14-1.18880E-13
 -1       122-5.47475E-04 1.36983E-03 5.59321E-26 1.79685E-03-3.01550E-14-1.74766E-13
 -1       123-5.99233E-04 1.40422E-03-7.80985E-27 2.01975E-03-6.67255E-14 2.95433E-15
 -1       124-6.04925E-04 1.35501E-03 8.17652E-26 2.29331E-03-3.31854E-14 2.13130E-13
 -1       125-6.10605E-04 1.26566E-03 1.55141E-25 2.75930E-03 2.14033E-14 2.80620E-13
 -1       126-6.42214E-04 1.02277E-03 7.63263E-26 2.51711E-03 3.12285E-14 2.03519E-13
 -3
    1PSTEP                        80          20           1          
  100CL  120 2.00000E-01         126                     1   20           1
 -4  ERROR       1    1
 -5  STR(%)      1    1    0    0
 -1         1 6.20738E+01
 -1         2 6.20738E+01
 -1         3 6.86244E+01
 -1         4 6.86244E+01
 -1         5 1.94376E+01
 -1         6 1.94376E+01
 -1         7 6.61064E+01
 -1         8 6.61064E+01
 -1         9 6.86244E+01
 -1        10 6.86244E+01
 -1        11 6.61064E+01
 -1        12 6.61064E+01
 -1        13 6.20738E+01
 -1        14 5.71142E+01
 -1        15 5.45370E+01
 -1        16 4.74165E+01
 -1        17 3.06627E+01
 -1        18 6.19097E+01
 -1        19 7.69478E+01
 -1        20 7.69478E+01
 -1        21 7.32062E+01
 -1        22 6.87017E+01
 -1        23 6.90601E+01
 -1        24 7.05850E+01
 -1        25 7.05850E+01
 -1        26 7.08438E+01
 -1        27 7.08438E+01
 -1        28 7.02516E+01
 -1        29 7.02516E+01
 -1        30 6.85165E+01
 -1        31 6.86244E+01
 -1        32 6.20738E+01
 -1        33 5.71142E+01
 -1        34 5.45370E+01
 -1        35 4.74165E+01
 -1        36 3.06627E+01
 -1        37 6.19097E+01
 -1        38 7.69478E+01
 -1        39 7.69478E+01
 -1        40 7.32062E+01
 -1        41 6.87017E+01
 -1        42 6.90601E+01
 -1        43 7.05850E+01
 -1        44 7.05850E+01
 -1        45 7.08438E+01
 -1        46 7.08438E+01
 -1        47 7.02516E+01
 -1        48 7.02516E+01
 -1        49 6.85165E+01
 -1        50 6.86244E+01
 -1        51 4.13354E+01
 -1        52 5.19025E+01
 -1        53 5.41946E+01
 -1        54 5.41946E+01
 -1        55 5.26176E+01
 -1        56 5.20265E+01
 -1        57 5.24108E+01
 -1        58 5.27701E+01
 -1        59 5.27701E+01
 -1        60 5.31659E+01
 -1        61 5.31659E+01
 -1        62 5.27215E+01
 -1        63 4.90077E+01
 -1        64 3.69617E+01
 -1        65 7.01781E+01
 -1        66 7.01781E+01
 -1        67 6.94545E+01
 -1        68 6.94545E+01
 -1        69 6.70374E+01
 -1        70 4.13354E+01
 -1        71 5.19025E+01
 -1        72 5.41946E+01
 -1        73 5.41946E+01
 -1        74 5.26176E+01
 -1        75 5.20265E+01
 -1        76 5.24108E+01
 -1        77 5.27701E+01
 -1        78 5.27701E+01
 -1        79 5.31659E+01
 -1        80 5.31659E+01
 -1        81 5.27215E+01
 -1        82 4.90077E+01
 -1        83 3.69617E+01
 -1        84 7.01781E+01
 -1        85 7.01781E+01
 -1        86 6.94545E+01
 -1        87 6.94545E+01
 -1        88 6.70374E+01
 -1        89 6.70374E+01
 -1        90 6.94545E+01
 -1        91 6.94545E+01
 -1        92 7.01781E+01
 -1        93 7.01781E+01
 -1        94 6.19097E+01
 -1        95 7.69478E+01
 -1        96 7.69478E+01
 -1        97 7.32062E+01
 -1        98 6.87017E+01
 -1        99 6.90601E+01
 -1       100 7.05850E+01
 -1       101 7.05850E+01
 -1       102 7.08438E+01
 -1       103 7.08438E+01
 -1       104 7.02516E+01
 -1       105 7.02516E+01
 -1       106 6.85165E+01
 -1       107 6.86244E+01
 -1       108 6.86244E+01
 -1       109 6.85165E+01
 -1       110 7.02516E+01
 -1       111 7.02516E+01
 -1       112 7.08438E+01
 -1       113 7.08438E+01
 -1       114 7.05850E+01
 -1       115 7.05850E+01
 -1       116 6.90601E+01
 -1       117 6.87017E+01
 -1       118 7.32062E+01
 -1       119 7.69478E+01
 -1       120 7.69478E+01
 -1       121 6.19097E+01
 -1       122 7.01781E+01
 -1       123 7.01781E+01
 -1       124 6.94545E+01
 -1       125 6.94545E+01
 -1       126 6.70374E+01
 -3
    1PSTEP                        81          21           1          
  100CL  121 2.10000E-01         126                     1   21           1
 -4  DISP        4    1
 -5  D1          1    2    1    0
 -5  D2          1    2    2    0
 -5  D3          1    2    3    0
 -5  ALL         1    2    0    0    1ALL
 -1         1 0.00000E+00 0.00000E+00 0.00000E+00
 -1         2 0.00000E+00 0.00000E+00 0.00000E+00
 -1         3 2.21038E-02-2.27442E-03 0.00000E+00
 -1         4 2.21038E-02-2.27442E-03 0.00000E+00
 -1         5 2.20046E-02 1.99148E-03 0.00000E+00
 -1         6 2.20046E-02 1.99148E-03 0.00000E+00
 -1         7 0.00000E+00 0.00000E+00 0.00000E+00
 -1         8 0.00000E+00 0.00000E+00 0.00000E+00
 -1         9 2.20498E-02-1.30562E-04 0.00000E+00
 -1        10 2.20498E-02-1.30562E-04 0.00000E+00
 -1        11 0.00000E+00 0.00000E+00 0.00000E+00
 -1        12 0.00000E+00 0.00000E+00 0.00000E+00
 -1        13 1.15892E-03 1.22093E-03 0.00000E+00
 -1        14 3.13168E-03 2.18971E-03 0.00000E+00
 -1        15 5.90806E-03 2.82002E-03 0.00000E+00
 -1        16 9.16404E-03 3.17092E-03 0.00000E+00
 -1        17 1.26603E-02 3.28655E-03 0.00000E+00
 -1        18 1.61935E-02 3.21018E-03 0.00000E+00
 -1        19 1.95966E-02 2.97455E-03 0.00000E+00
 -1        20 2.27061E-02 2.61209E-03 0.00000E+00
 -1        21 2.53854E-02 2.17114E-03 0.00000E+00
 -1        22 2.75753E-02 1.70195E-03 0.00000E+00
 -1        23 2.92575E-02 1.24349E-03 0.00000E+00
 -1        24 3.04796E-02 8.02892E-04 0.00000E+00
 -1        25 3.12555E-02 3.52114E-04 0.00000E+00
 -1        26 3.15461E-02-1.46081E-04 0.00000E+00
 -1        27 3.12639E-02-7.11301E-04 0.00000E+00
 -1        28 3.03058E-02-1.30849E-03 0.00000E+00
 -1        29 2.86451E-02-1.82132E-03 0.00000E+00
 -1        30 2.65169E-02-2.12974E-03 0.00000E+00
 -1        31 2.42775E-02-2.24128E-03 0.00000E+00
 -1        32 1.15892E-03 1.22093E-03 0.00000E+00
 -1        33 3.13168E-03 2.18971E-03 0.00000E+00
 -1        34 5.90806E-03 2.82002E-03 0.00000E+00
 -1        35 9.16404E-03 3.17092E-03 0.00000E+00
 -1        36 1.26603E-02 3.28655E-03 0.00000E+00
 -1        37 1.61935E-02 3.21018E-03 0.00000E+00
 -1        38 1.95966E-02 2.97455E-03 0.00000E+00
 -1        39 2.27061E-02 2.61209E-03 0.00000E+00
 -1        40 2.53854E-02 2.17114E-03 0.00000E+00
 -1        41 2.75753E-02 1.70195E-03 0.00000E+00
 -1        42 2.92575E-02 1.24349E-03 0.00000E+00
 -1        43 3.04796E-02 8.02892E-04 0.00000E+00
 -1        44 3.12555E-02 3.52114E-04 0.00000E+00
 -1        45 3.15461E-02-1.46081E-04 0.00000E+00
 -1        46 3.12639E-02-7.11301E-04 0.00000E+00
 -1        47 3.03058E-02-1.30849E-03 0.00000E+00
 -1        48 2.86451E-02-1.82132E-03 0.00000E+00
 -1        49 2.65169E-02-2.12974E-03 0.00000E+00
 -1        50 2.42775E-02-2.24128E-03 0.00000E+00
 -1        51 2.41719E-02 2.02150E-03 0.00000E+00
 -1        52 2.64135E-02 1.96346E-03 0.00000E+00
 -1        53 2.85499E-02 1.69436E-03 0.00000E+00
 -1        54 3.02353E-02 1.18490E-03 0.00000E+00
 -1        55 3.12194E-02 5.47245E-04 0.00000E+00
 -1        56 3.15045E-02-8.47199E-05 0.00000E+00
 -1        57 3.12029E-02-6.58665E-04 0.00000E+00
 -1        58 3.04105E-02-1.18255E-03 0.00000E+00
 -1        59 2.91647E-02-1.68300E-03 0.00000E+00
 -1        60 2.74463E-02-2.17941E-03 0.00000E+00
 -1        61 2.52092E-02-2.65485E-03 0.00000E+00
 -1        62 2.24789E-02-3.06356E-03 0.00000E+00
 -1        63 1.93311E-02-3.35233E-03 0.00000E+00
 -1        64 1.59049E-02-3.48265E-03 0.00000E+00
 -1        65 1.23659E-02-3.43958E-03 0.00000E+00
 -1        66 8.89435E-03-3.20850E-03 0.00000E+00
 -1        67 5.68887E-03-2.76836E-03 0.00000E+00
 -1        68 2.96936E-03-2.10084E-03 0.00000E+00
 -1        69 1.06473E-03-1.15531E-03 0.00000E+00
 -1        70 2.41719E-02 2.02150E-03 0.00000E+00
 -1        71 2.64135E-02 1.96346E-03 0.00000E+00
 -1        72 2.85499E-02 1.69436E-03 0.00000E+00
 -1        73 3.02353E-02 1.18490E-03 0.00000E+00
 -1        74 3.12194E-02 5.47245E-04 0.00000E+00
 -1        75 3.15045E-02-8.47199E-05 0.00000E+00
 -1        76 3.12029E-02-6.58665E-04 0.00000E+00
 -1        77 3.04105E-02-1.18255E-03 0.00000E+00
 -1        78 2.91647E-02-1.68300E-03 0.00000E+00
 -1        79 2.74463E-02-2.17941E-03 0.00000E+00
 -1        80 2.52092E-02-2.65485E-03 0.00000E+00
 -1        81 2.24789E-02-3.06356E-03 0.00000E+00
 -1        82 1.93311E-02-3.35233E-03 0.00000E+00
 -1        83 1.59049E-02-3.48265E-03 0.00000E+00
 -1        84 1.23659E-02-3.43958E-03 0.00000E+00
 -1        85 8.89435E-03-3.20850E-03 0.00000E+00
 -1        86 5.68887E-03-2.76836E-03 0.00000E+00
 -1        87 2.96936E-03-2.10084E-03 0.00000E+00
 -1        88 1.06473E-03-1.15531E-03 0.00000E+00
 -1        89 8.18035E-04 3.34249E-05 0.00000E+00
 -1        90 2.88611E-03 5.26879E-05 0.00000E+00
 -1        91 5.68281E-03 3.36019E-05 0.00000E+00
 -1        92 8.96655E-03-1.43653E-05 0.00000E+00
 -1        93 1.24943E-02-7.43550E-05 0.00000E+00
 -1        94 1.60674E-02-1.37272E-04 0.00000E+00
 -1        95 1.95163E-02-1.93376E-04 0.00000E+00
 -1        96 2.26718E-02-2.30163E-04 0.00000E+00
 -1        97 2.53923E-02-2.45018E-04 0.00000E+00
 -1        98 2.76095E-02-2.41635E-04 0.00000E+00
 -1        99 2.93093E-02-2.22682E-04 0.00000E+00
 -1       100 3.05437E-02-1.91966E-04 0.00000E+00
 -1       101 3.13349E-02-1.53604E-04 0.00000E+00
 -1       102 3.16427E-02-1.14330E-04 0.00000E+00
 -1       103 3.13716E-02-8.09080E-05 0.00000E+00
 -1       104 3.03933E-02-5.81877E-05 0.00000E+00
 -1       105 2.86819E-02-5.56530E-05 0.00000E+00
 -1       106 2.64979E-02-7.62114E-05 0.00000E+00
 -1       107 2.42275E-02-1.05139E-04 0.00000E+00
 -1       108 2.42275E-02-1.05139E-04 0.00000E+00
 -1       109 2.64979E-02-7.62114E-05 0.00000E+00
 -1       110 2.86819E-02-5.56530E-05 0.00000E+00
 -1       111 3.03933E-02-5.81877E-05 0.00000E+00
 -1       112 3.13716E-02-8.09080E-05 0.00000E+00
 -1       113 3.16427E-02-1.14330E-04 0.00000E+00
 -1       114 3.13349E-02-1.53604E-04 0.00000E+00
 -1       115 3.05437E-02-1.91966E-04 0.00000E+00
 -1       116 2.93093E-02-2.22682E-04 0.00000E+00
 -1       117 2.76095E-02-2.41635E-04 0.00000E+00
 -1       118 2.53923E-02-2.45018E-04 0.00000E+00
 -1       119 2.26718E-02-2.30163E-04 0.00000E+00
 -1       120 1.95163E-02-1.93376E-04 0.00000E+00
 -1       121 1.60674E-02-1.37272E-04 0.00000E+00
 -1       122 1.24943E-02-7.43550E-05 0.00000E+00
 -1       123 8.96655E-03-1.43653E-05 0.00000E+00
 -1       124 5.68281E-03 3.36019E-05 0.00000E+00
 -1       125 2.88611E-03 5.26879E-05 0.00000E+00
 -1       126 8.18035E-04 3.34249E-05 0.00000E+00
 -3
    1PSTEP                        82          21           1          
  100CL  121 2.10000E-01         126                     1   21           1
 -4  STRESS      6    1
 -5  SXX         1    4    1    1
 -5  SYY         1    4    2    2
 -5  SZZ         1    4    3    3
 -5  SXY         1    4    1    2
 -5  SYZ         1    4    2    3
 -5  SZX         1    4    3    1
 -1         1 5.77271E+03 1.36618E+04 5.62794E+03 3.84779E+03-3.98609E-11-9.26853E-11
 -1         2 5.77271E+03 1.36618E+04 5.62794E+03 3.84779E+03-3.98609E-11-9.26853E-11
 -1         3-1.25337E+01 1.07486E+02 2.84353E+01-9.46242E+01 1.30566E-07 1.89198E-07
 -1         4-1.25337E+01 1.07486E+02 2.84353E+01-9.46242E+01 1.30566E-07 1.89198E-07
 -1         5 8.87597E+01 1.70153E+02 7.75673E+01-1.41107E+02-8.67631E-08 1.48367E-07
 -1         6 8.87597E+01 1.70153E+02 7.75673E+01-1.41107E+02-8.67631E-08 1.48358E-07
 -1         7-5.22394E+03-1.20081E+04-5.34127E+03 3.03714E+03-4.30303E-11 7.27056E-11
 -1         8-5.22394E+03-1.20081E+04-5.34127E+03 3.03714E+03-4.30341E-11 7.27056E-11
 -1         9 6.99252E+01 2.06658E+02 8.28462E+01-1.40893E+02 5.16377E-09 1.69969E-07
 -1        10 6.99252E+01 2.06658E+02 8.28462E+01-1.40893E+02 5.16372E-09 1.69970E-07
 -1        11 2.45730E+02 3.15532E+02 1.85062E+02 2.51939E+03-1.56101E-11-2.36878E-11
 -1        12 2.45730E+02 3.15532E+02 1.85062E+02 2.51939E+03-1.56030E-11-2.36878E-11
 -1        13 1.75085E+03 1.08578E+04 3.66830E+03 1.32436E+03-1.89017E-08-8.72793E-09
 -1        14 1.88498E+03 8.44956E+03 3.02723E+03 8.99060E+02-4.16896E-08-1.72153E-08
 -1        15 1.18699E+03 5.59874E+03 2.00116E+03 8.49030E+02-4.32553E-08-7.68894E-08
 -1        16 6.50574E+02 3.25500E+03 1.15815E+03 6.80633E+02-2.50144E-09-1.45914E-07
 -1        17 1.58200E+02 1.24092E+03 4.16123E+02 5.14122E+02 2.31082E-08-1.27054E-07
 -1        18-2.62607E+02-4.94696E+02-2.28529E+02 3.63994E+02 3.01891E-08-1.01301E-07
 -1        19-6.34560E+02-2.00354E+03-7.95682E+02 2.27094E+02 4.02010E-08-5.18928E-08
 -1        20-9.41678E+02-3.19280E+03-1.25015E+03 9.47238E+01 3.62490E-08-6.71517E-10
 -1        21-1.11115E+03-3.91796E+03-1.52328E+03-1.22652E+01 1.76385E-08 6.76591E-09
 -1        22-1.18715E+03-4.20325E+03-1.63392E+03-8.17216E+01-5.17658E-09 1.25025E-08
 -1        23-1.18633E+03-4.22131E+03-1.63889E+03-8.71798E+01-1.58923E-08-1.95115E-08
 -1        24-1.21032E+03-4.29894E+03-1.66986E+03-1.84276E+01-2.88769E-09-4.40340E-08
 -1        25-1.28846E+03-4.64130E+03-1.79918E+03 6.61037E+01 1.94516E-08 2.58283E-09
 -1        26-1.40690E+03-5.20043E+03-2.00842E+03 1.09825E+02 1.96008E-08 7.06786E-08
 -1        27-1.45060E+03-5.60445E+03-2.14788E+03 5.76846E+01-8.18667E-09 5.35596E-08
 -1        28-1.34749E+03-5.23663E+03-2.00374E+03-1.29916E+02-3.50882E-08 4.07797E-08
 -1        29-9.61635E+02-3.70310E+03-1.41470E+03-3.43057E+02-2.69951E-08-2.94199E-09
 -1        30-4.64165E+02-1.66241E+03-6.41837E+02-3.72880E+02 3.05378E-08-3.47321E-08
 -1        31-1.36545E+02-2.92209E+02-1.29019E+02-2.12722E+02 9.57735E-08 4.73452E-08
 -1        32 1.75085E+03 1.08578E+04 3.66830E+03 1.32436E+03-1.89017E-08-8.72793E-09
 -1        33 1.88498E+03 8.44956E+03 3.02723E+03 8.99060E+02-4.16896E-08-1.72153E-08
 -1        34 1.18699E+03 5.59874E+03 2.00116E+03 8.49030E+02-4.32553E-08-7.68893E-08
 -1        35 6.50574E+02 3.25500E+03 1.15815E+03 6.80633E+02-2.50143E-09-1.45914E-07
 -1        36 1.58200E+02 1.24092E+03 4.16123E+02 5.14122E+02 2.31082E-08-1.27054E-07
 -1        37-2.62607E+02-4.94696E+02-2.28529E+02 3.63994E+02 3.01892E-08-1.01301E-07
 -1        38-6.34560E+02-2.00354E+03-7.95682E+02 2.27094E+02 4.02008E-08-5.18915E-08
 -1        39-9.41678E+02-3.19280E+03-1.25015E+03 9.47238E+01 3.62490E-08-6.71517E-10
 -1        40-1.11115E+03-3.91796E+03-1.52328E+03-1.22652E+01 1.76385E-08 6.76579E-09
 -1        41-1.18715E+03-4.20325E+03-1.63392E+03-8.17216E+01-5.17658E-09 1.25026E-08
 -1        42-1.18633E+03-4.22131E+03-1.63889E+03-8.71798E+01-1.58923E-08-1.95122E-08
 -1        43-1.21032E+03-4.29894E+03-1.66986E+03-1.84276E+01-2.88770E-09-4.40346E-08
 -1        44-1.28846E+03-4.64130E+03-1.79918E+03 6.61037E+01 1.94516E-08 2.58306E-09
 -1        45-1.40690E+03-5.20043E+03-2.00842E+03 1.09825E+02 1.96008E-08 7.06777E-08
 -1        46-1.45060E+03-5.60445E+03-2.14788E+03 5.76846E+01-8.18667E-09 5.35593E-08
 -1        47-1.34749E+03-5.23663E+03-2.00374E+03-1.29916E+02-3.50882E-08 4.07797E-08
 -1        48-9.61635E+02-3.70310E+03-1.41470E+03-3.43057E+02-2.69952E-08-2.94372E-09
 -1        49-4.64165E+02-1.66241E+03-6.41837E+02-3.72880E+02 3.05379E-08-3.47328E-08
 -1        50-1.36545E+02-2.92209E+02-1.29019E+02-2.12722E+02 9.57734E-08 4.73474E-08
 -1        51 1.98110E+02 6.07213E+02 2.40746E+02-2.49718E+02-8.20444E-08 5.74782E-08
 -1        52 5.54370E+02 2.05593E+03 7.77183E+02-4.95795E+02-4.26980E-08-4.05460E-08
 -1        53 9.18082E+02 4.13911E+03 1.49761E+03-5.59346E+02 4.53102E-09-2.27144E-08
 -1        54 1.22700E+03 5.80551E+03 2.07476E+03-3.44747E+02 1.73627E-08 3.18261E-08
 -1        55 1.36848E+03 6.32033E+03 2.26705E+03-5.18110E+01 5.06308E-09 5.76515E-08
 -1        56 1.30582E+03 5.96626E+03 2.14684E+03 1.17823E+02-1.64339E-08 5.59268E-08
 -1        57 1.16370E+03 5.43523E+03 1.95085E+03 1.53637E+02-2.76871E-08-6.83742E-09
 -1        58 1.09364E+03 5.13627E+03 1.84319E+03 1.29842E+02-4.66471E-09-3.18807E-08
 -1        59 1.08533E+03 5.11170E+03 1.83334E+03 1.27550E+02 1.73859E-08-2.16124E-08
 -1        60 1.08897E+03 5.14626E+03 1.84391E+03 2.04763E+02 1.24820E-08 1.23793E-08
 -1        61 1.01019E+03 4.89975E+03 1.74829E+03 3.26374E+02-3.41984E-09 2.50514E-08
 -1        62 8.40124E+02 4.18276E+03 1.48799E+03 4.26235E+02-2.57077E-08-1.63901E-08
 -1        63 6.01816E+02 3.00435E+03 1.07106E+03 4.75861E+02-4.46600E-08-5.86575E-08
 -1        64 2.78020E+02 1.49513E+03 5.27955E+02 4.66976E+02-3.61311E-08-8.96013E-08
 -1        65-1.66897E+02-2.76581E+02-1.34600E+02 4.27832E+02-8.77385E-09-1.10995E-07
 -1        66-6.50923E+02-2.31041E+03-8.94765E+02 3.87450E+02 3.02151E-08-1.43740E-07
 -1        67-1.17567E+03-4.61187E+03-1.75816E+03 3.88080E+02 5.69643E-08-1.12018E-07
 -1        68-2.02225E+03-7.38114E+03-2.87671E+03 3.56560E+02 3.86615E-08-2.32356E-08
 -1        69-1.86254E+03-9.61193E+03-3.53601E+03 7.81066E+02 1.28084E-08-8.63308E-09
 -1        70 1.98110E+02 6.07213E+02 2.40746E+02-2.49718E+02-8.20444E-08 5.74834E-08
 -1        71 5.54370E+02 2.05593E+03 7.77183E+02-4.95795E+02-4.26980E-08-4.05461E-08
 -1        72 9.18082E+02 4.13911E+03 1.49761E+03-5.59346E+02 4.53103E-09-2.27148E-08
 -1        73 1.22700E+03 5.80551E+03 2.07476E+03-3.44747E+02 1.73626E-08 3.18259E-08
 -1        74 1.36848E+03 6.32033E+03 2.26705E+03-5.18110E+01 5.06311E-09 5.76515E-08
 -1        75 1.30582E+03 5.96626E+03 2.14684E+03 1.17823E+02-1.64339E-08 5.59268E-08
 -1        76 1.16370E+03 5.43523E+03 1.95085E+03 1.53637E+02-2.76872E-08-6.83719E-09
 -1        77 1.09364E+03 5.13627E+03 1.84319E+03 1.29842E+02-4.66455E-09-3.18817E-08
 -1        78 1.08533E+03 5.11170E+03 1.83334E+03 1.27550E+02 1.73857E-08-2.16089E-08
 -1        79 1.08897E+03 5.14626E+03 1.84391E+03 2.04763E+02 1.24820E-08 1.23799E-08
 -1        80 1.01019E+03 4.89975E+03 1.74829E+03 3.26374E+02-3.41983E-09 2.50495E-08
 -1        81 8.40124E+02 4.18276E+03 1.48799E+03 4.26235E+02-2.57077E-08-1.63903E-08
 -1        82 6.01816E+02 3.00435E+03 1.07106E+03 4.75861E+02-4.46599E-08-5.86572E-08
 -1        83 2.78020E+02 1.49513E+03 5.27955E+02 4.66976E+02-3.61311E-08-8.96011E-08
 -1        84-1.66897E+02-2.76581E+02-1.34600E+02 4.27832E+02-8.77389E-09-1.10995E-07
 -1        85-6.50923E+02-2.31041E+03-8.94765E+02 3.87450E+02 3.02153E-08-1.43742E-07
 -1        86-1.17567E+03-4.61187E+03-1.75816E+03 3.88080E+02 5.69643E-08-1.12019E-07
 -1        87-2.02225E+03-7.38114E+03-2.87671E+03 3.56560E+02 3.86615E-08-2.32356E-08
 -1        88-1.86254E+03-9.61193E+03-3.53601E+03 7.81066E+02 1.28084E-08-8.63309E-09
 -1        89-1.40892E+01 2.61040E+02 7.96265E+01 7.87913E+02-5.45652E-09-4.04620E-09
 -1        90 5.32904E+00 3.59170E+02 1.16422E+02 8.92287E+02-7.72712E-09-1.64340E-08
 -1        91 3.70391E+01 3.87594E+02 1.29034E+02 7.69060E+02 8.38443E-09-9.99874E-08
 -1        92 2.50994E+01 4.25824E+02 1.34835E+02 6.80339E+02 2.40425E-08-1.46861E-07
 -1        93 1.50643E+01 4.61631E+02 1.41757E+02 5.94290E+02 1.36941E-08-1.26987E-07
 -1        94 2.03881E+01 4.70858E+02 1.46336E+02 5.23976E+02-4.48095E-09-1.02358E-07
 -1        95-4.11806E-01 4.67773E+02 1.39949E+02 4.43636E+02-7.66749E-09-5.25739E-08
 -1        96-3.09007E+01 4.58307E+02 1.28927E+02 3.22995E+02 7.72307E-09-5.21922E-09
 -1        97-3.73396E+01 4.31117E+02 1.19812E+02 1.83348E+02 8.89277E-09 2.43454E-08
 -1        98-4.31405E+01 3.94413E+02 1.07638E+02 6.31032E+01 5.94729E-10 1.41746E-08
 -1        99-4.42031E+01 3.70833E+02 1.00744E+02 1.75107E+01-8.46169E-10-2.01277E-08
 -1       100-4.70131E+01 3.52805E+02 9.48011E+01 6.55751E+01-8.31761E-09-4.40585E-08
 -1       101-4.85476E+01 3.23101E+02 8.57831E+01 1.37779E+02-7.16029E-09-4.78184E-09
 -1       102-4.04208E+01 2.78121E+02 7.51542E+01 1.51228E+02 4.59956E-09 6.57004E-08
 -1       103-2.70605E+01 2.42853E+02 6.80738E+01 1.27202E+01-1.35349E-10 6.19605E-08
 -1       104-2.98224E+01 2.12430E+02 5.63434E+01-3.05110E+02-1.20235E-08 3.66965E-08
 -1       105 9.72184E+00 1.85346E+02 5.89629E+01-5.87788E+02-1.23705E-08-1.85813E-08
 -1       106 5.93188E+01 1.73820E+02 6.97820E+01-5.59003E+02-1.03503E-08-4.87085E-08
 -1       107 4.93082E+01 1.81861E+02 6.90207E+01-2.88536E+02-6.44833E-09 4.63071E-08
 -1       108 4.93082E+01 1.81861E+02 6.90207E+01-2.88536E+02-6.44829E-09 4.63058E-08
 -1       109 5.93188E+01 1.73820E+02 6.97820E+01-5.59003E+02-1.03503E-08-4.87087E-08
 -1       110 9.72184E+00 1.85346E+02 5.89629E+01-5.87788E+02-1.23705E-08-1.85803E-08
 -1       111-2.98224E+01 2.12430E+02 5.63434E+01-3.05110E+02-1.20235E-08 3.66967E-08
 -1       112-2.70605E+01 2.42853E+02 6.80738E+01 1.27202E+01-1.35348E-10 6.19608E-08
 -1       113-4.04208E+01 2.78121E+02 7.51542E+01 1.51228E+02 4.59955E-09 6.57005E-08
 -1       114-4.85476E+01 3.23101E+02 8.57831E+01 1.37779E+02-7.16025E-09-4.78230E-09
 -1       115-4.70131E+01 3.52805E+02 9.48011E+01 6.55751E+01-8.31763E-09-4.40570E-08
 -1       116-4.42031E+01 3.70833E+02 1.00744E+02 1.75107E+01-8.46198E-10-2.01270E-08
 -1       117-4.31405E+01 3.94413E+02 1.07638E+02 6.31032E+01 5.94740E-10 1.41745E-08
 -1       118-3.73396E+01 4.31117E+02 1.19812E+02 1.83348E+02 8.89274E-09 2.43455E-08
 -1       119-3.09007E+01 4.58307E+02 1.28927E+02 3.22995E+02 7.72309E-09-5.21916E-09
 -1       120-4.11806E-01 4.67773E+02 1.39949E+02 4.43636E+02-7.66745E-09-5.25740E-08
 -1       121 2.03881E+01 4.70858E+02 1.46336E+02 5.23976E+02-4.48102E-09-1.02358E-07
 -1       122 1.50643E+01 4.61631E+02 1.41757E+02 5.94290E+02 1.36941E-08-1.26987E-07
 -1       123 2.50994E+01 4.25824E+02 1.34835E+02 6.80339E+02 2.40425E-08-1.46861E-07
 -1       124 3.70391E+01 3.87594E+02 1.29034E+02 7.69060E+02 8.38446E-09-9.99875E-08
 -1       125 5.32904E+00 3.59170E+02 1.16422E+02 8.92287E+02-7.72709E-09-1.64342E-08
 -1       126-1.40892E+01 2.61040E+02 7.96265E+01 7.87913E+02-5.45655E-09-4.04619E-09
 -3
    1PSTEP                        83          21           1          
  100CL  121 2.10000E-01         126                     1   21           1
 -4  TOSTRAIN    6    1
 -5  EXX         1    4    1    1
 -5  EYY         1    4    2    2
 -5  EZZ         1    4    3    3
 -5  EXY         1    4    1    2
 -5  EYZ         1    4    2    3
 -5  EZX         1    4    3    1
 -1         1-5.07675E-05 2.49340E-02-1.29190E-27 1.15890E-02 5.52509E-19-2.62428E-16
 -1         2-5.07675E-05 2.49340E-02-1.29190E-27 1.15890E-02 5.52509E-19-2.62428E-16
 -1         3-1.59157E-04 2.82386E-04 9.86356E-25-2.89475E-04 3.97438E-13 6.32812E-13
 -1         4-1.59157E-04 2.82386E-04 9.86357E-25-2.89475E-04 3.97438E-13 6.32812E-13
 -1         5-2.80805E-06 3.39037E-04 5.62856E-25-4.45213E-04-3.02036E-13 4.69451E-13
 -1         6-2.80805E-06 3.39037E-04 5.62811E-25-4.45213E-04-3.02035E-13 4.69421E-13
 -1         7-4.92181E-05-2.26612E-02-6.76025E-28 1.06471E-02-1.82657E-19 1.95990E-16
 -1         8-4.92181E-05-2.26612E-02-6.76025E-28 1.06471E-02-1.95182E-19 1.95990E-16
 -1         9-8.09823E-05 4.40111E-04 5.13181E-25-4.36652E-04-6.79800E-15 5.52556E-13
 -1        10-8.09823E-05 4.40111E-04 5.13187E-25-4.36652E-04-6.79834E-15 5.52560E-13
 -1        11-4.99928E-05 7.52516E-04-1.58211E-30 8.18017E-03 2.32391E-19-7.30374E-17
 -1        12-4.99928E-05 7.52516E-04-1.58249E-30 8.18017E-03 2.55761E-19-7.30378E-17
 -1        13-6.55295E-03 2.26224E-02 6.23801E-27 3.41640E-03-6.04081E-14-2.64534E-14
 -1        14-4.00806E-03 1.72619E-02 2.94978E-26 1.91694E-03-1.34801E-13-4.94192E-14
 -1        15-2.95169E-03 1.16851E-02 1.33465E-25 1.88818E-03-1.51989E-13-2.40637E-13
 -1        16-1.91595E-03 6.95807E-03 4.35929E-25 1.62635E-03-3.80142E-14-4.72299E-13
 -1        17-1.05574E-03 2.86463E-03 3.50794E-25 1.40846E-03 4.69681E-14-4.17223E-13
 -1        18-2.79618E-04-7.08078E-04 2.27273E-25 1.22361E-03 7.59364E-14-3.35495E-13
 -1        19 4.00830E-04-3.83952E-03 7.47763E-26 1.02092E-03 1.20326E-13-1.77051E-13
 -1        20 9.24806E-04-6.32142E-03 2.05052E-26 7.30081E-04 1.18505E-13-9.05900E-15
 -1        21 1.29863E-03-7.86921E-03 5.06770E-27 4.07322E-04 5.89600E-14 1.92286E-14
 -1        22 1.43305E-03-8.47827E-03 8.91780E-28 1.18296E-04-1.54414E-14 4.13457E-14
 -1        23 1.45872E-03-8.52511E-03 9.55521E-27 6.48574E-06-5.41733E-14-6.19989E-14
 -1        24 1.47299E-03-8.67202E-03 3.52065E-26 1.42559E-04-1.23610E-14-1.43182E-13
 -1        25 1.63157E-03-9.38455E-03-6.97509E-27 3.31808E-04 6.42601E-14 7.71846E-15
 -1        26 1.92312E-03-1.05715E-02 1.03176E-25 3.56523E-04 6.45289E-14 2.30211E-13
 -1        27 2.22352E-03-1.14689E-02 5.82817E-26 1.58488E-05-2.92949E-14 1.74133E-13
 -1        28 2.05331E-03-1.06813E-02 5.52884E-26-7.52953E-04-1.19064E-13 1.29736E-13
 -1        29 1.35415E-03-7.45374E-03 4.29212E-27-1.44671E-03-8.83571E-14-1.29419E-14
 -1        30 4.63325E-04-3.23594E-03 1.34555E-26-1.38032E-03 1.04137E-13-1.08529E-13
 -1        31-8.68622E-05-4.71598E-04 1.49742E-25-7.12871E-04 3.04598E-13 1.67519E-13
 -1        32-6.55295E-03 2.26224E-02 6.23801E-27 3.41640E-03-6.04081E-14-2.64534E-14
 -1        33-4.00806E-03 1.72619E-02 2.94977E-26 1.91694E-03-1.34801E-13-4.94190E-14
 -1        34-2.95169E-03 1.16851E-02 1.33465E-25 1.88818E-03-1.51989E-13-2.40636E-13
 -1        35-1.91595E-03 6.95807E-03 4.35929E-25 1.62635E-03-3.80142E-14-4.72299E-13
 -1        36-1.05574E-03 2.86463E-03 3.50794E-25 1.40846E-03 4.69681E-14-4.17223E-13
 -1        37-2.79618E-04-7.08078E-04 2.27274E-25 1.22361E-03 7.59365E-14-3.35496E-13
 -1        38 4.00830E-04-3.83952E-03 7.47726E-26 1.02092E-03 1.20326E-13-1.77046E-13
 -1        39 9.24806E-04-6.32142E-03 2.05052E-26 7.30081E-04 1.18505E-13-9.05900E-15
 -1        40 1.29863E-03-7.86921E-03 5.06761E-27 4.07322E-04 5.89600E-14 1.92283E-14
 -1        41 1.43305E-03-8.47827E-03 8.91805E-28 1.18296E-04-1.54414E-14 4.13458E-14
 -1        42 1.45872E-03-8.52511E-03 9.55578E-27 6.48574E-06-5.41733E-14-6.20011E-14
 -1        43 1.47299E-03-8.67202E-03 3.52078E-26 1.42559E-04-1.23611E-14-1.43184E-13
 -1        44 1.63157E-03-9.38455E-03-6.97455E-27 3.31808E-04 6.42601E-14 7.71921E-15
 -1        45 1.92312E-03-1.05715E-02 1.03174E-25 3.56523E-04 6.45289E-14 2.30209E-13
 -1        46 2.22352E-03-1.14689E-02 5.82812E-26 1.58488E-05-2.92949E-14 1.74133E-13
 -1        47 2.05331E-03-1.06813E-02 5.52886E-26-7.52953E-04-1.19064E-13 1.29737E-13
 -1        48 1.35415E-03-7.45374E-03 4.29317E-27-1.44671E-03-8.83574E-14-1.29476E-14
 -1        49 4.63325E-04-3.23594E-03 1.34550E-26-1.38032E-03 1.04137E-13-1.08531E-13
 -1        50-8.68622E-05-4.71598E-04 1.49744E-25-7.12871E-04 3.04597E-13 1.67526E-13
 -1        51-2.07732E-04 1.25260E-03 1.56864E-25-7.47641E-04-2.73877E-13 1.74844E-13
 -1        52-8.56006E-04 4.23623E-03 4.64905E-26-1.38986E-03-1.32584E-13-1.37573E-13
 -1        53-2.02817E-03 8.55330E-03 1.10530E-27-1.42173E-03 1.70301E-14-7.31387E-14
 -1        54-2.85668E-03 1.19078E-02 1.78096E-26-7.31412E-04 5.30003E-14 1.04668E-13
 -1        55-2.97376E-03 1.28692E-02 6.89136E-26 3.45119E-05 1.38224E-14 1.87133E-13
 -1        56-2.77010E-03 1.21382E-02 6.21443E-26 3.81931E-04-5.26475E-14 1.81358E-13
 -1        57-2.59383E-03 1.11016E-02 6.04387E-27 3.49333E-04-8.87780E-14-2.12185E-14
 -1        58-2.47046E-03 1.05060E-02 1.87262E-26 1.56359E-04-1.69007E-14-1.03081E-13
 -1        59-2.46864E-03 1.04611E-02 1.19412E-26 2.92032E-05 5.36818E-14-7.17541E-14
 -1        60-2.51480E-03 1.05536E-02 3.27171E-27 1.46792E-04 4.14699E-14 3.85442E-14
 -1        61-2.49991E-03 1.01198E-02 8.80019E-27 4.34903E-04-7.10048E-15 8.17475E-14
 -1        62-2.25043E-03 8.73119E-03 7.37579E-27 7.45435E-04-8.54705E-14-4.82822E-14
 -1        63-1.70319E-03 6.36318E-03 1.02920E-25 1.02600E-03-1.55629E-13-1.80638E-13
 -1        64-1.00556E-03 3.30008E-03 1.88323E-25 1.23013E-03-1.36079E-13-2.82302E-13
 -1        65-3.01442E-04-2.78921E-04 2.52803E-25 1.40280E-03-5.27627E-14-3.58077E-13
 -1        66 5.94379E-04-4.45795E-03 4.50295E-25 1.60970E-03 6.86357E-14-4.73322E-13
 -1        67 1.68161E-03-9.25519E-03 3.11749E-25 1.91918E-03 1.66667E-13-3.75177E-13
 -1        68 2.57065E-03-1.49170E-02 2.12840E-26 1.97118E-03 1.24747E-13-8.15652E-14
 -1        69 5.18794E-03-2.03495E-02 2.33973E-27 3.28225E-03 4.19681E-14-2.93289E-14
 -1        70-2.07732E-04 1.25260E-03 1.56882E-25-7.47641E-04-2.73877E-13 1.74861E-13
 -1        71-8.56006E-04 4.23623E-03 4.64902E-26-1.38986E-03-1.32584E-13-1.37574E-13
 -1        72-2.02817E-03 8.55330E-03 1.10565E-27-1.42173E-03 1.70302E-14-7.31400E-14
 -1        73-2.85668E-03 1.19078E-02 1.78091E-26-7.31412E-04 5.30000E-14 1.04667E-13
 -1        74-2.97376E-03 1.28692E-02 6.89137E-26 3.45119E-05 1.38225E-14 1.87133E-13
 -1        75-2.77010E-03 1.21382E-02 6.21443E-26 3.81931E-04-5.26475E-14 1.81358E-13
 -1        76-2.59383E-03 1.11016E-02 6.04380E-27 3.49333E-04-8.87782E-14-2.12178E-14
 -1        77-2.47046E-03 1.05060E-02 1.87272E-26 1.56359E-04-1.69003E-14-1.03084E-13
 -1        78-2.46864E-03 1.04611E-02 1.19375E-26 2.92032E-05 5.36817E-14-7.17428E-14
 -1        79-2.51480E-03 1.05536E-02 3.27222E-27 1.46792E-04 4.14699E-14 3.85460E-14
 -1        80-2.49991E-03 1.01198E-02 8.79835E-27 4.34903E-04-7.10070E-15 8.17412E-14
 -1        81-2.25043E-03 8.73119E-03 7.37600E-27 7.45435E-04-8.54706E-14-4.82826E-14
 -1        82-1.70319E-03 6.36318E-03 1.02919E-25 1.02600E-03-1.55628E-13-1.80637E-13
 -1        83-1.00556E-03 3.30008E-03 1.88323E-25 1.23013E-03-1.36079E-13-2.82301E-13
 -1        84-3.01442E-04-2.78921E-04 2.52801E-25 1.40280E-03-5.27628E-14-3.58076E-13
 -1        85 5.94379E-04-4.45795E-03 4.50305E-25 1.60970E-03 6.86359E-14-4.73327E-13
 -1        86 1.68161E-03-9.25519E-03 3.11752E-25 1.91918E-03 1.66667E-13-3.75179E-13
 -1        87 2.57065E-03-1.49170E-02 2.12840E-26 1.97118E-03 1.24747E-13-8.15651E-14
 -1        88 5.18794E-03-2.03495E-02 2.33974E-27 3.28225E-03 4.19681E-14-2.93289E-14
 -1        89-6.82506E-04 9.81027E-04-8.81700E-29 2.52933E-03-1.82040E-14-1.26312E-14
 -1        90-7.18706E-04 1.18900E-03-1.17457E-26 2.83144E-03-2.75052E-14-5.21289E-14
 -1        91-6.35042E-04 1.18040E-03 1.86618E-25 2.41225E-03 9.00248E-15-3.26062E-13
 -1        92-6.60787E-04 1.24058E-03 4.63826E-25 2.10294E-03 4.74426E-14-4.81676E-13
 -1        93-6.78593E-04 1.29226E-03 3.41917E-25 1.81016E-03 1.66014E-14-4.14978E-13
 -1        94-6.42588E-04 1.27602E-03 2.11854E-25 1.58420E-03-3.67530E-14-3.30926E-13
 -1        95-6.51183E-04 1.25437E-03 4.45357E-26 1.32957E-03-3.56756E-14-1.68908E-13
 -1        96-6.62813E-04 1.21471E-03-7.44937E-27 9.49545E-04 2.40185E-14-1.84239E-14
 -1        97-6.00640E-04 1.11021E-03 1.17391E-26 5.17755E-04 3.26120E-14 7.76496E-14
 -1        98-5.40873E-04 9.96361E-04 1.73979E-27 1.48664E-04 3.66946E-15 4.59680E-14
 -1        99-5.04959E-04 9.30572E-04 4.56602E-27 1.72646E-05-4.68023E-15-6.53281E-14
 -1       100-4.98732E-04 8.98293E-04 3.86513E-26 1.86671E-04-2.98004E-14-1.42638E-13
 -1       101-4.81129E-04 8.39958E-04-1.20202E-26 4.34302E-04-2.32901E-14-1.53001E-14
 -1       102-4.23492E-04 7.33246E-04 8.15310E-26 4.90795E-04 1.48302E-14 2.13549E-13
 -1       103-3.75120E-04 6.52285E-04 7.97514E-26 5.21439E-05-3.00466E-15 2.01393E-13
 -1       104-4.01685E-04 6.30448E-04 2.22818E-26-9.69153E-04-4.20026E-14 1.18185E-13
 -1       105-3.37013E-04 5.83814E-04 3.14600E-27-1.88284E-03-3.81227E-14-6.19420E-14
 -1       106-1.96340E-04 4.96119E-04 3.14552E-26-1.79280E-03-2.72252E-14-1.59656E-13
 -1       107-1.47297E-04 4.46206E-04-2.44287E-26-9.14735E-04-2.73564E-14 1.49422E-13
 -1       108-1.47297E-04 4.46206E-04-2.44315E-26-9.14735E-04-2.73561E-14 1.49418E-13
 -1       109-1.96340E-04 4.96119E-04 3.14563E-26-1.79280E-03-2.72252E-14-1.59656E-13
 -1       110-3.37013E-04 5.83814E-04 3.14520E-27-1.88284E-03-3.81228E-14-6.19387E-14
 -1       111-4.01685E-04 6.30448E-04 2.22823E-26-9.69153E-04-4.20026E-14 1.18186E-13
 -1       112-3.75120E-04 6.52285E-04 7.97522E-26 5.21439E-05-3.00468E-15 2.01394E-13
 -1       113-4.23492E-04 7.33246E-04 8.15313E-26 4.90795E-04 1.48301E-14 2.13550E-13
 -1       114-4.81129E-04 8.39958E-04-1.20200E-26 4.34302E-04-2.32900E-14-1.53016E-14
 -1       115-4.98732E-04 8.98293E-04 3.86487E-26 1.86671E-04-2.98004E-14-1.42633E-13
 -1       116-5.04959E-04 9.30572E-04 4.56554E-27 1.72646E-05-4.68025E-15-6.53259E-14
 -1       117-5.40873E-04 9.96361E-04 1.73972E-27 1.48664E-04 3.66948E-15 4.59678E-14
 -1       118-6.00640E-04 1.11021E-03 1.17392E-26 5.17755E-04 3.26119E-14 7.76499E-14
 -1       119-6.62813E-04 1.21471E-03-7.44932E-27 9.49546E-04 2.40186E-14-1.84237E-14
 -1       120-6.51183E-04 1.25437E-03 4.45360E-26 1.32957E-03-3.56755E-14-1.68909E-13
 -1       121-6.42588E-04 1.27602E-03 2.11854E-25 1.58420E-03-3.67532E-14-3.30926E-13
 -1       122-6.78593E-04 1.29226E-03 3.41918E-25 1.81016E-03 1.66014E-14-4.14979E-13
 -1       123-6.60787E-04 1.24058E-03 4.63825E-25 2.10294E-03 4.74427E-14-4.81676E-13
 -1       124-6.35042E-04 1.18040E-03 1.86618E-25 2.41225E-03 9.00258E-15-3.26062E-13
 -1       125-7.18706E-04 1.18900E-03-1.17454E-26 2.83144E-03-2.75052E-14-5.21296E-14
 -1       126-6.82506E-04 9.81027E-04-8.81759E-29 2.52933E-03-1.82041E-14-1.26312E-14
 -3
    1PSTEP                        84          21           1          
  100CL  121 2.10000E-01         126                     1   21           1
 -4  ERROR       1    1
 -5  STR(%)      1    1    0    0
 -1         1 6.21921E+01
 -1         2 6.21921E+01
 -1         3 1.54926E+01
 -1         4 1.54926E+01
 -1         5 1.51834E+01
 -1         6 1.51834E+01
 -1         7 6.55335E+01
 -1         8 6.55335E+01
 -1         9 1.54926E+01
 -1        10 1.54926E+01
 -1        11 6.55335E+01
 -1        12 6.55335E+01
 -1        13 6.21921E+01
 -1        14 5.75105E+01
 -1        15 5.55430E+01
 -1        16 4.97584E+01
 -1        17 3.33892E+01
 -1        18 5.82884E+01
 -1        19 7.56141E+01
 -1        20 7.56141E+01
 -1        21 7.30859E+01
 -1        22 6.83963E+01
 -1        23 6.61083E+01
 -1        24 6.71008E+01
 -1        25 6.71008E+01
 -1        26 6.64316E+01
 -1        27 6.43200E+01
 -1        28 6.56821E+01
 -1        29 6.56821E+01
 -1        30 5.49240E+01
 -1        31 3.33221E+01
 -1        32 6.21921E+01
 -1        33 5.75105E+01
 -1        34 5.55430E+01
 -1        35 4.97584E+01
 -1        36 3.33892E+01
 -1        37 5.82884E+01
 -1        38 7.56141E+01
 -1        39 7.56141E+01
 -1        40 7.30859E+01
 -1        41 6.83963E+01
 -1        42 6.61083E+01
 -1        43 6.71008E+01
 -1        44 6.71008E+01
 -1        45 6.64316E+01
 -1        46 6.43200E+01
 -1        47 6.56821E+01
 -1        48 6.56821E+01
 -1        49 5.49240E+01
 -1        50 3.33221E+01
 -1        51 2.40186E+01
 -1        52 4.62607E+01
 -1        53 5.71665E+01
 -1        54 5.71665E+01
 -1        55 5.71182E+01
 -1        56 5.71182E+01
 -1        57 5.64116E+01
 -1        58 5.49263E+01
 -1        59 5.37392E+01
 -1        60 5.37325E+01
 -1        61 5.37325E+01
 -1        62 5.28705E+01
 -1        63 4.93363E+01
 -1        64 3.78235E+01
 -1        65 8.19811E+01
 -1        66 8.19811E+01
 -1        67 6.73228E+01
 -1        68 6.73228E+01
 -1        69 6.61388E+01
 -1        70 2.40186E+01
 -1        71 4.62607E+01
 -1        72 5.71665E+01
 -1        73 5.71665E+01
 -1        74 5.71182E+01
 -1        75 5.71182E+01
 -1        76 5.64116E+01
 -1        77 5.49263E+01
 -1        78 5.37392E+01
 -1        79 5.37325E+01
 -1        80 5.37325E+01
 -1        81 5.28705E+01
 -1        82 4.93363E+01
 -1        83 3.78235E+01
 -1        84 8.19811E+01
 -1        85 8.19811E+01
 -1        86 6.73228E+01
 -1        87 6.73228E+01
 -1        88 6.61388E+01
 -1        89 6.61388E+01
 -1        90 6.73228E+01
 -1        91 6.73228E+01
 -1        92 8.19811E+01
 -1        93 8.19811E+01
 -1        94 5.82884E+01
 -1        95 7.56141E+01
 -1        96 7.56141E+01
 -1        97 7.30859E+01
 -1        98 6.83963E+01
 -1        99 6.61083E+01
 -1       100 6.71008E+01
 -1       101 6.71008E+01
 -1       102 6.64316E+01
 -1       103 6.43200E+01
 -1       104 6.56821E+01
 -1       105 6.56821E+01
 -1       106 5.49240E+01
 -1       107 3.33221E+01
 -1       108 3.33221E+01
 -1       109 5.49240E+01
 -1       110 6.56821E+01
 -1       111 6.56821E+01
 -1       112 6.43200E+01
 -1       113 6.64316E+01
 -1       114 6.71008E+01
 -1       115 6.71008E+01
 -1       116 6.61083E+01
 -1       117 6.83963E+01
 -1       118 7.30859E+01
 -1       119 7.56141E+01
 -1       120 7.56141E+01
 -1       121 5.82884E+01
 -1       122 8.19811E+01
 -1       123 8.19811E+01
 -1       124 6.73228E+01
 -1       125 6.73228E+01
 -1       126 6.61388E+01
 -3
    1PSTEP                        85          22           1          
  100CL  122 2.20000E-01         126                     1   22           1
 -4  DISP        4    1
 -5  D1          1    2    1    0
 -5  D2          1    2    2    0
 -5  D3          1    2    3    0
 -5  ALL         1    2    0    0    1ALL
 -1         1 0.00000E+00 0.00000E+00 0.00000E+00
 -1         2 0.00000E+00 0.00000E+00 0.00000E+00
 -1         3 2.42449E-02-2.61163E-03 0.00000E+00
 -1         4 2.42449E-02-2.61163E-03 0.00000E+00
 -1         5 2.41533E-02 1.72266E-03 0.00000E+00
 -1         6 2.41533E-02 1.72266E-03 0.00000E+00
 -1         7 0.00000E+00 0.00000E+00 0.00000E+00
 -1         8 0.00000E+00 0.00000E+00 0.00000E+00
 -1         9 2.41978E-02-4.35880E-04 0.00000E+00
 -1        10 2.41978E-02-4.35880E-04 0.00000E+00
 -1        11 0.00000E+00 0.00000E+00 0.00000E+00
 -1        12 0.00000E+00 0.00000E+00 0.00000E+00
 -1        13 1.18652E-03 1.25771E-03 0.00000E+00
 -1        14 3.22814E-03 2.26194E-03 0.00000E+00
 -1        15 6.12457E-03 2.92327E-03 0.00000E+00
 -1        16 9.53263E-03 3.28798E-03 0.00000E+00
 -1        17 1.32051E-02 3.39757E-03 0.00000E+00
 -1        18 1.69181E-02 3.30225E-03 0.00000E+00
 -1        19 2.04777E-02 3.04962E-03 0.00000E+00
 -1        20 2.37488E-02 2.68585E-03 0.00000E+00
 -1        21 2.66148E-02 2.26295E-03 0.00000E+00
 -1        22 2.90355E-02 1.82490E-03 0.00000E+00
 -1        23 3.10186E-02 1.38079E-03 0.00000E+00
 -1        24 3.25611E-02 9.06532E-04 0.00000E+00
 -1        25 3.36188E-02 3.53478E-04 0.00000E+00
 -1        26 3.40439E-02-3.07556E-04 0.00000E+00
 -1        27 3.36707E-02-1.01974E-03 0.00000E+00
 -1        28 3.25120E-02-1.66200E-03 0.00000E+00
 -1        29 3.07595E-02-2.13773E-03 0.00000E+00
 -1        30 2.86672E-02-2.42378E-03 0.00000E+00
 -1        31 2.64462E-02-2.55668E-03 0.00000E+00
 -1        32 1.18652E-03 1.25771E-03 0.00000E+00
 -1        33 3.22814E-03 2.26194E-03 0.00000E+00
 -1        34 6.12457E-03 2.92327E-03 0.00000E+00
 -1        35 9.53263E-03 3.28798E-03 0.00000E+00
 -1        36 1.32051E-02 3.39757E-03 0.00000E+00
 -1        37 1.69181E-02 3.30225E-03 0.00000E+00
 -1        38 2.04777E-02 3.04962E-03 0.00000E+00
 -1        39 2.37488E-02 2.68585E-03 0.00000E+00
 -1        40 2.66148E-02 2.26295E-03 0.00000E+00
 -1        41 2.90355E-02 1.82490E-03 0.00000E+00
 -1        42 3.10186E-02 1.38079E-03 0.00000E+00
 -1        43 3.25611E-02 9.06532E-04 0.00000E+00
 -1        44 3.36188E-02 3.53478E-04 0.00000E+00
 -1        45 3.40439E-02-3.07556E-04 0.00000E+00
 -1        46 3.36707E-02-1.01974E-03 0.00000E+00
 -1        47 3.25120E-02-1.66200E-03 0.00000E+00
 -1        48 3.07595E-02-2.13773E-03 0.00000E+00
 -1        49 2.86672E-02-2.42378E-03 0.00000E+00
 -1        50 2.64462E-02-2.55668E-03 0.00000E+00
 -1        51 2.63522E-02 1.74486E-03 0.00000E+00
 -1        52 2.85829E-02 1.68486E-03 0.00000E+00
 -1        53 3.07007E-02 1.46302E-03 0.00000E+00
 -1        54 3.24772E-02 1.03232E-03 0.00000E+00
 -1        55 3.36548E-02 4.05323E-04 0.00000E+00
 -1        56 3.40349E-02-3.24114E-04 0.00000E+00
 -1        57 3.35930E-02-1.01960E-03 0.00000E+00
 -1        58 3.25056E-02-1.60898E-03 0.00000E+00
 -1        59 3.09266E-02-2.11345E-03 0.00000E+00
 -1        60 2.89000E-02-2.57176E-03 0.00000E+00
 -1        61 2.64336E-02-2.99493E-03 0.00000E+00
 -1        62 2.35252E-02-3.35991E-03 0.00000E+00
 -1        63 2.02141E-02-3.61904E-03 0.00000E+00
 -1        64 1.66249E-02-3.73109E-03 0.00000E+00
 -1        65 1.29134E-02-3.66537E-03 0.00000E+00
 -1        66 9.26874E-03-3.40048E-03 0.00000E+00
 -1        67 5.90774E-03-2.91968E-03 0.00000E+00
 -1        68 3.07768E-03-2.20430E-03 0.00000E+00
 -1        69 1.10469E-03-1.20860E-03 0.00000E+00
 -1        70 2.63522E-02 1.74486E-03 0.00000E+00
 -1        71 2.85829E-02 1.68486E-03 0.00000E+00
 -1        72 3.07007E-02 1.46302E-03 0.00000E+00
 -1        73 3.24772E-02 1.03232E-03 0.00000E+00
 -1        74 3.36548E-02 4.05323E-04 0.00000E+00
 -1        75 3.40349E-02-3.24114E-04 0.00000E+00
 -1        76 3.35930E-02-1.01960E-03 0.00000E+00
 -1        77 3.25056E-02-1.60898E-03 0.00000E+00
 -1        78 3.09266E-02-2.11345E-03 0.00000E+00
 -1        79 2.89000E-02-2.57176E-03 0.00000E+00
 -1        80 2.64336E-02-2.99493E-03 0.00000E+00
 -1        81 2.35252E-02-3.35991E-03 0.00000E+00
 -1        82 2.02141E-02-3.61904E-03 0.00000E+00
 -1        83 1.66249E-02-3.73109E-03 0.00000E+00
 -1        84 1.29134E-02-3.66537E-03 0.00000E+00
 -1        85 9.26874E-03-3.40048E-03 0.00000E+00
 -1        86 5.90774E-03-2.91968E-03 0.00000E+00
 -1        87 3.07768E-03-2.20430E-03 0.00000E+00
 -1        88 1.10469E-03-1.20860E-03 0.00000E+00
 -1        89 8.38109E-04 2.94981E-05 0.00000E+00
 -1        90 2.97760E-03 3.98351E-05 0.00000E+00
 -1        91 5.89210E-03 1.16791E-05 0.00000E+00
 -1        92 9.33274E-03-5.10517E-05 0.00000E+00
 -1        93 1.30376E-02-1.33242E-04 0.00000E+00
 -1        94 1.67873E-02-2.15446E-04 0.00000E+00
 -1        95 2.03964E-02-2.87502E-04 0.00000E+00
 -1        96 2.37102E-02-3.42018E-04 0.00000E+00
 -1        97 2.66098E-02-3.70405E-04 0.00000E+00
 -1        98 2.90560E-02-3.75643E-04 0.00000E+00
 -1        99 3.10686E-02-3.67630E-04 0.00000E+00
 -1       100 3.26415E-02-3.52191E-04 0.00000E+00
 -1       101 3.37363E-02-3.33316E-04 0.00000E+00
 -1       102 3.41867E-02-3.14540E-04 0.00000E+00
 -1       103 3.38085E-02-3.02385E-04 0.00000E+00
 -1       104 3.26092E-02-3.07502E-04 0.00000E+00
 -1       105 3.08017E-02-3.33152E-04 0.00000E+00
 -1       106 2.86558E-02-3.69178E-04 0.00000E+00
 -1       107 2.64062E-02-4.04440E-04 0.00000E+00
 -1       108 2.64062E-02-4.04440E-04 0.00000E+00
 -1       109 2.86558E-02-3.69178E-04 0.00000E+00
 -1       110 3.08017E-02-3.33152E-04 0.00000E+00
 -1       111 3.26092E-02-3.07502E-04 0.00000E+00
 -1       112 3.38085E-02-3.02385E-04 0.00000E+00
 -1       113 3.41867E-02-3.14540E-04 0.00000E+00
 -1       114 3.37363E-02-3.33316E-04 0.00000E+00
 -1       115 3.26415E-02-3.52191E-04 0.00000E+00
 -1       116 3.10686E-02-3.67630E-04 0.00000E+00
 -1       117 2.90560E-02-3.75643E-04 0.00000E+00
 -1       118 2.66098E-02-3.70405E-04 0.00000E+00
 -1       119 2.37102E-02-3.42018E-04 0.00000E+00
 -1       120 2.03964E-02-2.87502E-04 0.00000E+00
 -1       121 1.67873E-02-2.15446E-04 0.00000E+00
 -1       122 1.30376E-02-1.33242E-04 0.00000E+00
 -1       123 9.33274E-03-5.10517E-05 0.00000E+00
 -1       124 5.89210E-03 1.16791E-05 0.00000E+00
 -1       125 2.97760E-03 3.98351E-05 0.00000E+00
 -1       126 8.38109E-04 2.94981E-05 0.00000E+00
 -3
    1PSTEP                        86          22           1          
  100CL  122 2.20000E-01         126                     1   22           1
 -4  STRESS      6    1
 -5  SXX         1    4    1    1
 -5  SYY         1    4    2    2
 -5  SZZ         1    4    3    3
 -5  SXY         1    4    1    2
 -5  SYZ         1    4    2    3
 -5  SZX         1    4    3    1
 -1         1 5.94805E+03 1.40865E+04 5.79647E+03 3.94819E+03-3.44062E-10-3.73132E-10
 -1         2 5.94805E+03 1.40865E+04 5.79647E+03 3.94819E+03-3.44062E-10-3.73132E-10
 -1         3-2.05736E+01-7.54824E+01-2.88300E+01-7.74293E+01-2.18452E-08-4.71929E-08
 -1         4-2.05736E+01-7.54824E+01-2.88300E+01-7.74293E+01-2.18452E-08-4.71910E-08
 -1         5 1.53951E+02 2.80671E+02 1.30239E+02-1.27275E+02 4.58411E-08-9.17180E-08
 -1         6 1.53951E+02 2.80671E+02 1.30239E+02-1.27275E+02 4.58414E-08-9.17178E-08
 -1         7-5.46343E+03-1.25423E+04-5.58901E+03 3.14076E+03-3.45820E-10 3.18381E-10
 -1         8-5.46343E+03-1.25423E+04-5.58901E+03 3.14076E+03-3.45820E-10 3.18381E-10
 -1         9 1.03575E+02 1.81061E+02 8.52968E+01-1.28903E+02-2.60314E-09-5.54216E-08
 -1        10 1.03575E+02 1.81061E+02 8.52968E+01-1.28903E+02-2.60316E-09-5.54251E-08
 -1        11 2.31499E+02 2.67728E+02 1.68491E+02 2.58111E+03-2.98058E-10-3.09371E-11
 -1        12 2.31499E+02 2.67728E+02 1.68491E+02 2.58111E+03-2.98058E-10-3.09371E-11
 -1        13 1.85948E+03 1.12537E+04 3.81203E+03 1.35796E+03-3.77539E-08-8.32904E-08
 -1        14 2.05250E+03 8.86358E+03 3.19505E+03 9.41848E+02-2.44555E-08-1.49161E-07
 -1        15 1.33598E+03 5.93182E+03 2.14196E+03 8.95600E+02 1.41044E-08-1.75591E-07
 -1        16 8.10591E+02 3.44860E+03 1.26280E+03 7.19136E+02 3.19675E-08-1.58256E-07
 -1        17 2.76236E+02 1.28486E+03 4.64501E+02 5.38857E+02 3.75075E-08-1.22696E-07
 -1        18-2.12947E+02-5.27987E+02-2.23676E+02 3.54549E+02 3.64905E-08-8.67286E-08
 -1        19-5.22699E+02-1.93900E+03-7.42462E+02 1.92149E+02 2.68463E-08-7.03925E-08
 -1        20-7.87061E+02-2.95994E+03-1.13254E+03 5.79883E+01 1.59548E-08-4.72466E-08
 -1        21-9.60432E+02-3.54765E+03-1.36425E+03-3.79254E+01 2.53269E-09-3.83322E-08
 -1        22-1.06511E+03-3.86460E+03-1.49274E+03-5.77904E+01 1.03561E-09-5.09260E-08
 -1        23-1.10030E+03-4.18859E+03-1.60301E+03-1.08143E+01 1.67018E-08-6.85943E-08
 -1        24-1.24493E+03-4.84144E+03-1.84828E+03 7.93361E+01 4.08765E-08-3.39656E-08
 -1        25-1.44541E+03-5.81379E+03-2.21149E+03 1.34563E+02 5.75975E-08-2.62255E-09
 -1        26-1.61276E+03-6.59572E+03-2.50732E+03 5.74190E+01 3.92640E-08 8.04236E-08
 -1        27-1.53585E+03-6.43907E+03-2.43563E+03-1.10789E+02 7.04503E-09 1.06396E-07
 -1        28-1.20994E+03-5.18584E+03-1.94715E+03-2.51463E+02-1.40939E-08 1.09589E-07
 -1        29-7.51544E+02-3.34569E+03-1.24154E+03-3.10826E+02-2.89593E-08 7.27755E-08
 -1        30-3.93799E+02-1.62830E+03-6.09972E+02-2.86251E+02-3.97010E-08 1.53233E-08
 -1        31-1.23856E+02-4.69947E+02-1.78559E+02-1.73267E+02-3.21868E-08-3.01255E-08
 -1        32 1.85948E+03 1.12537E+04 3.81203E+03 1.35796E+03-3.77539E-08-8.32904E-08
 -1        33 2.05250E+03 8.86358E+03 3.19505E+03 9.41848E+02-2.44555E-08-1.49161E-07
 -1        34 1.33598E+03 5.93182E+03 2.14196E+03 8.95600E+02 1.41044E-08-1.75591E-07
 -1        35 8.10591E+02 3.44860E+03 1.26280E+03 7.19136E+02 3.19675E-08-1.58256E-07
 -1        36 2.76236E+02 1.28486E+03 4.64501E+02 5.38857E+02 3.75075E-08-1.22696E-07
 -1        37-2.12947E+02-5.27987E+02-2.23676E+02 3.54549E+02 3.64905E-08-8.67281E-08
 -1        38-5.22699E+02-1.93900E+03-7.42462E+02 1.92149E+02 2.68462E-08-7.03948E-08
 -1        39-7.87061E+02-2.95994E+03-1.13254E+03 5.79883E+01 1.59548E-08-4.72466E-08
 -1        40-9.60432E+02-3.54765E+03-1.36425E+03-3.79254E+01 2.53266E-09-3.83326E-08
 -1        41-1.06511E+03-3.86460E+03-1.49274E+03-5.77904E+01 1.03564E-09-5.09259E-08
 -1        42-1.10030E+03-4.18859E+03-1.60301E+03-1.08143E+01 1.67018E-08-6.85943E-08
 -1        43-1.24493E+03-4.84144E+03-1.84828E+03 7.93361E+01 4.08765E-08-3.39656E-08
 -1        44-1.44541E+03-5.81379E+03-2.21149E+03 1.34563E+02 5.75975E-08-2.62277E-09
 -1        45-1.61276E+03-6.59572E+03-2.50732E+03 5.74190E+01 3.92640E-08 8.04237E-08
 -1        46-1.53585E+03-6.43907E+03-2.43563E+03-1.10789E+02 7.04502E-09 1.06396E-07
 -1        47-1.20994E+03-5.18584E+03-1.94715E+03-2.51463E+02-1.40939E-08 1.09589E-07
 -1        48-7.51544E+02-3.34569E+03-1.24154E+03-3.10826E+02-2.89596E-08 7.27749E-08
 -1        49-3.93799E+02-1.62830E+03-6.09972E+02-2.86251E+02-3.97008E-08 1.53234E-08
 -1        50-1.23856E+02-4.69947E+02-1.78559E+02-1.73267E+02-3.21868E-08-3.01255E-08
 -1        51 2.46890E+02 6.79591E+02 2.77156E+02-2.12193E+02 3.78686E-08-1.42727E-08
 -1        52 5.69524E+02 1.86433E+03 7.25781E+02-4.00524E+02 4.08156E-08 2.49168E-08
 -1        53 9.77672E+02 3.60898E+03 1.36181E+03-5.19464E+02 3.67900E-08 6.98727E-08
 -1        54 1.34735E+03 5.47125E+03 2.01509E+03-4.86744E+02 1.84971E-08 1.05167E-07
 -1        55 1.58363E+03 6.81960E+03 2.47502E+03-2.61488E+02-1.00073E-08 1.09694E-07
 -1        56 1.67508E+03 7.12784E+03 2.59118E+03 6.76853E+01-4.09969E-08 8.83562E-08
 -1        57 1.51855E+03 6.46085E+03 2.35333E+03 2.81393E+02-5.25016E-08 1.58709E-08
 -1        58 1.33030E+03 5.60766E+03 2.05102E+03 2.94975E+02-4.00940E-08-5.52496E-08
 -1        59 1.18777E+03 5.08306E+03 1.85601E+03 2.47665E+02-1.40368E-08-5.76825E-08
 -1        60 1.12583E+03 4.84782E+03 1.76878E+03 2.40594E+02 8.94758E-09-4.67902E-08
 -1        61 1.02197E+03 4.56682E+03 1.65538E+03 2.90836E+02 3.55717E-09-4.18574E-08
 -1        62 9.16054E+02 3.98069E+03 1.45217E+03 3.80525E+02-1.13610E-08-4.18028E-08
 -1        63 6.91345E+02 2.92765E+03 1.07570E+03 4.45186E+02-1.25970E-08-8.05117E-08
 -1        64 3.66320E+02 1.45515E+03 5.42634E+02 4.56553E+02-1.08074E-08-1.06509E-07
 -1        65-6.43412E+01-3.78273E+02-1.34538E+02 4.38432E+02-2.53904E-09-1.24411E-07
 -1        66-5.65152E+02-2.50646E+03-9.29032E+02 4.02808E+02 7.90298E-09-1.50571E-07
 -1        67-1.15296E+03-4.91433E+03-1.84538E+03 3.84731E+02 1.77002E-08-1.68162E-07
 -1        68-1.99945E+03-7.74642E+03-2.98554E+03 3.38953E+02 3.36452E-08-1.61399E-07
 -1        69-1.85978E+03-1.00252E+04-3.66797E+03 7.85398E+02 3.14582E-08-7.65863E-08
 -1        70 2.46890E+02 6.79591E+02 2.77156E+02-2.12193E+02 3.78685E-08-1.42732E-08
 -1        71 5.69524E+02 1.86433E+03 7.25781E+02-4.00524E+02 4.08156E-08 2.49166E-08
 -1        72 9.77672E+02 3.60898E+03 1.36181E+03-5.19464E+02 3.67900E-08 6.98727E-08
 -1        73 1.34735E+03 5.47125E+03 2.01509E+03-4.86744E+02 1.84970E-08 1.05163E-07
 -1        74 1.58363E+03 6.81960E+03 2.47502E+03-2.61488E+02-1.00073E-08 1.09695E-07
 -1        75 1.67508E+03 7.12784E+03 2.59118E+03 6.76853E+01-4.09969E-08 8.83562E-08
 -1        76 1.51855E+03 6.46085E+03 2.35333E+03 2.81393E+02-5.25016E-08 1.58708E-08
 -1        77 1.33030E+03 5.60766E+03 2.05102E+03 2.94975E+02-4.00939E-08-5.52531E-08
 -1        78 1.18777E+03 5.08306E+03 1.85601E+03 2.47665E+02-1.40368E-08-5.76816E-08
 -1        79 1.12583E+03 4.84782E+03 1.76878E+03 2.40594E+02 8.94744E-09-4.67907E-08
 -1        80 1.02197E+03 4.56682E+03 1.65538E+03 2.90836E+02 3.55695E-09-4.18557E-08
 -1        81 9.16054E+02 3.98069E+03 1.45217E+03 3.80525E+02-1.13610E-08-4.18028E-08
 -1        82 6.91345E+02 2.92765E+03 1.07570E+03 4.45186E+02-1.25968E-08-8.05117E-08
 -1        83 3.66320E+02 1.45515E+03 5.42634E+02 4.56553E+02-1.08075E-08-1.06509E-07
 -1        84-6.43412E+01-3.78273E+02-1.34538E+02 4.38432E+02-2.53875E-09-1.24410E-07
 -1        85-5.65152E+02-2.50646E+03-9.29032E+02 4.02808E+02 7.90318E-09-1.50570E-07
 -1        86-1.15296E+03-4.91433E+03-1.84538E+03 3.84731E+02 1.77002E-08-1.68162E-07
 -1        87-1.99945E+03-7.74642E+03-2.98554E+03 3.38953E+02 3.36452E-08-1.61399E-07
 -1        88-1.85978E+03-1.00252E+04-3.66797E+03 7.85398E+02 3.14582E-08-7.65863E-08
 -1        89 4.90485E+01 2.33361E+02 9.08083E+01 7.89013E+02-2.04003E-09-7.25991E-08
 -1        90 9.94537E+01 3.48909E+02 1.42266E+02 9.11308E+02 9.01902E-09-1.56398E-07
 -1        91 1.22470E+02 3.80660E+02 1.52852E+02 7.97959E+02 2.13951E-08-1.72285E-07
 -1        92 1.43870E+02 4.02141E+02 1.63427E+02 7.15002E+02 1.83513E-08-1.61087E-07
 -1        93 1.26445E+02 4.29020E+02 1.65417E+02 6.16296E+02 1.07634E-08-1.27420E-07
 -1        94 9.83982E+01 4.52234E+02 1.64204E+02 5.15719E+02 1.12034E-08-9.30032E-08
 -1        95 9.85691E+01 4.60081E+02 1.67403E+02 4.04981E+02 1.33248E-08-7.51377E-08
 -1        96 7.55038E+01 4.63093E+02 1.62256E+02 2.70455E+02 5.20894E-09-4.11740E-08
 -1        97 4.52475E+01 4.67218E+02 1.55245E+02 1.46456E+02 1.50123E-09-3.52105E-08
 -1        98 4.39079E+01 4.41634E+02 1.48020E+02 1.04285E+02 4.20102E-09-5.55301E-08
 -1        99 5.49206E+01 3.78294E+02 1.32864E+02 1.46288E+02 4.01468E-10-6.49761E-08
 -1       100 5.56593E+01 2.92140E+02 1.08233E+02 2.37323E+02 6.28884E-09-5.06540E-08
 -1       101 5.35714E+01 2.00299E+02 8.06999E+01 2.66076E+02 7.84868E-09 1.04134E-08
 -1       102 5.41547E+01 1.23273E+02 5.76040E+01 8.59992E+01-5.01388E-09 8.35996E-08
 -1       103 5.18258E+01 6.42261E+01 3.84036E+01-2.34280E+02-5.86208E-09 1.17969E-07
 -1       104 8.66422E+01 3.95872E+01 4.03054E+01-4.80070E+02 1.08117E-09 1.10389E-07
 -1       105 1.18262E+02 5.53212E+01 5.29824E+01-5.41923E+02 6.84620E-09 7.16143E-08
 -1       106 9.80991E+01 9.76187E+01 5.87734E+01-4.41991E+02 8.70788E-09 2.40778E-08
 -1       107 8.87035E+01 1.51475E+02 7.19184E+01-2.42470E+02 5.60005E-10-2.61074E-08
 -1       108 8.87035E+01 1.51475E+02 7.19184E+01-2.42470E+02 5.60058E-10-2.61076E-08
 -1       109 9.80991E+01 9.76187E+01 5.87734E+01-4.41991E+02 8.70788E-09 2.40784E-08
 -1       110 1.18262E+02 5.53212E+01 5.29824E+01-5.41923E+02 6.84624E-09 7.16143E-08
 -1       111 8.66422E+01 3.95872E+01 4.03054E+01-4.80070E+02 1.08118E-09 1.10390E-07
 -1       112 5.18258E+01 6.42261E+01 3.84036E+01-2.34280E+02-5.86208E-09 1.17969E-07
 -1       113 5.41547E+01 1.23273E+02 5.76040E+01 8.59992E+01-5.01388E-09 8.35997E-08
 -1       114 5.35714E+01 2.00299E+02 8.06999E+01 2.66076E+02 7.84871E-09 1.04135E-08
 -1       115 5.56593E+01 2.92140E+02 1.08233E+02 2.37323E+02 6.28883E-09-5.06535E-08
 -1       116 5.49206E+01 3.78294E+02 1.32864E+02 1.46288E+02 4.01471E-10-6.49762E-08
 -1       117 4.39079E+01 4.41634E+02 1.48020E+02 1.04285E+02 4.20100E-09-5.55302E-08
 -1       118 4.52475E+01 4.67218E+02 1.55245E+02 1.46456E+02 1.50132E-09-3.52098E-08
 -1       119 7.55038E+01 4.63093E+02 1.62256E+02 2.70455E+02 5.20892E-09-4.11740E-08
 -1       120 9.85691E+01 4.60081E+02 1.67403E+02 4.04981E+02 1.33248E-08-7.51371E-08
 -1       121 9.83982E+01 4.52234E+02 1.64204E+02 5.15719E+02 1.12033E-08-9.30044E-08
 -1       122 1.26445E+02 4.29020E+02 1.65417E+02 6.16296E+02 1.07633E-08-1.27420E-07
 -1       123 1.43870E+02 4.02141E+02 1.63427E+02 7.15002E+02 1.83512E-08-1.61088E-07
 -1       124 1.22470E+02 3.80660E+02 1.52852E+02 7.97959E+02 2.13951E-08-1.72285E-07
 -1       125 9.94537E+01 3.48909E+02 1.42266E+02 9.11308E+02 9.01902E-09-1.56397E-07
 -1       126 4.90485E+01 2.33361E+02 9.08083E+01 7.89013E+02-2.04003E-09-7.25991E-08
 -3
    1PSTEP                        87          22           1          
  100CL  122 2.20000E-01         126                     1   22           1
 -4  TOSTRAIN    6    1
 -5  EXX         1    4    1    1
 -5  EYY         1    4    2    2
 -5  EZZ         1    4    3    3
 -5  EXY         1    4    1    2
 -5  EYZ         1    4    2    3
 -5  EZX         1    4    3    1
 -1         1-5.42158E-05 2.56973E-02-2.80162E-26 1.18650E-02 9.46138E-19-7.77971E-16
 -1         2-5.42158E-05 2.56973E-02-2.80162E-26 1.18650E-02 9.46138E-19-7.77971E-16
 -1         3 4.35698E-06-1.29312E-04 5.44330E-26-2.58599E-04-6.42650E-14-1.56364E-13
 -1         4 4.35698E-06-1.29312E-04 5.44292E-26-2.58599E-04-6.42653E-14-1.56358E-13
 -1         5 4.15379E-05 5.23139E-04 1.88813E-25-3.93575E-04 1.61583E-13-2.91161E-13
 -1         6 4.15379E-05 5.23139E-04 1.88813E-25-3.93575E-04 1.61584E-13-2.91160E-13
 -1         7-5.35582E-05-2.36887E-02-2.38523E-26 1.10467E-02-6.09721E-19 6.75389E-16
 -1         8-5.35582E-05-2.36887E-02-2.38523E-26 1.10467E-02-6.09721E-19 6.75389E-16
 -1         9 2.29474E-05 3.46783E-04 5.55607E-26-4.05951E-04-6.42931E-16-1.80281E-13
 -1        10 2.29474E-05 3.46783E-04 5.55677E-26-4.05951E-04-6.42516E-16-1.80292E-13
 -1        11-5.38870E-05 6.76692E-04-1.78526E-26 8.38091E-03 1.76873E-19-5.06419E-17
 -1        12-5.38870E-05 6.76692E-04-1.78526E-26 8.38091E-03 1.76873E-19-5.06419E-17
 -1        13-6.68586E-03 2.33917E-02 1.46245E-25 3.46810E-03-1.25213E-13-2.66043E-13
 -1        14-4.03495E-03 1.80309E-02 4.65524E-25 1.97525E-03-9.86384E-14-4.78751E-13
 -1        15-2.95395E-03 1.23066E-02 6.52893E-25 1.96114E-03 1.22010E-14-5.71338E-13
 -1        16-1.76365E-03 7.26384E-03 5.48369E-25 1.71258E-03 6.85557E-14-5.19803E-13
 -1        17-8.51814E-04 2.87143E-03 3.41801E-25 1.49059E-03 9.30542E-14-4.06575E-13
 -1        18-1.39660E-04-8.27059E-04 1.82639E-25 1.21319E-03 9.85753E-14-2.89929E-13
 -1        19 5.99764E-04-3.80945E-03 1.17985E-25 9.32072E-04 7.21911E-14-2.34451E-13
 -1        20 1.05707E-03-5.94839E-03 5.06355E-26 6.20894E-04 4.28327E-14-1.56654E-13
 -1        21 1.28253E-03-7.17062E-03 3.04755E-26 3.24333E-04 1.66978E-15-1.25033E-13
 -1        22 1.37014E-03-7.80983E-03 5.36105E-26 2.16770E-04-4.00809E-15-1.65803E-13
 -1        23 1.60481E-03-8.51755E-03 1.00587E-25 3.21953E-04 4.69564E-14-2.25108E-13
 -1        24 1.91640E-03-9.87949E-03 5.09440E-26 5.63874E-04 1.31766E-13-1.14103E-13
 -1        25 2.43354E-03-1.19496E-02 4.95451E-26 6.46747E-04 1.90173E-13-1.13062E-14
 -1        26 2.84269E-03-1.36219E-02 1.47943E-25 1.91642E-04 1.30051E-13 2.61931E-13
 -1        27 2.84655E-03-1.33195E-02 2.35303E-25-6.04158E-04 1.82664E-14 3.46885E-13
 -1        28 2.30133E-03-1.06846E-02 2.53326E-25-1.19076E-03-5.61919E-14 3.55290E-13
 -1        29 1.49058E-03-6.84651E-03 1.16385E-25-1.33173E-03-1.03531E-13 2.32979E-13
 -1        30 6.13456E-04-3.24969E-03 2.04092E-26-1.10149E-03-1.31533E-13 4.42228E-14
 -1        31 1.25815E-04-8.98745E-04 3.31284E-26-6.11814E-04-1.00420E-13-1.02463E-13
 -1        32-6.68586E-03 2.33917E-02 1.46245E-25 3.46810E-03-1.25213E-13-2.66043E-13
 -1        33-4.03495E-03 1.80309E-02 4.65524E-25 1.97525E-03-9.86384E-14-4.78751E-13
 -1        34-2.95395E-03 1.23066E-02 6.52894E-25 1.96114E-03 1.22009E-14-5.71339E-13
 -1        35-1.76365E-03 7.26384E-03 5.48367E-25 1.71258E-03 6.85557E-14-5.19801E-13
 -1        36-8.51814E-04 2.87143E-03 3.41801E-25 1.49059E-03 9.30543E-14-4.06575E-13
 -1        37-1.39660E-04-8.27059E-04 1.82637E-25 1.21319E-03 9.85756E-14-2.89928E-13
 -1        38 5.99764E-04-3.80945E-03 1.17992E-25 9.32072E-04 7.21905E-14-2.34459E-13
 -1        39 1.05707E-03-5.94839E-03 5.06355E-26 6.20894E-04 4.28328E-14-1.56654E-13
 -1        40 1.28253E-03-7.17062E-03 3.04763E-26 3.24333E-04 1.66960E-15-1.25035E-13
 -1        41 1.37014E-03-7.80983E-03 5.36102E-26 2.16770E-04-4.00800E-15-1.65803E-13
 -1        42 1.60481E-03-8.51755E-03 1.00587E-25 3.21953E-04 4.69564E-14-2.25108E-13
 -1        43 1.91640E-03-9.87949E-03 5.09440E-26 5.63874E-04 1.31766E-13-1.14103E-13
 -1        44 2.43354E-03-1.19496E-02 4.95449E-26 6.46747E-04 1.90173E-13-1.13069E-14
 -1        45 2.84269E-03-1.36219E-02 1.47943E-25 1.91642E-04 1.30051E-13 2.61931E-13
 -1        46 2.84655E-03-1.33195E-02 2.35303E-25-6.04158E-04 1.82664E-14 3.46885E-13
 -1        47 2.30133E-03-1.06846E-02 2.53326E-25-1.19076E-03-5.61919E-14 3.55290E-13
 -1        48 1.49058E-03-6.84651E-03 1.16383E-25-1.33173E-03-1.03532E-13 2.32977E-13
 -1        49 6.13456E-04-3.24969E-03 2.04090E-26-1.10149E-03-1.31533E-13 4.42232E-14
 -1        50 1.25815E-04-8.98745E-04 3.31285E-26-6.11814E-04-1.00420E-13-1.02463E-13
 -1        51-1.56527E-04 1.35936E-03 1.63560E-26-6.23178E-04 1.24717E-13-4.08816E-14
 -1        52-6.13596E-04 3.76844E-03 3.81138E-26-1.11270E-03 1.28535E-13 8.65567E-14
 -1        53-1.37756E-03 7.30812E-03 1.22126E-25-1.35299E-03 1.10221E-13 2.31143E-13
 -1        54-2.28766E-03 1.10787E-02 2.36043E-25-1.19155E-03 5.01942E-14 3.42606E-13
 -1        55-2.98452E-03 1.37945E-02 2.52781E-25-5.91771E-04-3.68632E-14 3.54981E-13
 -1        56-3.04651E-03 1.43682E-02 1.82968E-25 2.10926E-04-1.30662E-13 2.86426E-13
 -1        57-2.77991E-03 1.30562E-02 2.98837E-26 6.73699E-04-1.67028E-13 5.40248E-14
 -1        58-2.40831E-03 1.13566E-02 7.94512E-26 5.90391E-04-1.32881E-13-1.75691E-13
 -1        59-2.23408E-03 1.03267E-02 7.15985E-26 3.50339E-04-5.15430E-14-1.85341E-13
 -1        60-2.15555E-03 9.86602E-03 4.65991E-26 2.40392E-04 2.20577E-14-1.52913E-13
 -1        61-2.14758E-03 9.36102E-03 3.68530E-26 3.27152E-04 4.32922E-15-1.36262E-13
 -1        62-1.87443E-03 8.19888E-03 3.56523E-26 6.14855E-04-4.46025E-14-1.33143E-13
 -1        63-1.42172E-03 6.10196E-03 1.33830E-25 9.36961E-04-5.78416E-14-2.58002E-13
 -1        64-7.71463E-04 3.13003E-03 2.37748E-25 1.21204E-03-5.91528E-14-3.42547E-13
 -1        65 1.35891E-05-5.93395E-04 3.24339E-25 1.48473E-03-3.68313E-14-4.02756E-13
 -1        66 9.60906E-04-4.97222E-03 4.77378E-25 1.73902E-03-7.17958E-15-4.90478E-13
 -1        67 2.02033E-03-9.96777E-03 6.03076E-25 2.00189E-03 2.58597E-14-5.50082E-13
 -1        68 2.98540E-03-1.57953E-02 5.61268E-25 2.00585E-03 8.79556E-14-5.30823E-13
 -1        69 5.60814E-03-2.13301E-02 1.18522E-25 3.36227E-03 9.94809E-14-2.52475E-13
 -1        70-1.56527E-04 1.35936E-03 1.63567E-26-6.23178E-04 1.24717E-13-4.08832E-14
 -1        71-6.13596E-04 3.76844E-03 3.81136E-26-1.11270E-03 1.28535E-13 8.65559E-14
 -1        72-1.37756E-03 7.30812E-03 1.22126E-25-1.35299E-03 1.10221E-13 2.31143E-13
 -1        73-2.28766E-03 1.10787E-02 2.36028E-25-1.19155E-03 5.01941E-14 3.42595E-13
 -1        74-2.98452E-03 1.37945E-02 2.52786E-25-5.91771E-04-3.68632E-14 3.54985E-13
 -1        75-3.04651E-03 1.43682E-02 1.82968E-25 2.10926E-04-1.30662E-13 2.86426E-13
 -1        76-2.77991E-03 1.30562E-02 2.98837E-26 6.73699E-04-1.67029E-13 5.40246E-14
 -1        77-2.40831E-03 1.13566E-02 7.94591E-26 5.90391E-04-1.32881E-13-1.75702E-13
 -1        78-2.23408E-03 1.03267E-02 7.15964E-26 3.50339E-04-5.15430E-14-1.85338E-13
 -1        79-2.15555E-03 9.86602E-03 4.65998E-26 2.40392E-04 2.20572E-14-1.52915E-13
 -1        80-2.14758E-03 9.36102E-03 3.68499E-26 3.27152E-04 4.32880E-15-1.36256E-13
 -1        81-1.87443E-03 8.19888E-03 3.56524E-26 6.14855E-04-4.46025E-14-1.33143E-13
 -1        82-1.42172E-03 6.10196E-03 1.33830E-25 9.36961E-04-5.78410E-14-2.58002E-13
 -1        83-7.71463E-04 3.13003E-03 2.37747E-25 1.21204E-03-5.91529E-14-3.42547E-13
 -1        84 1.35891E-05-5.93395E-04 3.24334E-25 1.48473E-03-3.68301E-14-4.02753E-13
 -1        85 9.60906E-04-4.97222E-03 4.77373E-25 1.73902E-03-7.17876E-15-4.90475E-13
 -1        86 2.02033E-03-9.96777E-03 6.03075E-25 2.00189E-03 2.58595E-14-5.50082E-13
 -1        87 2.98540E-03-1.57953E-02 5.61268E-25 2.00585E-03 8.79556E-14-5.30823E-13
 -1        88 5.60814E-03-2.13301E-02 1.18522E-25 3.36227E-03 9.94809E-14-2.52475E-13
 -1        89-5.38859E-04 8.82472E-04 8.56185E-26 2.53922E-03-1.21221E-14-2.35685E-13
 -1        90-5.24776E-04 1.10409E-03 5.03234E-25 2.90459E-03 6.68041E-15-5.09167E-13
 -1        91-4.66806E-04 1.11379E-03 6.37567E-25 2.51846E-03 3.66437E-14-5.63281E-13
 -1        92-4.01372E-04 1.10458E-03 5.53307E-25 2.23947E-03 2.44365E-14-5.26485E-13
 -1        93-4.19112E-04 1.13532E-03 3.40140E-25 1.90724E-03 5.61844E-15-4.15600E-13
 -1        94-4.55561E-04 1.16651E-03 1.80771E-25 1.57346E-03 1.50097E-14-3.04153E-13
 -1        95-4.10979E-04 1.13352E-03 1.19016E-25 1.22203E-03 2.68723E-14-2.46619E-13
 -1        96-4.08683E-04 1.10598E-03 3.35565E-26 7.93900E-04 8.78582E-15-1.34605E-13
 -1        97-4.32528E-04 1.09726E-03 2.54542E-26 3.99979E-04-1.17734E-15-1.14544E-13
 -1        98-3.92705E-04 1.02465E-03 6.45960E-26 2.79719E-04 5.65269E-15-1.80907E-13
 -1        99-3.14635E-04 8.79600E-04 8.80714E-26 4.36042E-04-6.17096E-15-2.11071E-13
 -1       100-2.45955E-04 7.00971E-04 4.21990E-26 7.48930E-04 1.61509E-14-1.65136E-13
 -1       101-1.73189E-04 5.03568E-04-2.35550E-26 8.55768E-04 2.58526E-14 3.34820E-14
 -1       102-1.01910E-04 3.27596E-04 1.30991E-25 2.78373E-04-1.62955E-14 2.71702E-13
 -1       103-6.89850E-05 2.13147E-04 2.92222E-25-7.60455E-04-2.44915E-14 3.83024E-13
 -1       104 6.83432E-06 1.52743E-04 2.53791E-25-1.56130E-03-6.12832E-15 3.58657E-13
 -1       105 5.65087E-05 1.66066E-04 9.90006E-26-1.76267E-03 1.38801E-14 2.33401E-13
 -1       106-6.99835E-08 2.52657E-04-6.29900E-28-1.43039E-03 2.50743E-14 7.94152E-14
 -1       107-1.53557E-05 3.26777E-04 4.16928E-27-7.75514E-04 5.46823E-15-8.46684E-14
 -1       108-1.53557E-05 3.26777E-04 4.16862E-27-7.75514E-04 5.46843E-15-8.46690E-14
 -1       109-6.99833E-08 2.52657E-04-6.29656E-28-1.43039E-03 2.50742E-14 7.94174E-14
 -1       110 5.65087E-05 1.66066E-04 9.90008E-26-1.76267E-03 1.38803E-14 2.33401E-13
 -1       111 6.83432E-06 1.52743E-04 2.53793E-25-1.56130E-03-6.12833E-15 3.58658E-13
 -1       112-6.89850E-05 2.13147E-04 2.92220E-25-7.60455E-04-2.44915E-14 3.83023E-13
 -1       113-1.01910E-04 3.27596E-04 1.30991E-25 2.78373E-04-1.62955E-14 2.71702E-13
 -1       114-1.73189E-04 5.03568E-04-2.35549E-26 8.55768E-04 2.58527E-14 3.34825E-14
 -1       115-2.45955E-04 7.00971E-04 4.21979E-26 7.48930E-04 1.61509E-14-1.65134E-13
 -1       116-3.14635E-04 8.79600E-04 8.80717E-26 4.36042E-04-6.17096E-15-2.11071E-13
 -1       117-3.92705E-04 1.02465E-03 6.45963E-26 2.79719E-04 5.65259E-15-1.80908E-13
 -1       118-4.32528E-04 1.09726E-03 2.54532E-26 3.99979E-04-1.17694E-15-1.14542E-13
 -1       119-4.08683E-04 1.10598E-03 3.35566E-26 7.93900E-04 8.78573E-15-1.34605E-13
 -1       120-4.10979E-04 1.13352E-03 1.19014E-25 1.22203E-03 2.68724E-14-2.46617E-13
 -1       121-4.55561E-04 1.16651E-03 1.80776E-25 1.57346E-03 1.50092E-14-3.04157E-13
 -1       122-4.19112E-04 1.13532E-03 3.40139E-25 1.90724E-03 5.61834E-15-4.15600E-13
 -1       123-4.01372E-04 1.10458E-03 5.53313E-25 2.23947E-03 2.44361E-14-5.26488E-13
 -1       124-4.66806E-04 1.11379E-03 6.37564E-25 2.51846E-03 3.66437E-14-5.63280E-13
 -1       125-5.24776E-04 1.10409E-03 5.03233E-25 2.90459E-03 6.68042E-15-5.09167E-13
 -1       126-5.38859E-04 8.82472E-04 8.56185E-26 2.53922E-03-1.21221E-14-2.35685E-13
 -3
    1PSTEP                        88          22           1          
  100CL  122 2.20000E-01         126                     1   22           1
 -4  ERROR       1    1
 -5  STR(%)      1    1    0    0
 -1         1 6.23606E+01
 -1         2 6.23606E+01
 -1         3 4.72269E+01
 -1         4 4.72269E+01
 -1         5 4.92740E+00
 -1         6 4.92740E+00
 -1         7 6.53625E+01
 -1         8 6.53625E+01
 -1         9 4.72269E+01
 -1        10 4.72269E+01
 -1        11 6.53625E+01
 -1        12 6.53625E+01
 -1        13 6.23606E+01
 -1        14 5.80213E+01
 -1        15 5.58580E+01
 -1        16 5.00085E+01
 -1        17 3.47577E+01
 -1        18 6.18293E+01
 -1        19 7.72900E+01
 -1        20 7.72900E+01
 -1        21 7.41425E+01
 -1        22 7.04658E+01
 -1        23 6.90237E+01
 -1        24 6.81192E+01
 -1        25 6.62000E+01
 -1        26 6.34161E+01
 -1        27 6.29512E+01
 -1        28 6.29512E+01
 -1        29 6.15708E+01
 -1        30 5.53973E+01
 -1        31 4.72269E+01
 -1        32 6.23606E+01
 -1        33 5.80213E+01
 -1        34 5.58580E+01
 -1        35 5.00085E+01
 -1        36 3.47577E+01
 -1        37 6.18293E+01
 -1        38 7.72900E+01
 -1        39 7.72900E+01
 -1        40 7.41425E+01
 -1        41 7.04658E+01
 -1        42 6.90237E+01
 -1        43 6.81192E+01
 -1        44 6.62000E+01
 -1        45 6.34161E+01
 -1        46 6.29512E+01
 -1        47 6.29512E+01
 -1        48 6.15708E+01
 -1        49 5.53973E+01
 -1        50 4.72269E+01
 -1        51 3.34396E+01
 -1        52 5.06700E+01
 -1        53 5.86039E+01
 -1        54 6.06355E+01
 -1        55 6.06355E+01
 -1        56 5.90682E+01
 -1        57 5.90682E+01
 -1        58 5.78358E+01
 -1        59 5.54159E+01
 -1        60 5.31319E+01
 -1        61 5.19354E+01
 -1        62 5.15844E+01
 -1        63 4.95660E+01
 -1        64 3.78036E+01
 -1        65 7.75668E+01
 -1        66 7.75668E+01
 -1        67 6.75882E+01
 -1        68 6.75882E+01
 -1        69 6.60002E+01
 -1        70 3.34396E+01
 -1        71 5.06700E+01
 -1        72 5.86039E+01
 -1        73 6.06355E+01
 -1        74 6.06355E+01
 -1        75 5.90682E+01
 -1        76 5.90682E+01
 -1        77 5.78358E+01
 -1        78 5.54159E+01
 -1        79 5.31319E+01
 -1        80 5.19354E+01
 -1        81 5.15844E+01
 -1        82 4.95660E+01
 -1        83 3.78036E+01
 -1        84 7.75668E+01
 -1        85 7.75668E+01
 -1        86 6.75882E+01
 -1        87 6.75882E+01
 -1        88 6.60002E+01
 -1        89 6.60002E+01
 -1        90 6.75882E+01
 -1        91 6.75882E+01
 -1        92 7.75668E+01
 -1        93 7.75668E+01
 -1        94 6.18293E+01
 -1        95 7.72900E+01
 -1        96 7.72900E+01
 -1        97 7.41425E+01
 -1        98 7.04658E+01
 -1        99 6.90237E+01
 -1       100 6.81192E+01
 -1       101 6.62000E+01
 -1       102 6.34161E+01
 -1       103 6.29512E+01
 -1       104 6.29512E+01
 -1       105 6.15708E+01
 -1       106 5.53973E+01
 -1       107 4.72269E+01
 -1       108 4.72269E+01
 -1       109 5.53973E+01
 -1       110 6.15708E+01
 -1       111 6.29512E+01
 -1       112 6.29512E+01
 -1       113 6.34161E+01
 -1       114 6.62000E+01
 -1       115 6.81192E+01
 -1       116 6.90237E+01
 -1       117 7.04658E+01
 -1       118 7.41425E+01
 -1       119 7.72900E+01
 -1       120 7.72900E+01
 -1       121 6.18293E+01
 -1       122 7.75668E+01
 -1       123 7.75668E+01
 -1       124 6.75882E+01
 -1       125 6.75882E+01
 -1       126 6.60002E+01
 -3
    1PSTEP                        89          23           1          
  100CL  123 2.30000E-01         126                     1   23           1
 -4  DISP        4    1
 -5  D1          1    2    1    0
 -5  D2          1    2    2    0
 -5  D3          1    2    3    0
 -5  ALL         1    2    0    0    1ALL
 -1         1 0.00000E+00 0.00000E+00 0.00000E+00
 -1         2 0.00000E+00 0.00000E+00 0.00000E+00
 -1         3 2.66229E-02-2.92187E-03 0.00000E+00
 -1         4 2.66229E-02-2.92187E-03 0.00000E+00
 -1         5 2.65231E-02 1.45857E-03 0.00000E+00
 -1         6 2.65231E-02 1.45857E-03 0.00000E+00
 -1         7 0.00000E+00 0.00000E+00 0.00000E+00
 -1         8 0.00000E+00 0.00000E+00 0.00000E+00
 -1         9 2.65768E-02-7.23725E-04 0.00000E+00
 -1        10 2.65768E-02-7.23725E-04 0.00000E+00
 -1        11 0.00000E+00 0.00000E+00 0.00000E+00
 -1        12 0.00000E+00 0.00000E+00 0.00000E+00
 -1        13 1.22785E-03 1.29432E-03 0.00000E+00
 -1        14 3.34687E-03 2.32961E-03 0.00000E+00
 -1        15 6.35548E-03 3.01266E-03 0.00000E+00
 -1        16 9.91455E-03 3.39244E-03 0.00000E+00
 -1        17 1.37535E-02 3.49959E-03 0.00000E+00
 -1        18 1.76340E-02 3.38575E-03 0.00000E+00
 -1        19 2.13456E-02 3.11902E-03 0.00000E+00
 -1        20 2.47659E-02 2.76903E-03 0.00000E+00
 -1        21 2.78525E-02 2.38166E-03 0.00000E+00
 -1        22 3.05820E-02 1.96747E-03 0.00000E+00
 -1        23 3.29185E-02 1.50052E-03 0.00000E+00
 -1        24 3.47889E-02 9.26036E-04 0.00000E+00
 -1        25 3.60114E-02 2.18658E-04 0.00000E+00
 -1        26 3.64105E-02-5.70596E-04 0.00000E+00
 -1        27 3.59147E-02-1.32604E-03 0.00000E+00
 -1        28 3.46732E-02-1.93206E-03 0.00000E+00
 -1        29 3.29710E-02-2.35741E-03 0.00000E+00
 -1        30 3.10020E-02-2.64805E-03 0.00000E+00
 -1        31 2.88449E-02-2.83472E-03 0.00000E+00
 -1        32 1.22785E-03 1.29432E-03 0.00000E+00
 -1        33 3.34687E-03 2.32961E-03 0.00000E+00
 -1        34 6.35548E-03 3.01266E-03 0.00000E+00
 -1        35 9.91455E-03 3.39244E-03 0.00000E+00
 -1        36 1.37535E-02 3.49959E-03 0.00000E+00
 -1        37 1.76340E-02 3.38575E-03 0.00000E+00
 -1        38 2.13456E-02 3.11902E-03 0.00000E+00
 -1        39 2.47659E-02 2.76903E-03 0.00000E+00
 -1        40 2.78525E-02 2.38166E-03 0.00000E+00
 -1        41 3.05820E-02 1.96747E-03 0.00000E+00
 -1        42 3.29185E-02 1.50052E-03 0.00000E+00
 -1        43 3.47889E-02 9.26036E-04 0.00000E+00
 -1        44 3.60114E-02 2.18658E-04 0.00000E+00
 -1        45 3.64105E-02-5.70596E-04 0.00000E+00
 -1        46 3.59147E-02-1.32604E-03 0.00000E+00
 -1        47 3.46732E-02-1.93206E-03 0.00000E+00
 -1        48 3.29710E-02-2.35741E-03 0.00000E+00
 -1        49 3.10020E-02-2.64805E-03 0.00000E+00
 -1        50 2.88449E-02-2.83472E-03 0.00000E+00
 -1        51 2.87496E-02 1.45624E-03 0.00000E+00
 -1        52 3.09198E-02 1.35691E-03 0.00000E+00
 -1        53 3.29079E-02 1.14519E-03 0.00000E+00
 -1        54 3.46384E-02 7.79668E-04 0.00000E+00
 -1        55 3.58973E-02 2.07374E-04 0.00000E+00
 -1        56 3.63963E-02-5.39499E-04 0.00000E+00
 -1        57 3.59808E-02-1.33395E-03 0.00000E+00
 -1        58 3.47181E-02-2.04341E-03 0.00000E+00
 -1        59 3.27971E-02-2.60515E-03 0.00000E+00
 -1        60 3.04154E-02-3.03832E-03 0.00000E+00
 -1        61 2.76438E-02-3.38824E-03 0.00000E+00
 -1        62 2.45132E-02-3.67464E-03 0.00000E+00
 -1        63 2.10522E-02-3.88344E-03 0.00000E+00
 -1        64 1.73180E-02-3.97045E-03 0.00000E+00
 -1        65 1.34337E-02-3.88486E-03 0.00000E+00
 -1        66 9.61681E-03-3.59368E-03 0.00000E+00
 -1        67 6.11665E-03-3.07344E-03 0.00000E+00
 -1        68 3.18207E-03-2.31150E-03 0.00000E+00
 -1        69 1.13912E-03-1.26217E-03 0.00000E+00
 -1        70 2.87496E-02 1.45624E-03 0.00000E+00
 -1        71 3.09198E-02 1.35691E-03 0.00000E+00
 -1        72 3.29079E-02 1.14519E-03 0.00000E+00
 -1        73 3.46384E-02 7.79668E-04 0.00000E+00
 -1        74 3.58973E-02 2.07374E-04 0.00000E+00
 -1        75 3.63963E-02-5.39499E-04 0.00000E+00
 -1        76 3.59808E-02-1.33395E-03 0.00000E+00
 -1        77 3.47181E-02-2.04341E-03 0.00000E+00
 -1        78 3.27971E-02-2.60515E-03 0.00000E+00
 -1        79 3.04154E-02-3.03832E-03 0.00000E+00
 -1        80 2.76438E-02-3.38824E-03 0.00000E+00
 -1        81 2.45132E-02-3.67464E-03 0.00000E+00
 -1        82 2.10522E-02-3.88344E-03 0.00000E+00
 -1        83 1.73180E-02-3.97045E-03 0.00000E+00
 -1        84 1.34337E-02-3.88486E-03 0.00000E+00
 -1        85 9.61681E-03-3.59368E-03 0.00000E+00
 -1        86 6.11665E-03-3.07344E-03 0.00000E+00
 -1        87 3.18207E-03-2.31150E-03 0.00000E+00
 -1        88 1.13912E-03-1.26217E-03 0.00000E+00
 -1        89 8.64064E-04 2.11584E-05 0.00000E+00
 -1        90 3.08071E-03 2.15188E-05 0.00000E+00
 -1        91 6.10382E-03-1.89013E-05 0.00000E+00
 -1        92 9.69257E-03-9.28887E-05 0.00000E+00
 -1        93 1.35700E-02-1.89548E-04 0.00000E+00
 -1        94 1.74913E-02-2.94046E-04 0.00000E+00
 -1        95 2.12444E-02-3.85774E-04 0.00000E+00
 -1        96 2.47018E-02-4.56287E-04 0.00000E+00
 -1        97 2.78198E-02-5.07459E-04 0.00000E+00
 -1        98 3.05796E-02-5.39669E-04 0.00000E+00
 -1        99 3.29603E-02-5.55691E-04 0.00000E+00
 -1       100 3.48861E-02-5.61583E-04 0.00000E+00
 -1       101 3.61551E-02-5.59756E-04 0.00000E+00
 -1       102 3.65666E-02-5.53388E-04 0.00000E+00
 -1       103 3.60475E-02-5.54303E-04 0.00000E+00
 -1       104 3.47563E-02-5.73512E-04 0.00000E+00
 -1       105 3.30026E-02-6.06139E-04 0.00000E+00
 -1       106 3.09976E-02-6.44812E-04 0.00000E+00
 -1       107 2.88130E-02-6.87461E-04 0.00000E+00
 -1       108 2.88130E-02-6.87461E-04 0.00000E+00
 -1       109 3.09976E-02-6.44812E-04 0.00000E+00
 -1       110 3.30026E-02-6.06139E-04 0.00000E+00
 -1       111 3.47563E-02-5.73512E-04 0.00000E+00
 -1       112 3.60475E-02-5.54303E-04 0.00000E+00
 -1       113 3.65666E-02-5.53388E-04 0.00000E+00
 -1       114 3.61551E-02-5.59756E-04 0.00000E+00
 -1       115 3.48861E-02-5.61583E-04 0.00000E+00
 -1       116 3.29603E-02-5.55691E-04 0.00000E+00
 -1       117 3.05796E-02-5.39669E-04 0.00000E+00
 -1       118 2.78198E-02-5.07459E-04 0.00000E+00
 -1       119 2.47018E-02-4.56287E-04 0.00000E+00
 -1       120 2.12444E-02-3.85774E-04 0.00000E+00
 -1       121 1.74913E-02-2.94046E-04 0.00000E+00
 -1       122 1.35700E-02-1.89548E-04 0.00000E+00
 -1       123 9.69257E-03-9.28887E-05 0.00000E+00
 -1       124 6.10382E-03-1.89013E-05 0.00000E+00
 -1       125 3.08071E-03 2.15188E-05 0.00000E+00
 -1       126 8.64064E-04 2.11584E-05 0.00000E+00
 -3
    1PSTEP                        90          23           1          
  100CL  123 2.30000E-01         126                     1   23           1
 -4  STRESS      6    1
 -5  SXX         1    4    1    1
 -5  SYY         1    4    2    2
 -5  SZZ         1    4    3    3
 -5  SXY         1    4    1    2
 -5  SYZ         1    4    2    3
 -5  SZX         1    4    3    1
 -1         1 6.12785E+03 1.45127E+04 5.96566E+03 4.09437E+03-3.37198E-10-2.98334E-10
 -1         2 6.12785E+03 1.45127E+04 5.96566E+03 4.09437E+03-3.37198E-10-2.98334E-10
 -1         3-1.43360E+02-4.01933E+02-1.63710E+02-6.75845E+01-2.03720E-07-2.92487E-07
 -1         4-1.43360E+02-4.01933E+02-1.63710E+02-6.75845E+01-2.03720E-07-2.92487E-07
 -1         5 1.86084E+02 5.19513E+02 2.11341E+02-1.44137E+02 1.68125E-07-2.94933E-07
 -1         6 1.86084E+02 5.19513E+02 2.11341E+02-1.44137E+02 1.68125E-07-2.94929E-07
 -1         7-5.70563E+03-1.30780E+04-5.83884E+03 3.22688E+03-4.17704E-10 4.18445E-10
 -1         8-5.70563E+03-1.30780E+04-5.83884E+03 3.22688E+03-4.17704E-10 4.18445E-10
 -1         9 5.55340E+01 1.26788E+02 5.46547E+01-1.43266E+02-1.14223E-08-2.88563E-07
 -1        10 5.55340E+01 1.26788E+02 5.46547E+01-1.43266E+02-1.14224E-08-2.88563E-07
 -1        11 1.98702E+02 1.73171E+02 1.32069E+02 2.65919E+03-3.57835E-10 4.33589E-11
 -1        12 1.98702E+02 1.73171E+02 1.32069E+02 2.65919E+03-3.57835E-10 4.33589E-11
 -1        13 1.88086E+03 1.15923E+04 3.91297E+03 1.41409E+03-1.68463E-08-8.03739E-08
 -1        14 2.07849E+03 9.15550E+03 3.28539E+03 9.82982E+02 1.04234E-08-1.57901E-07
 -1        15 1.34109E+03 6.16654E+03 2.21080E+03 9.45595E+02 3.35733E-08-1.30599E-07
 -1        16 7.73323E+02 3.57925E+03 1.28944E+03 7.68161E+02 3.24766E-08-6.05206E-08
 -1        17 2.44763E+02 1.28028E+03 4.53410E+02 5.68494E+02 2.42681E-08-5.14071E-08
 -1        18-2.34161E+02-5.77308E+02-2.44920E+02 3.45844E+02 1.50922E-08-4.97980E-08
 -1        19-5.70207E+02-1.86083E+03-7.32906E+02 1.41972E+02 2.82377E-09-6.17577E-08
 -1        20-7.65575E+02-2.63084E+03-1.02537E+03 2.53961E+01-7.02917E-09-7.55819E-08
 -1        21-9.00267E+02-3.14388E+03-1.22234E+03-7.47675E+00-5.60151E-13-8.79221E-08
 -1        22-1.07412E+03-3.73857E+03-1.45678E+03 1.14286E+01 1.88533E-08-8.74772E-08
 -1        23-1.27710E+03-4.68733E+03-1.81035E+03 7.23609E+01 4.04879E-08-6.38719E-08
 -1        24-1.54146E+03-5.99164E+03-2.29594E+03 1.11156E+02 4.78631E-08-1.60151E-08
 -1        25-1.78893E+03-7.13710E+03-2.73007E+03 5.62696E+01 2.91680E-08 3.52954E-08
 -1        26-1.86081E+03-7.41940E+03-2.84143E+03-9.19280E+01 2.64832E-08 5.07774E-08
 -1        27-1.58704E+03-6.48152E+03-2.46475E+03-2.53272E+02 3.43724E-08 9.58036E-08
 -1        28-1.16170E+03-4.79564E+03-1.81121E+03-2.92000E+02 1.93741E-08 1.17306E-07
 -1        29-8.06078E+02-3.18984E+03-1.20919E+03-2.13790E+02-1.64011E-08 1.13645E-07
 -1        30-5.04028E+02-1.94787E+03-7.39611E+02-1.53754E+02-8.01444E-08 6.02695E-08
 -1        31-2.45873E+02-8.99782E+02-3.44719E+02-1.15717E+02-1.57692E-07-8.40924E-08
 -1        32 1.88086E+03 1.15923E+04 3.91297E+03 1.41409E+03-1.68463E-08-8.03739E-08
 -1        33 2.07849E+03 9.15550E+03 3.28539E+03 9.82982E+02 1.04234E-08-1.57901E-07
 -1        34 1.34109E+03 6.16654E+03 2.21080E+03 9.45595E+02 3.35733E-08-1.30599E-07
 -1        35 7.73323E+02 3.57925E+03 1.28944E+03 7.68161E+02 3.24766E-08-6.05206E-08
 -1        36 2.44763E+02 1.28028E+03 4.53410E+02 5.68494E+02 2.42681E-08-5.14070E-08
 -1        37-2.34161E+02-5.77308E+02-2.44920E+02 3.45844E+02 1.50923E-08-4.97975E-08
 -1        38-5.70207E+02-1.86083E+03-7.32906E+02 1.41972E+02 2.82354E-09-6.17584E-08
 -1        39-7.65575E+02-2.63084E+03-1.02537E+03 2.53961E+01-7.02917E-09-7.55819E-08
 -1        40-9.00267E+02-3.14388E+03-1.22234E+03-7.47675E+00-5.41859E-13-8.79221E-08
 -1        41-1.07412E+03-3.73857E+03-1.45678E+03 1.14286E+01 1.88533E-08-8.74772E-08
 -1        42-1.27710E+03-4.68733E+03-1.81035E+03 7.23609E+01 4.04879E-08-6.38722E-08
 -1        43-1.54146E+03-5.99164E+03-2.29594E+03 1.11156E+02 4.78631E-08-1.60135E-08
 -1        44-1.78893E+03-7.13710E+03-2.73007E+03 5.62696E+01 2.91680E-08 3.52962E-08
 -1        45-1.86081E+03-7.41940E+03-2.84143E+03-9.19280E+01 2.64832E-08 5.07741E-08
 -1        46-1.58704E+03-6.48152E+03-2.46475E+03-2.53272E+02 3.43724E-08 9.58033E-08
 -1        47-1.16170E+03-4.79564E+03-1.81121E+03-2.92000E+02 1.93741E-08 1.17307E-07
 -1        48-8.06078E+02-3.18984E+03-1.20919E+03-2.13790E+02-1.64011E-08 1.13645E-07
 -1        49-5.04028E+02-1.94787E+03-7.39611E+02-1.53754E+02-8.01447E-08 6.02695E-08
 -1        50-2.45873E+02-8.99782E+02-3.44719E+02-1.15717E+02-1.57692E-07-8.40924E-08
 -1        51 2.85000E+02 9.75767E+02 3.77004E+02-1.83973E+02 1.60373E-07-9.07775E-08
 -1        52 5.30805E+02 1.95751E+03 7.42348E+02-2.68953E+02 1.11821E-07 5.57233E-08
 -1        53 8.26483E+02 3.18971E+03 1.19456E+03-3.78741E+02 4.95298E-08 1.10322E-07
 -1        54 1.22490E+03 4.87656E+03 1.80652E+03-4.93966E+02 6.06134E-09 1.18278E-07
 -1        55 1.55526E+03 6.64377E+03 2.41593E+03-4.08549E+02-2.50399E-08 9.51381E-08
 -1        56 1.75099E+03 7.69590E+03 2.77627E+03-8.88024E+01-2.82103E-08 4.86890E-08
 -1        57 1.71964E+03 7.56482E+03 2.72971E+03 2.50710E+02-2.43928E-08 2.70119E-08
 -1        58 1.51163E+03 6.55207E+03 2.37700E+03 4.22384E+02-2.81535E-08-5.25758E-10
 -1        59 1.23567E+03 5.35360E+03 1.94861E+03 4.05713E+02-2.56978E-08-6.67177E-08
 -1        60 1.04523E+03 4.49519E+03 1.64202E+03 3.31545E+02-1.88553E-08-9.26733E-08
 -1        61 8.96977E+02 3.95365E+03 1.43931E+03 3.08853E+02 2.01474E-09-1.03317E-07
 -1        62 7.63375E+02 3.44637E+03 1.25040E+03 3.28914E+02 2.19418E-08-6.89637E-08
 -1        63 5.75935E+02 2.64172E+03 9.57138E+02 3.84023E+02 2.70624E-08-4.21892E-08
 -1        64 3.27864E+02 1.34202E+03 4.97513E+02 4.49488E+02 1.63868E-08-4.38437E-08
 -1        65-1.06431E+02-4.94416E+02-1.82240E+02 4.63708E+02-1.11445E-08-6.76047E-08
 -1        66-6.74603E+02-2.74614E+03-1.03522E+03 4.08081E+02-3.05913E-08-8.60732E-08
 -1        67-1.26373E+03-5.26277E+03-1.98682E+03 3.68140E+02-1.82768E-08-1.05898E-07
 -1        68-2.15166E+03-8.19330E+03-3.17270E+03 3.21079E+02 2.42088E-08-1.41951E-07
 -1        69-1.99171E+03-1.05094E+04-3.86338E+03 7.95244E+02 4.46467E-08-8.76611E-08
 -1        70 2.85000E+02 9.75767E+02 3.77004E+02-1.83973E+02 1.60373E-07-9.07779E-08
 -1        71 5.30805E+02 1.95751E+03 7.42348E+02-2.68953E+02 1.11821E-07 5.57233E-08
 -1        72 8.26483E+02 3.18971E+03 1.19456E+03-3.78741E+02 4.95298E-08 1.10322E-07
 -1        73 1.22490E+03 4.87656E+03 1.80652E+03-4.93966E+02 6.06140E-09 1.18278E-07
 -1        74 1.55526E+03 6.64377E+03 2.41593E+03-4.08549E+02-2.50399E-08 9.51386E-08
 -1        75 1.75099E+03 7.69590E+03 2.77627E+03-8.88024E+01-2.82103E-08 4.86889E-08
 -1        76 1.71964E+03 7.56482E+03 2.72971E+03 2.50710E+02-2.43929E-08 2.70119E-08
 -1        77 1.51163E+03 6.55207E+03 2.37700E+03 4.22384E+02-2.81533E-08-5.23235E-10
 -1        78 1.23567E+03 5.35360E+03 1.94861E+03 4.05713E+02-2.56979E-08-6.67152E-08
 -1        79 1.04523E+03 4.49519E+03 1.64202E+03 3.31545E+02-1.88558E-08-9.26733E-08
 -1        80 8.96977E+02 3.95365E+03 1.43931E+03 3.08853E+02 2.01485E-09-1.03317E-07
 -1        81 7.63375E+02 3.44637E+03 1.25040E+03 3.28914E+02 2.19418E-08-6.89619E-08
 -1        82 5.75935E+02 2.64172E+03 9.57138E+02 3.84023E+02 2.70624E-08-4.21881E-08
 -1        83 3.27864E+02 1.34202E+03 4.97513E+02 4.49488E+02 1.63868E-08-4.38438E-08
 -1        84-1.06431E+02-4.94416E+02-1.82240E+02 4.63708E+02-1.11446E-08-6.76055E-08
 -1        85-6.74603E+02-2.74614E+03-1.03522E+03 4.08081E+02-3.05908E-08-8.60723E-08
 -1        86-1.26373E+03-5.26277E+03-1.98682E+03 3.68140E+02-1.82768E-08-1.05897E-07
 -1        87-2.15166E+03-8.19330E+03-3.17270E+03 3.21079E+02 2.42088E-08-1.41951E-07
 -1        88-1.99171E+03-1.05094E+04-3.86338E+03 7.95244E+02 4.46467E-08-8.76611E-08
 -1        89-1.26016E+00 1.33361E+02 4.63121E+01 8.07669E+02 1.67933E-08-8.37030E-08
 -1        90 4.34895E+01 2.56838E+02 9.88304E+01 9.26761E+02 2.05841E-08-1.56328E-07
 -1        91 7.54954E+01 3.18227E+02 1.20279E+02 8.18445E+02 1.55247E-09-1.27652E-07
 -1        92 7.70079E+01 3.49096E+02 1.27466E+02 7.51094E+02-5.44961E-09-7.09775E-08
 -1        93 8.59366E+01 3.52289E+02 1.30198E+02 6.50278E+02 1.03406E-08-5.47404E-08
 -1        94 6.12107E+01 3.54163E+02 1.23658E+02 5.02699E+02 1.93034E-08-4.22782E-08
 -1        95 1.87039E+01 3.70139E+02 1.16495E+02 3.33744E+02 1.28242E-08-4.73868E-08
 -1        96 8.99448E+00 3.75346E+02 1.16028E+02 2.15115E+02 1.17025E-09-7.72871E-08
 -1        97 5.21291E+00 3.58219E+02 1.10480E+02 1.76440E+02 1.83526E-09-9.84630E-08
 -1        98-6.72269E-01 3.25544E+02 9.97946E+01 2.15604E+02 5.79198E-09-9.22708E-08
 -1        99-2.12425E-01 2.54159E+02 7.97346E+01 3.14468E+02 1.11768E-08-6.64490E-08
 -1       100 6.67717E+00 1.47870E+02 5.10454E+01 3.49000E+02 7.49083E-09-7.52011E-09
 -1       101-8.35929E+00 4.35443E+01 1.59838E+01 1.97081E+02 5.12113E-10 3.58433E-08
 -1       102-2.42835E+01-2.99237E+01-1.12492E+01-1.17605E+02 4.91726E-09 4.48431E-08
 -1       103 3.52847E+00-6.83737E+01-1.56059E+01-4.24941E+02 9.90911E-09 9.29004E-08
 -1       104 3.86356E+01-6.81172E+01-6.13548E+00-5.10847E+02 1.38738E-08 1.24486E-07
 -1       105 2.12724E+01-4.26355E+01-5.04192E+00-3.92888E+02 1.41826E-08 1.21414E-07
 -1       106 2.93654E+01 4.89900E+00 1.06661E+01-2.83836E+02 1.02008E-08 7.52773E-08
 -1       107 4.42851E+01 7.61862E+01 3.62388E+01-2.00750E+02 1.36042E-09-8.13491E-08
 -1       108 4.42851E+01 7.61862E+01 3.62388E+01-2.00750E+02 1.36030E-09-8.13490E-08
 -1       109 2.93654E+01 4.89900E+00 1.06661E+01-2.83836E+02 1.02008E-08 7.52774E-08
 -1       110 2.12724E+01-4.26355E+01-5.04192E+00-3.92888E+02 1.41825E-08 1.21414E-07
 -1       111 3.86356E+01-6.81172E+01-6.13548E+00-5.10847E+02 1.38738E-08 1.24485E-07
 -1       112 3.52847E+00-6.83737E+01-1.56059E+01-4.24941E+02 9.90911E-09 9.28999E-08
 -1       113-2.42835E+01-2.99237E+01-1.12492E+01-1.17605E+02 4.91726E-09 4.48436E-08
 -1       114-8.35929E+00 4.35443E+01 1.59838E+01 1.97081E+02 5.12113E-10 3.58420E-08
 -1       115 6.67717E+00 1.47870E+02 5.10454E+01 3.49000E+02 7.49079E-09-7.52345E-09
 -1       116-2.12424E-01 2.54159E+02 7.97346E+01 3.14468E+02 1.11769E-08-6.64488E-08
 -1       117-6.72269E-01 3.25544E+02 9.97946E+01 2.15604E+02 5.79206E-09-9.22708E-08
 -1       118 5.21291E+00 3.58219E+02 1.10480E+02 1.76440E+02 1.83522E-09-9.84630E-08
 -1       119 8.99448E+00 3.75346E+02 1.16028E+02 2.15115E+02 1.17026E-09-7.72874E-08
 -1       120 1.87039E+01 3.70139E+02 1.16495E+02 3.33744E+02 1.28242E-08-4.73864E-08
 -1       121 6.12107E+01 3.54163E+02 1.23658E+02 5.02699E+02 1.93033E-08-4.22786E-08
 -1       122 8.59366E+01 3.52289E+02 1.30198E+02 6.50278E+02 1.03407E-08-5.47404E-08
 -1       123 7.70079E+01 3.49096E+02 1.27466E+02 7.51094E+02-5.44967E-09-7.09776E-08
 -1       124 7.54954E+01 3.18227E+02 1.20279E+02 8.18445E+02 1.55249E-09-1.27652E-07
 -1       125 4.34895E+01 2.56838E+02 9.88304E+01 9.26761E+02 2.05840E-08-1.56328E-07
 -1       126-1.26016E+00 1.33361E+02 4.63121E+01 8.07669E+02 1.67933E-08-8.37030E-08
 -3
    1PSTEP                        91          23           1          
  100CL  123 2.30000E-01         126                     1   23           1
 -4  TOSTRAIN    6    1
 -5  EXX         1    4    1    1
 -5  EYY         1    4    2    2
 -5  EZZ         1    4    3    3
 -5  EXY         1    4    1    2
 -5  EYZ         1    4    2    3
 -5  EZX         1    4    3    1
 -1         1-5.83232E-05 2.64639E-02-2.30220E-26 1.22782E-02-1.01862E-19-5.23724E-16
 -1         2-5.83232E-05 2.64639E-02-2.30220E-26 1.22782E-02-1.01862E-19-5.23724E-16
 -1         3 4.50017E-05-7.54095E-04 2.39964E-24-2.56511E-04-6.20306E-13-9.79370E-13
 -1         4 4.50017E-05-7.54095E-04 2.39964E-24-2.56511E-04-6.20306E-13-9.79370E-13
 -1         5-1.21519E-04 1.03806E-03 2.16747E-24-4.17860E-04 5.86879E-13-9.32977E-13
 -1         6-1.21519E-04 1.03806E-03 2.16743E-24-4.17860E-04 5.86879E-13-9.32966E-13
 -1         7-5.75160E-05-2.47222E-02-3.45125E-26 1.13910E-02-1.56299E-18 9.28996E-16
 -1         8-5.75160E-05-2.47222E-02-3.45125E-26 1.13910E-02-1.56299E-18 9.28996E-16
 -1         9-3.82588E-05 2.75013E-04 1.48853E-24-4.53327E-04 4.02963E-15-9.38474E-13
 -1        10-3.82588E-05 2.75013E-04 1.48854E-24-4.53327E-04 4.02952E-15-9.38476E-13
 -1        11-5.79196E-05 5.14621E-04-2.52169E-26 8.64045E-03-7.77951E-19 2.02760E-16
 -1        12-5.79196E-05 5.14621E-04-2.52169E-26 8.64045E-03-7.77951E-19 2.02760E-16
 -1        13-6.97202E-03 2.41227E-02 1.14934E-25 3.58424E-03-5.91978E-14-2.58569E-13
 -1        14-4.27004E-03 1.86643E-02 5.17082E-25 2.02412E-03 9.94205E-15-5.12582E-13
 -1        15-3.19460E-03 1.28489E-02 3.71895E-25 2.03518E-03 8.16747E-14-4.29830E-13
 -1        16-2.00431E-03 7.62098E-03 8.58253E-26 1.80277E-03 9.06306E-14-2.03703E-13
 -1        17-9.42396E-04 2.91424E-03 6.77359E-26 1.56681E-03 6.60683E-14-1.72640E-13
 -1        18-1.44105E-04-9.14496E-04 5.66517E-26 1.19387E-03 3.70530E-14-1.65210E-13
 -1        19 4.33762E-04-3.60224E-03 7.88483E-26 7.55100E-04-4.92390E-15-2.01067E-13
 -1        20 7.97261E-04-5.22687E-03 1.20863E-25 4.77538E-04-3.89227E-14-2.43964E-13
 -1        21 1.01269E-03-6.28990E-03 1.62150E-25 4.02199E-04-1.66605E-14-2.85730E-13
 -1        22 1.20310E-03-7.48716E-03 1.66494E-25 4.78477E-04 4.74354E-14-2.87605E-13
 -1        23 1.67303E-03-9.47240E-03 1.13384E-25 7.03897E-04 1.24601E-13-2.13436E-13
 -1        24 2.37464E-03-1.22499E-02 4.09385E-26 8.09131E-04 1.56598E-13-5.69886E-14
 -1        25 2.98034E-03-1.47072E-02 3.66780E-26 4.63728E-04 9.85353E-14 1.13441E-13
 -1        26 3.10615E-03-1.53068E-02 6.43705E-26-3.15871E-04 8.79081E-14 1.65527E-13
 -1        27 2.76305E-03-1.33571E-02 2.13591E-25-1.09716E-03 1.08965E-13 3.13990E-13
 -1        28 2.02333E-03-9.82321E-03 2.95635E-25-1.29719E-03 5.33763E-14 3.83642E-13
 -1        29 1.24178E-03-6.45943E-03 2.61407E-25-9.80242E-04-6.67124E-14 3.67628E-13
 -1        30 7.13112E-04-3.90945E-03 1.27051E-25-6.92098E-04-2.69485E-13 1.85112E-13
 -1        31 2.83950E-04-1.77526E-03 4.64170E-25-4.67910E-04-5.01477E-13-2.95634E-13
 -1        32-6.97202E-03 2.41227E-02 1.14934E-25 3.58424E-03-5.91978E-14-2.58569E-13
 -1        33-4.27004E-03 1.86643E-02 5.17082E-25 2.02412E-03 9.94207E-15-5.12582E-13
 -1        34-3.19460E-03 1.28489E-02 3.71896E-25 2.03518E-03 8.16746E-14-4.29830E-13
 -1        35-2.00431E-03 7.62098E-03 8.58252E-26 1.80277E-03 9.06306E-14-2.03703E-13
 -1        36-9.42396E-04 2.91424E-03 6.77356E-26 1.56681E-03 6.60682E-14-1.72639E-13
 -1        37-1.44105E-04-9.14496E-04 5.66507E-26 1.19387E-03 3.70534E-14-1.65208E-13
 -1        38 4.33762E-04-3.60224E-03 7.88498E-26 7.55100E-04-4.92480E-15-2.01070E-13
 -1        39 7.97261E-04-5.22687E-03 1.20863E-25 4.77538E-04-3.89228E-14-2.43964E-13
 -1        40 1.01269E-03-6.28990E-03 1.62150E-25 4.02199E-04-1.66605E-14-2.85730E-13
 -1        41 1.20310E-03-7.48716E-03 1.66494E-25 4.78477E-04 4.74353E-14-2.87605E-13
 -1        42 1.67303E-03-9.47240E-03 1.13384E-25 7.03897E-04 1.24601E-13-2.13437E-13
 -1        43 2.37464E-03-1.22499E-02 4.09374E-26 8.09131E-04 1.56598E-13-5.69834E-14
 -1        44 2.98034E-03-1.47072E-02 3.66795E-26 4.63728E-04 9.85354E-14 1.13444E-13
 -1        45 3.10615E-03-1.53068E-02 6.43641E-26-3.15871E-04 8.79080E-14 1.65516E-13
 -1        46 2.76305E-03-1.33571E-02 2.13590E-25-1.09716E-03 1.08965E-13 3.13990E-13
 -1        47 2.02333E-03-9.82321E-03 2.95640E-25-1.29719E-03 5.33762E-14 3.83645E-13
 -1        48 1.24178E-03-6.45943E-03 2.61407E-25-9.80242E-04-6.67122E-14 3.67628E-13
 -1        49 7.13112E-04-3.90945E-03 1.27052E-25-6.92098E-04-2.69486E-13 1.85112E-13
 -1        50 2.83950E-04-1.77526E-03 4.64170E-25-4.67910E-04-5.01477E-13-2.95634E-13
 -1        51-3.47370E-04 1.98388E-03 5.08571E-25-4.96939E-04 5.31984E-13-2.71760E-13
 -1        52-7.55175E-04 3.98068E-03 2.37747E-25-6.79284E-04 3.54047E-13 1.95799E-13
 -1        53-1.28329E-03 6.48116E-03 2.90620E-25-9.43288E-04 1.47076E-13 3.63736E-13
 -1        54-1.99737E-03 9.87353E-03 2.91106E-25-1.25306E-03 9.13769E-15 3.84015E-13
 -1        55-2.89764E-03 1.34481E-02 1.93205E-25-1.04596E-03-8.46535E-14 3.06950E-13
 -1        56-3.41887E-03 1.55542E-02 5.75650E-26-2.75062E-04-8.99458E-14 1.57716E-13
 -1        57-3.37907E-03 1.53102E-02 2.29542E-26 5.03321E-04-7.64067E-14 8.87931E-14
 -1        58-2.92814E-03 1.33084E-02 2.43838E-27 8.58530E-04-8.99262E-14 1.18379E-15
 -1        59-2.42790E-03 1.09267E-02 9.35462E-26 7.45031E-04-9.10317E-14-2.12671E-13
 -1        60-2.03660E-03 9.19133E-03 1.84496E-25 4.99729E-04-7.54114E-14-2.97180E-13
 -1        61-1.86000E-03 8.12733E-03 2.22477E-25 4.15891E-04-1.27414E-14-3.35143E-13
 -1        62-1.69739E-03 7.13899E-03 1.05117E-25 4.90464E-04 5.61662E-14-2.28056E-13
 -1        63-1.39141E-03 5.55353E-03 5.07891E-26 7.57380E-04 7.75558E-14-1.42947E-13
 -1        64-7.56317E-04 2.91830E-03 4.40780E-26 1.19612E-03 4.24517E-14-1.46083E-13
 -1        65 7.42561E-06-7.93534E-04 9.33453E-26 1.58700E-03-5.24096E-14-2.16351E-13
 -1        66 9.32973E-04-5.40073E-03 1.71146E-25 1.80563E-03-1.19589E-13-2.71986E-13
 -1        67 2.11037E-03-1.06624E-02 2.34280E-25 2.02811E-03-8.14972E-14-3.40347E-13
 -1        68 3.09002E-03-1.66933E-02 4.27170E-25 2.03034E-03 5.86989E-14-4.66340E-13
 -1        69 5.79783E-03-2.23456E-02 1.84063E-25 3.46107E-03 1.42739E-13-2.90147E-13
 -1        70-3.47370E-04 1.98388E-03 5.08575E-25-4.96939E-04 5.31984E-13-2.71761E-13
 -1        71-7.55175E-04 3.98068E-03 2.37747E-25-6.79284E-04 3.54047E-13 1.95799E-13
 -1        72-1.28329E-03 6.48116E-03 2.90620E-25-9.43288E-04 1.47076E-13 3.63736E-13
 -1        73-1.99737E-03 9.87353E-03 2.91105E-25-1.25306E-03 9.13790E-15 3.84014E-13
 -1        74-2.89764E-03 1.34481E-02 1.93208E-25-1.04596E-03-8.46536E-14 3.06952E-13
 -1        75-3.41887E-03 1.55542E-02 5.75648E-26-2.75062E-04-8.99457E-14 1.57715E-13
 -1        76-3.37907E-03 1.53102E-02 2.29542E-26 5.03321E-04-7.64067E-14 8.87931E-14
 -1        77-2.92814E-03 1.33084E-02 2.43800E-27 8.58530E-04-8.99252E-14 1.19195E-15
 -1        78-2.42790E-03 1.09267E-02 9.35391E-26 7.45031E-04-9.10316E-14-2.12663E-13
 -1        79-2.03660E-03 9.19133E-03 1.84496E-25 4.99729E-04-7.54128E-14-2.97180E-13
 -1        80-1.86000E-03 8.12733E-03 2.22477E-25 4.15891E-04-1.27410E-14-3.35143E-13
 -1        81-1.69739E-03 7.13899E-03 1.05112E-25 4.90464E-04 5.61666E-14-2.28050E-13
 -1        82-1.39141E-03 5.55353E-03 5.07876E-26 7.57380E-04 7.75564E-14-1.42944E-13
 -1        83-7.56317E-04 2.91830E-03 4.40781E-26 1.19612E-03 4.24516E-14-1.46083E-13
 -1        84 7.42561E-06-7.93534E-04 9.33474E-26 1.58700E-03-5.24099E-14-2.16353E-13
 -1        85 9.32973E-04-5.40073E-03 1.71143E-25 1.80563E-03-1.19588E-13-2.71984E-13
 -1        86 2.11037E-03-1.06624E-02 2.34279E-25 2.02811E-03-8.14974E-14-3.40347E-13
 -1        87 3.09002E-03-1.66933E-02 4.27170E-25 2.03034E-03 5.86988E-14-4.66340E-13
 -1        88 5.79783E-03-2.23456E-02 1.84063E-25 3.46107E-03 1.42739E-13-2.90147E-13
 -1        89-5.87092E-04 7.33809E-04 1.29582E-25 2.60455E-03 4.79604E-14-2.73622E-13
 -1        90-5.90011E-04 9.77593E-04 5.15696E-25 2.95922E-03 4.33641E-14-5.11069E-13
 -1        91-5.42118E-04 1.04621E-03 3.33818E-25 2.58452E-03-2.02175E-14-4.14451E-13
 -1        92-5.35668E-04 1.08218E-03 9.63846E-26 2.34859E-03-3.37319E-14-2.28757E-13
 -1        93-4.67485E-04 1.03075E-03 6.32434E-26 2.02064E-03 2.03564E-14-1.80012E-13
 -1        94-4.50211E-04 9.85306E-04 4.53574E-26 1.54188E-03 5.23852E-14-1.41832E-13
 -1        95-4.78823E-04 9.81016E-04 4.83115E-26 9.91521E-04 3.07468E-14-1.56633E-13
 -1        96-4.50064E-04 9.48233E-04 1.22926E-25 6.14983E-04-1.23922E-14-2.50934E-13
 -1        97-4.23657E-04 8.96013E-04 2.04207E-25 5.02168E-04-1.25257E-14-3.19873E-13
 -1        98-4.16750E-04 8.40339E-04 1.78262E-25 6.42582E-04 3.72593E-15-3.00510E-13
 -1        99-3.77438E-04 7.09694E-04 8.48962E-26 9.82350E-04 2.73692E-14-2.17360E-13
 -1       100-2.76750E-04 4.77467E-04-1.24819E-26 1.11616E-03 2.35483E-14-2.51745E-14
 -1       101-1.99364E-04 2.41082E-04 2.09834E-26 6.36144E-04 3.34920E-15 1.16443E-13
 -1       102-1.56363E-04 7.85375E-05 3.59727E-26-3.82785E-04 1.58264E-14 1.45764E-13
 -1       103-6.72920E-05-2.27686E-05 1.75678E-25-1.38431E-03 2.75441E-14 3.02467E-13
 -1       104 1.29775E-05-5.24169E-05 3.30333E-25-1.66715E-03 3.41438E-14 4.05759E-13
 -1       105-2.07548E-05-6.89351E-06 3.09735E-25-1.28091E-03 3.23473E-14 3.96062E-13
 -1       106-2.10316E-05 6.49662E-05 4.38130E-26-9.22395E-04 2.34481E-14 2.45829E-13
 -1       107-3.17103E-05 1.88106E-04-6.71339E-26-6.45153E-04 1.58289E-14-2.63915E-13
 -1       108-3.17103E-05 1.88106E-04-6.71345E-26-6.45153E-04 1.58285E-14-2.63915E-13
 -1       109-2.10316E-05 6.49662E-05 4.38130E-26-9.22395E-04 2.34482E-14 2.45830E-13
 -1       110-2.07548E-05-6.89351E-06 3.09735E-25-1.28091E-03 3.23472E-14 3.96062E-13
 -1       111 1.29775E-05-5.24169E-05 3.30327E-25-1.66715E-03 3.41439E-14 4.05755E-13
 -1       112-6.72920E-05-2.27686E-05 1.75676E-25-1.38431E-03 2.75441E-14 3.02465E-13
 -1       113-1.56363E-04 7.85375E-05 3.59740E-26-3.82785E-04 1.58264E-14 1.45765E-13
 -1       114-1.99364E-04 2.41082E-04 2.09815E-26 6.36144E-04 3.34914E-15 1.16439E-13
 -1       115-2.76750E-04 4.77467E-04-1.24798E-26 1.11616E-03 2.35479E-14-2.51853E-14
 -1       116-3.77438E-04 7.09694E-04 8.48967E-26 9.82350E-04 2.73694E-14-2.17359E-13
 -1       117-4.16750E-04 8.40339E-04 1.78262E-25 6.42582E-04 3.72620E-15-3.00510E-13
 -1       118-4.23657E-04 8.96013E-04 2.04207E-25 5.02168E-04-1.25258E-14-3.19873E-13
 -1       119-4.50064E-04 9.48233E-04 1.22927E-25 6.14983E-04-1.23923E-14-2.50935E-13
 -1       120-4.78823E-04 9.81016E-04 4.83106E-26 9.91521E-04 3.07472E-14-1.56631E-13
 -1       121-4.50211E-04 9.85306E-04 4.53581E-26 1.54188E-03 5.23851E-14-1.41833E-13
 -1       122-4.67485E-04 1.03075E-03 6.32434E-26 2.02064E-03 2.03565E-14-1.80012E-13
 -1       123-5.35668E-04 1.08218E-03 9.63852E-26 2.34859E-03-3.37321E-14-2.28758E-13
 -1       124-5.42118E-04 1.04621E-03 3.33817E-25 2.58452E-03-2.02173E-14-4.14450E-13
 -1       125-5.90011E-04 9.77593E-04 5.15696E-25 2.95922E-03 4.33640E-14-5.11069E-13
 -1       126-5.87092E-04 7.33809E-04 1.29582E-25 2.60455E-03 4.79604E-14-2.73622E-13
 -3
    1PSTEP                        92          23           1          
  100CL  123 2.30000E-01         126                     1   23           1
 -4  ERROR       1    1
 -5  STR(%)      1    1    0    0
 -1         1 6.29914E+01
 -1         2 6.29914E+01
 -1         3 5.72809E+01
 -1         4 5.72809E+01
 -1         5 2.61029E+01
 -1         6 2.61029E+01
 -1         7 6.46266E+01
 -1         8 6.46266E+01
 -1         9 5.72809E+01
 -1        10 5.72809E+01
 -1        11 6.46266E+01
 -1        12 6.46266E+01
 -1        13 6.29914E+01
 -1        14 5.89272E+01
 -1        15 5.71301E+01
 -1        16 5.12461E+01
 -1        17 3.54037E+01
 -1        18 6.09383E+01
 -1        19 7.71079E+01
 -1        20 7.71079E+01
 -1        21 7.27796E+01
 -1        22 7.05464E+01
 -1        23 6.86894E+01
 -1        24 6.58197E+01
 -1        25 6.28835E+01
 -1        26 6.09560E+01
 -1        27 6.09560E+01
 -1        28 6.08916E+01
 -1        29 5.97997E+01
 -1        30 5.97997E+01
 -1        31 5.72809E+01
 -1        32 6.29914E+01
 -1        33 5.89272E+01
 -1        34 5.71301E+01
 -1        35 5.12461E+01
 -1        36 3.54037E+01
 -1        37 6.09383E+01
 -1        38 7.71079E+01
 -1        39 7.71079E+01
 -1        40 7.27796E+01
 -1        41 7.05464E+01
 -1        42 6.86894E+01
 -1        43 6.58197E+01
 -1        44 6.28835E+01
 -1        45 6.09560E+01
 -1        46 6.09560E+01
 -1        47 6.08916E+01
 -1        48 5.97997E+01
 -1        49 5.97997E+01
 -1        50 5.72809E+01
 -1        51 5.20666E+01
 -1        52 5.94357E+01
 -1        53 6.08972E+01
 -1        54 6.20245E+01
 -1        55 6.20245E+01
 -1        56 6.14811E+01
 -1        57 6.00967E+01
 -1        58 6.00967E+01
 -1        59 5.82527E+01
 -1        60 5.54026E+01
 -1        61 5.36012E+01
 -1        62 5.23884E+01
 -1        63 5.02078E+01
 -1        64 4.02350E+01
 -1        65 4.99143E+01
 -1        66 6.48191E+01
 -1        67 6.65260E+01
 -1        68 6.65260E+01
 -1        69 6.50046E+01
 -1        70 5.20666E+01
 -1        71 5.94357E+01
 -1        72 6.08972E+01
 -1        73 6.20245E+01
 -1        74 6.20245E+01
 -1        75 6.14811E+01
 -1        76 6.00967E+01
 -1        77 6.00967E+01
 -1        78 5.82527E+01
 -1        79 5.54026E+01
 -1        80 5.36012E+01
 -1        81 5.23884E+01
 -1        82 5.02078E+01
 -1        83 4.02350E+01
 -1        84 4.99143E+01
 -1        85 6.48191E+01
 -1        86 6.65260E+01
 -1        87 6.65260E+01
 -1        88 6.50046E+01
 -1        89 6.50046E+01
 -1        90 6.65260E+01
 -1        91 6.65260E+01
 -1        92 6.48191E+01
 -1        93 4.99143E+01
 -1        94 6.09383E+01
 -1        95 7.71079E+01
 -1        96 7.71079E+01
 -1        97 7.27796E+01
 -1        98 7.05464E+01
 -1        99 6.86894E+01
 -1       100 6.58197E+01
 -1       101 6.28835E+01
 -1       102 6.14811E+01
 -1       103 6.20245E+01
 -1       104 6.20245E+01
 -1       105 6.08972E+01
 -1       106 5.97997E+01
 -1       107 5.72809E+01
 -1       108 5.72809E+01
 -1       109 5.97997E+01
 -1       110 6.08972E+01
 -1       111 6.20245E+01
 -1       112 6.20245E+01
 -1       113 6.14811E+01
 -1       114 6.28835E+01
 -1       115 6.58197E+01
 -1       116 6.86894E+01
 -1       117 7.05464E+01
 -1       118 7.27796E+01
 -1       119 7.71079E+01
 -1       120 7.71079E+01
 -1       121 6.09383E+01
 -1       122 4.99143E+01
 -1       123 6.48191E+01
 -1       124 6.65260E+01
 -1       125 6.65260E+01
 -1       126 6.50046E+01
 -3
    1PSTEP                        93          24           1          
  100CL  124 2.40000E-01         126                     1   24           1
 -4  DISP        4    1
 -5  D1          1    2    1    0
 -5  D2          1    2    2    0
 -5  D3          1    2    3    0
 -5  ALL         1    2    0    0    1ALL
 -1         1 0.00000E+00 0.00000E+00 0.00000E+00
 -1         2 0.00000E+00 0.00000E+00 0.00000E+00
 -1         3 2.93017E-02-3.02144E-03 0.00000E+00
 -1         4 2.93017E-02-3.02144E-03 0.00000E+00
 -1         5 2.92166E-02 1.07920E-03 0.00000E+00
 -1         6 2.92166E-02 1.07920E-03 0.00000E+00
 -1         7 0.00000E+00 0.00000E+00 0.00000E+00
 -1         8 0.00000E+00 0.00000E+00 0.00000E+00
 -1         9 2.92606E-02-9.62085E-04 0.00000E+00
 -1        10 2.92606E-02-9.62085E-04 0.00000E+00
 -1        11 0.00000E+00 0.00000E+00 0.00000E+00
 -1        12 0.00000E+00 0.00000E+00 0.00000E+00
 -1        13 1.26402E-03 1.33486E-03 0.00000E+00
 -1        14 3.46438E-03 2.40011E-03 0.00000E+00
 -1        15 6.58957E-03 3.09646E-03 0.00000E+00
 -1        16 1.02825E-02 3.47462E-03 0.00000E+00
 -1        17 1.42677E-02 3.57581E-03 0.00000E+00
 -1        18 1.82854E-02 3.46122E-03 0.00000E+00
 -1        19 2.21523E-02 3.20934E-03 0.00000E+00
 -1        20 2.57863E-02 2.88865E-03 0.00000E+00
 -1        21 2.91599E-02 2.52448E-03 0.00000E+00
 -1        22 3.22530E-02 2.08547E-03 0.00000E+00
 -1        23 3.49429E-02 1.51615E-03 0.00000E+00
 -1        24 3.70278E-02 7.90166E-04 0.00000E+00
 -1        25 3.82709E-02-4.25572E-05 0.00000E+00
 -1        26 3.85707E-02-8.62162E-04 0.00000E+00
 -1        27 3.80464E-02-1.56222E-03 0.00000E+00
 -1        28 3.69143E-02-2.11214E-03 0.00000E+00
 -1        29 3.53286E-02-2.52248E-03 0.00000E+00
 -1        30 3.34365E-02-2.80096E-03 0.00000E+00
 -1        31 3.13825E-02-2.95612E-03 0.00000E+00
 -1        32 1.26402E-03 1.33486E-03 0.00000E+00
 -1        33 3.46438E-03 2.40011E-03 0.00000E+00
 -1        34 6.58957E-03 3.09646E-03 0.00000E+00
 -1        35 1.02825E-02 3.47462E-03 0.00000E+00
 -1        36 1.42677E-02 3.57581E-03 0.00000E+00
 -1        37 1.82854E-02 3.46122E-03 0.00000E+00
 -1        38 2.21523E-02 3.20934E-03 0.00000E+00
 -1        39 2.57863E-02 2.88865E-03 0.00000E+00
 -1        40 2.91599E-02 2.52448E-03 0.00000E+00
 -1        41 3.22530E-02 2.08547E-03 0.00000E+00
 -1        42 3.49429E-02 1.51615E-03 0.00000E+00
 -1        43 3.70278E-02 7.90166E-04 0.00000E+00
 -1        44 3.82709E-02-4.25572E-05 0.00000E+00
 -1        45 3.85707E-02-8.62162E-04 0.00000E+00
 -1        46 3.80464E-02-1.56222E-03 0.00000E+00
 -1        47 3.69143E-02-2.11214E-03 0.00000E+00
 -1        48 3.53286E-02-2.52248E-03 0.00000E+00
 -1        49 3.34365E-02-2.80096E-03 0.00000E+00
 -1        50 3.13825E-02-2.95612E-03 0.00000E+00
 -1        51 3.12990E-02 1.08351E-03 0.00000E+00
 -1        52 3.33655E-02 9.98308E-04 0.00000E+00
 -1        53 3.52706E-02 7.83684E-04 0.00000E+00
 -1        54 3.68737E-02 4.22165E-04 0.00000E+00
 -1        55 3.80306E-02-1.02306E-04 0.00000E+00
 -1        56 3.85612E-02-7.98222E-04 0.00000E+00
 -1        57 3.82394E-02-1.61689E-03 0.00000E+00
 -1        58 3.69544E-02-2.42537E-03 0.00000E+00
 -1        59 3.48161E-02-3.08511E-03 0.00000E+00
 -1        60 3.20686E-02-3.54660E-03 0.00000E+00
 -1        61 2.89239E-02-3.84613E-03 0.00000E+00
 -1        62 2.55065E-02-4.04624E-03 0.00000E+00
 -1        63 2.18396E-02-4.17615E-03 0.00000E+00
 -1        64 1.79457E-02-4.21275E-03 0.00000E+00
 -1        65 1.39227E-02-4.09845E-03 0.00000E+00
 -1        66 9.97013E-03-3.77729E-03 0.00000E+00
 -1        67 6.34077E-03-3.22139E-03 0.00000E+00
 -1        68 3.29510E-03-2.41732E-03 0.00000E+00
 -1        69 1.18250E-03-1.31908E-03 0.00000E+00
 -1        70 3.12990E-02 1.08351E-03 0.00000E+00
 -1        71 3.33655E-02 9.98308E-04 0.00000E+00
 -1        72 3.52706E-02 7.83684E-04 0.00000E+00
 -1        73 3.68737E-02 4.22165E-04 0.00000E+00
 -1        74 3.80306E-02-1.02306E-04 0.00000E+00
 -1        75 3.85612E-02-7.98222E-04 0.00000E+00
 -1        76 3.82394E-02-1.61689E-03 0.00000E+00
 -1        77 3.69544E-02-2.42537E-03 0.00000E+00
 -1        78 3.48161E-02-3.08511E-03 0.00000E+00
 -1        79 3.20686E-02-3.54660E-03 0.00000E+00
 -1        80 2.89239E-02-3.84613E-03 0.00000E+00
 -1        81 2.55065E-02-4.04624E-03 0.00000E+00
 -1        82 2.18396E-02-4.17615E-03 0.00000E+00
 -1        83 1.79457E-02-4.21275E-03 0.00000E+00
 -1        84 1.39227E-02-4.09845E-03 0.00000E+00
 -1        85 9.97013E-03-3.77729E-03 0.00000E+00
 -1        86 6.34077E-03-3.22139E-03 0.00000E+00
 -1        87 3.29510E-03-2.41732E-03 0.00000E+00
 -1        88 1.18250E-03-1.31908E-03 0.00000E+00
 -1        89 8.94661E-04 1.21078E-05 0.00000E+00
 -1        90 3.19242E-03 1.47485E-06 0.00000E+00
 -1        91 6.33136E-03-5.27802E-05 0.00000E+00
 -1        92 1.00526E-02-1.45397E-04 0.00000E+00
 -1        93 1.40723E-02-2.58295E-04 0.00000E+00
 -1        94 1.81296E-02-3.75370E-04 0.00000E+00
 -1        95 2.20350E-02-4.86014E-04 0.00000E+00
 -1        96 2.56983E-02-5.81914E-04 0.00000E+00
 -1        97 2.91080E-02-6.63510E-04 0.00000E+00
 -1        98 3.22497E-02-7.34770E-04 0.00000E+00
 -1        99 3.50067E-02-7.91268E-04 0.00000E+00
 -1       100 3.71539E-02-8.23717E-04 0.00000E+00
 -1       101 3.84331E-02-8.30526E-04 0.00000E+00
 -1       102 3.87268E-02-8.27090E-04 0.00000E+00
 -1       103 3.81685E-02-8.29441E-04 0.00000E+00
 -1       104 3.69899E-02-8.40684E-04 0.00000E+00
 -1       105 3.53644E-02-8.62892E-04 0.00000E+00
 -1       106 3.34362E-02-8.96926E-04 0.00000E+00
 -1       107 3.13531E-02-9.33298E-04 0.00000E+00
 -1       108 3.13531E-02-9.33298E-04 0.00000E+00
 -1       109 3.34362E-02-8.96926E-04 0.00000E+00
 -1       110 3.53644E-02-8.62892E-04 0.00000E+00
 -1       111 3.69899E-02-8.40684E-04 0.00000E+00
 -1       112 3.81685E-02-8.29441E-04 0.00000E+00
 -1       113 3.87268E-02-8.27090E-04 0.00000E+00
 -1       114 3.84331E-02-8.30526E-04 0.00000E+00
 -1       115 3.71539E-02-8.23717E-04 0.00000E+00
 -1       116 3.50067E-02-7.91268E-04 0.00000E+00
 -1       117 3.22497E-02-7.34770E-04 0.00000E+00
 -1       118 2.91080E-02-6.63510E-04 0.00000E+00
 -1       119 2.56983E-02-5.81914E-04 0.00000E+00
 -1       120 2.20350E-02-4.86014E-04 0.00000E+00
 -1       121 1.81296E-02-3.75370E-04 0.00000E+00
 -1       122 1.40723E-02-2.58295E-04 0.00000E+00
 -1       123 1.00526E-02-1.45397E-04 0.00000E+00
 -1       124 6.33136E-03-5.27802E-05 0.00000E+00
 -1       125 3.19242E-03 1.47485E-06 0.00000E+00
 -1       126 8.94661E-04 1.21078E-05 0.00000E+00
 -3
    1PSTEP                        94          24           1          
  100CL  124 2.40000E-01         126                     1   24           1
 -4  STRESS      6    1
 -5  SXX         1    4    1    1
 -5  SYY         1    4    2    2
 -5  SZZ         1    4    3    3
 -5  SXY         1    4    1    2
 -5  SYZ         1    4    2    3
 -5  SZX         1    4    3    1
 -1         1 6.32403E+03 1.49832E+04 6.15200E+03 4.22565E+03 3.42947E-12 9.98415E-12
 -1         2 6.32403E+03 1.49832E+04 6.15200E+03 4.22565E+03 3.42947E-12 9.98415E-12
 -1         3-8.12209E+01-2.35806E+02-9.51452E+01-6.28492E+01-1.60840E-07-2.73160E-07
 -1         4-8.12209E+01-2.35806E+02-9.51452E+01-6.28492E+01-1.60840E-07-2.73160E-07
 -1         5 1.65264E+02 3.99630E+02 1.69242E+02-1.31922E+02 1.77272E-07-3.39256E-07
 -1         6 1.65264E+02 3.99630E+02 1.69242E+02-1.31922E+02 1.77272E-07-3.39259E-07
 -1         7-5.96030E+03-1.36434E+04-6.10360E+03 3.33707E+03-1.19603E-11-1.81609E-11
 -1         8-5.96030E+03-1.36434E+04-6.10360E+03 3.33707E+03-1.19604E-11-1.81570E-11
 -1         9 7.47918E+01 1.48661E+02 6.69702E+01-1.31638E+02-1.10598E-08-3.01941E-07
 -1        10 7.47918E+01 1.48661E+02 6.69702E+01-1.31638E+02-1.10599E-08-3.01940E-07
 -1        11 1.64285E+02 7.09430E+01 9.28059E+01 2.75196E+03-9.60688E-12-1.37420E-11
 -1        12 1.64285E+02 7.09430E+01 9.28059E+01 2.75196E+03-9.60686E-12-1.37493E-11
 -1        13 2.01264E+03 1.19940E+04 4.06490E+03 1.45393E+03 1.97611E-09 6.05118E-10
 -1        14 2.19204E+03 9.44463E+03 3.40118E+03 1.02133E+03 1.62144E-09 1.48135E-08
 -1        15 1.42130E+03 6.32005E+03 2.27906E+03 9.78036E+02 2.43648E-09 3.27730E-08
 -1        16 8.28886E+02 3.65442E+03 1.32814E+03 7.89916E+02 5.55727E-09 1.63508E-08
 -1        17 2.71670E+02 1.35837E+03 4.84832E+02 5.62299E+02-9.31122E-09 4.90280E-08
 -1        18-1.64762E+02-3.82718E+02-1.65378E+02 3.17970E+02-2.70890E-08 1.46301E-08
 -1        19-4.33549E+02-1.49086E+03-5.79650E+02 1.29848E+02-3.04990E-08-2.29469E-08
 -1        20-6.44720E+02-2.20895E+03-8.60630E+02 4.70090E+01-1.29070E-08-6.96279E-08
 -1        21-8.13698E+02-2.95525E+03-1.13883E+03 6.93625E+01 1.42060E-08-9.06941E-08
 -1        22-1.09007E+03-4.14334E+03-1.58693E+03 1.29213E+02 3.37571E-08-5.65978E-08
 -1        23-1.43260E+03-5.73424E+03-2.18350E+03 1.41471E+02 3.02552E-08-2.09823E-08
 -1        24-1.80027E+03-7.23118E+03-2.76354E+03 6.30735E+01 9.55237E-09 2.31611E-08
 -1        25-1.94742E+03-7.85336E+03-3.00450E+03-9.57036E+01 1.01415E-08 2.27254E-08
 -1        26-1.80556E+03-7.29053E+03-2.78397E+03-2.29229E+02 2.08667E-08 2.37094E-08
 -1        27-1.46085E+03-5.96369E+03-2.26379E+03-2.53304E+02 2.64107E-08 3.01167E-08
 -1        28-1.12354E+03-4.49732E+03-1.70696E+03-2.20970E+02 1.38386E-08 6.55807E-08
 -1        29-7.48116E+02-3.07531E+03-1.15692E+03-2.02409E+02-3.39861E-08 8.79876E-08
 -1        30-4.16223E+02-1.75431E+03-6.54637E+02-1.85389E+02-9.83040E-08 2.25704E-08
 -1        31-1.75566E+02-6.82171E+02-2.57968E+02-1.26446E+02-1.46198E-07-1.20970E-07
 -1        32 2.01264E+03 1.19940E+04 4.06490E+03 1.45393E+03 1.97611E-09 6.05118E-10
 -1        33 2.19204E+03 9.44463E+03 3.40118E+03 1.02133E+03 1.62144E-09 1.48135E-08
 -1        34 1.42130E+03 6.32005E+03 2.27906E+03 9.78036E+02 2.43648E-09 3.27730E-08
 -1        35 8.28886E+02 3.65442E+03 1.32814E+03 7.89916E+02 5.55727E-09 1.63507E-08
 -1        36 2.71670E+02 1.35837E+03 4.84832E+02 5.62299E+02-9.31123E-09 4.90286E-08
 -1        37-1.64762E+02-3.82718E+02-1.65378E+02 3.17970E+02-2.70892E-08 1.46268E-08
 -1        38-4.33549E+02-1.49086E+03-5.79650E+02 1.29848E+02-3.04989E-08-2.29433E-08
 -1        39-6.44720E+02-2.20895E+03-8.60630E+02 4.70090E+01-1.29070E-08-6.96279E-08
 -1        40-8.13698E+02-2.95525E+03-1.13883E+03 6.93625E+01 1.42060E-08-9.06946E-08
 -1        41-1.09007E+03-4.14334E+03-1.58693E+03 1.29213E+02 3.37571E-08-5.65976E-08
 -1        42-1.43260E+03-5.73424E+03-2.18350E+03 1.41471E+02 3.02553E-08-2.09830E-08
 -1        43-1.80027E+03-7.23118E+03-2.76354E+03 6.30735E+01 9.55232E-09 2.31604E-08
 -1        44-1.94742E+03-7.85336E+03-3.00450E+03-9.57036E+01 1.01415E-08 2.27256E-08
 -1        45-1.80556E+03-7.29053E+03-2.78397E+03-2.29229E+02 2.08667E-08 2.37094E-08
 -1        46-1.46085E+03-5.96369E+03-2.26379E+03-2.53304E+02 2.64107E-08 3.01167E-08
 -1        47-1.12354E+03-4.49732E+03-1.70696E+03-2.20970E+02 1.38386E-08 6.55807E-08
 -1        48-7.48116E+02-3.07531E+03-1.15692E+03-2.02409E+02-3.39863E-08 8.79861E-08
 -1        49-4.16223E+02-1.75431E+03-6.54637E+02-1.85389E+02-9.83040E-08 2.25740E-08
 -1        50-1.75566E+02-6.82171E+02-2.57968E+02-1.26446E+02-1.46198E-07-1.20970E-07
 -1        51 2.54898E+02 8.24456E+02 3.22860E+02-1.90019E+02 1.51877E-07-1.20982E-07
 -1        52 5.21775E+02 1.86731E+03 7.12747E+02-3.06708E+02 1.04798E-07 1.74212E-08
 -1        53 7.77569E+02 3.13241E+03 1.16274E+03-3.74389E+02 5.22232E-08 7.36579E-08
 -1        54 1.07824E+03 4.55702E+03 1.66981E+03-4.11459E+02 9.71279E-09 5.82804E-08
 -1        55 1.44266E+03 6.13785E+03 2.23741E+03-4.01689E+02 6.51119E-09 2.62272E-08
 -1        56 1.73531E+03 7.56591E+03 2.73486E+03-2.40518E+02 1.12280E-08 1.74425E-08
 -1        57 1.79822E+03 8.16917E+03 2.92525E+03 1.04231E+02 3.27941E-09 1.03049E-08
 -1        58 1.69801E+03 7.57073E+03 2.72419E+03 4.42445E+02-9.90911E-09 1.78576E-08
 -1        59 1.43114E+03 6.10946E+03 2.22485E+03 5.78203E+02-1.89129E-08-1.85170E-08
 -1        60 1.10938E+03 4.57246E+03 1.68338E+03 5.19803E+02-7.03302E-09-7.63835E-08
 -1        61 7.99844E+02 3.46074E+03 1.26597E+03 3.93194E+02 1.46621E-08-8.03056E-08
 -1        62 6.05062E+02 2.78485E+03 1.00875E+03 3.18834E+02 2.93642E-08-6.14670E-08
 -1        63 4.52089E+02 2.13470E+03 7.70608E+02 3.43399E+02 2.49943E-08-2.09176E-08
 -1        64 2.11456E+02 1.04865E+03 3.75600E+02 4.07336E+02 8.75700E-09 2.54230E-08
 -1        65-2.18318E+02-7.03022E+02-2.78509E+02 4.35269E+02-6.89976E-10 4.93591E-08
 -1        66-7.48855E+02-2.97879E+03-1.12867E+03 4.03081E+02-6.09276E-09 2.41860E-08
 -1        67-1.36191E+03-5.57230E+03-2.11271E+03 3.74213E+02-5.29922E-09-1.89202E-09
 -1        68-2.27799E+03-8.58948E+03-3.33675E+03 3.21854E+02-6.38511E-09 4.83260E-09
 -1        69-2.07054E+03-1.09627E+04-4.03364E+03 8.09663E+02-5.59124E-09-3.56501E-09
 -1        70 2.54898E+02 8.24456E+02 3.22860E+02-1.90019E+02 1.51877E-07-1.20983E-07
 -1        71 5.21775E+02 1.86731E+03 7.12747E+02-3.06708E+02 1.04798E-07 1.74214E-08
 -1        72 7.77569E+02 3.13241E+03 1.16274E+03-3.74389E+02 5.22232E-08 7.36578E-08
 -1        73 1.07824E+03 4.55702E+03 1.66981E+03-4.11459E+02 9.71279E-09 5.82846E-08
 -1        74 1.44266E+03 6.13785E+03 2.23741E+03-4.01689E+02 6.51119E-09 2.62228E-08
 -1        75 1.73531E+03 7.56591E+03 2.73486E+03-2.40518E+02 1.12280E-08 1.74427E-08
 -1        76 1.79822E+03 8.16917E+03 2.92525E+03 1.04231E+02 3.27957E-09 1.03079E-08
 -1        77 1.69801E+03 7.57073E+03 2.72419E+03 4.42445E+02-9.90942E-09 1.78539E-08
 -1        78 1.43114E+03 6.10946E+03 2.22485E+03 5.78203E+02-1.89128E-08-1.85154E-08
 -1        79 1.10938E+03 4.57246E+03 1.68338E+03 5.19803E+02-7.03302E-09-7.63830E-08
 -1        80 7.99844E+02 3.46074E+03 1.26597E+03 3.93194E+02 1.46621E-08-8.03073E-08
 -1        81 6.05062E+02 2.78485E+03 1.00875E+03 3.18834E+02 2.93642E-08-6.14671E-08
 -1        82 4.52089E+02 2.13470E+03 7.70608E+02 3.43399E+02 2.49943E-08-2.09171E-08
 -1        83 2.11456E+02 1.04865E+03 3.75600E+02 4.07336E+02 8.75660E-09 2.54232E-08
 -1        84-2.18318E+02-7.03022E+02-2.78509E+02 4.35269E+02-6.89869E-10 4.93590E-08
 -1        85-7.48855E+02-2.97879E+03-1.12867E+03 4.03081E+02-6.09273E-09 2.41861E-08
 -1        86-1.36191E+03-5.57230E+03-2.11271E+03 3.74213E+02-5.29919E-09-1.89182E-09
 -1        87-2.27799E+03-8.58948E+03-3.33675E+03 3.21854E+02-6.38512E-09 4.83260E-09
 -1        88-2.07054E+03-1.09627E+04-4.03364E+03 8.09663E+02-5.59124E-09-3.56503E-09
 -1        89 2.26345E+01 5.87255E+01 3.19681E+01 8.28234E+02-2.99869E-09-2.27255E-09
 -1        90 4.04434E+01 1.78656E+02 7.53537E+01 9.56479E+02-6.82382E-09 1.16918E-08
 -1        91 7.12840E+01 2.35017E+02 9.45204E+01 8.41507E+02 4.51454E-10 1.43632E-08
 -1        92 7.45605E+01 2.77401E+02 1.05440E+02 7.62715E+02 5.24049E-09 2.49120E-08
 -1        93 5.34781E+01 3.07571E+02 1.07240E+02 6.32336E+02-3.25230E-09 4.86002E-08
 -1        94 3.78185E+01 3.11102E+02 1.03823E+02 4.56869E+02-9.27848E-09 2.58725E-08
 -1        95 1.76795E+01 2.97490E+02 9.43662E+01 2.93291E+02-4.28191E-09-2.23608E-08
 -1        96-8.38497E+00 2.69321E+02 7.88586E+01 2.22712E+02 1.07198E-08-6.69524E-08
 -1        97 5.76032E+00 2.14972E+02 6.76220E+01 2.85408E+02 1.08552E-08-8.91047E-08
 -1        98 2.36458E+01 1.31027E+02 4.89309E+01 4.13760E+02 1.01446E-08-7.19403E-08
 -1        99 2.24377E+01 5.63376E+01 2.76224E+01 4.66852E+02 5.24099E-09-1.30452E-08
 -1       100-1.49815E+01 5.67989E+00 2.41359E+00 3.24193E+02-1.43706E-09 1.72579E-08
 -1       101-3.78042E+01-2.60648E+01-1.35940E+01-2.45605E+00 5.87638E-09 1.87294E-08
 -1       102-1.31943E+01-4.37961E+01-1.14577E+01-3.08595E+02 1.41542E-08 2.35378E-08
 -1       103 8.29645E+00-3.85090E+01-4.73915E+00-4.25665E+02 1.40860E-08 2.80981E-08
 -1       104 5.38719E-01-2.18794E+01-4.01587E+00-4.14632E+02 1.01065E-08 7.27393E-08
 -1       105 2.90987E+01-1.98343E+00 9.10525E+00-3.80319E+02 1.06047E-08 9.48082E-08
 -1       106 5.70985E+01 2.98122E+01 2.63344E+01-3.25950E+02 8.02230E-09 2.55979E-08
 -1       107 5.82401E+01 9.68570E+01 4.65456E+01-2.10216E+02-4.87442E-09-1.11279E-07
 -1       108 5.82401E+01 9.68570E+01 4.65456E+01-2.10216E+02-4.87448E-09-1.11277E-07
 -1       109 5.70985E+01 2.98122E+01 2.63344E+01-3.25950E+02 8.02232E-09 2.55970E-08
 -1       110 2.90987E+01-1.98343E+00 9.10525E+00-3.80319E+02 1.06048E-08 9.48083E-08
 -1       111 5.38719E-01-2.18794E+01-4.01587E+00-4.14632E+02 1.01064E-08 7.27390E-08
 -1       112 8.29645E+00-3.85090E+01-4.73915E+00-4.25665E+02 1.40860E-08 2.80988E-08
 -1       113-1.31943E+01-4.37961E+01-1.14577E+01-3.08595E+02 1.41542E-08 2.35374E-08
 -1       114-3.78042E+01-2.60648E+01-1.35940E+01-2.45605E+00 5.87630E-09 1.87294E-08
 -1       115-1.49815E+01 5.67989E+00 2.41359E+00 3.24193E+02-1.43693E-09 1.72596E-08
 -1       116 2.24377E+01 5.63376E+01 2.76224E+01 4.66852E+02 5.24092E-09-1.30437E-08
 -1       117 2.36458E+01 1.31027E+02 4.89309E+01 4.13760E+02 1.01446E-08-7.19407E-08
 -1       118 5.76032E+00 2.14972E+02 6.76220E+01 2.85408E+02 1.08551E-08-8.91036E-08
 -1       119-8.38497E+00 2.69321E+02 7.88586E+01 2.22712E+02 1.07198E-08-6.69524E-08
 -1       120 1.76795E+01 2.97490E+02 9.43662E+01 2.93291E+02-4.28194E-09-2.23613E-08
 -1       121 3.78185E+01 3.11102E+02 1.03823E+02 4.56869E+02-9.27842E-09 2.58734E-08
 -1       122 5.34781E+01 3.07571E+02 1.07240E+02 6.32336E+02-3.25228E-09 4.85994E-08
 -1       123 7.45605E+01 2.77401E+02 1.05440E+02 7.62715E+02 5.24045E-09 2.49119E-08
 -1       124 7.12840E+01 2.35017E+02 9.45204E+01 8.41507E+02 4.51396E-10 1.43632E-08
 -1       125 4.04434E+01 1.78656E+02 7.53537E+01 9.56479E+02-6.82381E-09 1.16918E-08
 -1       126 2.26345E+01 5.87255E+01 3.19681E+01 8.28234E+02-2.99870E-09-2.27253E-09
 -3
    1PSTEP                        95          24           1          
  100CL  124 2.40000E-01         126                     1   24           1
 -4  TOSTRAIN    6    1
 -5  EXX         1    4    1    1
 -5  EYY         1    4    2    2
 -5  EZZ         1    4    3    3
 -5  EXY         1    4    1    2
 -5  EYZ         1    4    2    3
 -5  EZX         1    4    3    1
 -1         1-6.27493E-05 2.73097E-02 4.75621E-30 1.26400E-02-3.13596E-20 2.94706E-17
 -1         2-6.27493E-05 2.73097E-02 4.75621E-30 1.26400E-02-3.13596E-20 2.94706E-17
 -1         3 2.74175E-05-4.39641E-04 1.96245E-24-2.24666E-04-4.86007E-13-9.08923E-13
 -1         4 2.74175E-05-4.39641E-04 1.96245E-24-2.24666E-04-4.86007E-13-9.08924E-13
 -1         5-4.72229E-05 7.81098E-04 2.78904E-24-3.95130E-04 6.19979E-13-1.07733E-12
 -1         6-4.72229E-05 7.81098E-04 2.78908E-24-3.95130E-04 6.19979E-13-1.07734E-12
 -1         7-6.19310E-05-2.58151E-02-1.59300E-28 1.18248E-02 1.65471E-19-7.38033E-17
 -1         8-6.19310E-05-2.58151E-02-1.59301E-28 1.18248E-02 1.65712E-19-7.37907E-17
 -1         9-9.90270E-06 3.00120E-04 1.69539E-24-4.16142E-04 4.34379E-15-9.81822E-13
 -1        10-9.90270E-06 3.00120E-04 1.69538E-24-4.16142E-04 4.34334E-15-9.81820E-13
 -1        11-6.23402E-05 3.39899E-04-3.63875E-29 8.94642E-03 1.85560E-19-4.35630E-17
 -1        12-6.23402E-05 3.39899E-04-3.63869E-29 8.94642E-03 1.85111E-19-4.35866E-17
 -1        13-7.06063E-03 2.48853E-02-3.78715E-28 3.64877E-03 6.27461E-15 1.78088E-15
 -1        14-4.30235E-03 1.92095E-02 3.56516E-27 2.07386E-03 7.36791E-15 4.76588E-14
 -1        15-3.18031E-03 1.31349E-02 2.08394E-26 2.08368E-03 1.43832E-14 1.05588E-13
 -1        16-1.97033E-03 7.75610E-03 3.46567E-27 1.84050E-03 2.16423E-14 5.15486E-14
 -1        17-9.61550E-04 3.06978E-03 4.78592E-26 1.52206E-03-1.79190E-14 1.61237E-13
 -1        18-1.66732E-04-5.47951E-04 1.35686E-26 1.07459E-03-8.42173E-14 5.43652E-14
 -1        19 3.87212E-04-2.89440E-03 2.16853E-26 6.74398E-04-1.04805E-13-6.69754E-14
 -1        20 6.48919E-04-4.36844E-03 9.77198E-26 5.08523E-04-5.78981E-14-2.23045E-13
 -1        21 9.90969E-04-5.90795E-03 1.73731E-25 6.76232E-04 2.75526E-14-2.97555E-13
 -1        22 1.51740E-03-8.35790E-03 8.53249E-26 9.95037E-04 1.00366E-13-1.90400E-13
 -1        23 2.32819E-03-1.17219E-02 2.10047E-26 1.12902E-03 9.67212E-14-7.29842E-14
 -1        24 3.02637E-03-1.48949E-02 8.68764E-27 7.94647E-04 3.42009E-14 7.43648E-14
 -1        25 3.35089E-03-1.62455E-02 1.29273E-26-9.81749E-06 3.48646E-14 7.35171E-14
 -1        26 3.10786E-03-1.50631E-02 2.12956E-26-7.80905E-04 6.91888E-14 7.74120E-14
 -1        27 2.54086E-03-1.22776E-02 3.16776E-26-1.06605E-03 8.58948E-14 9.95059E-14
 -1        28 1.82854E-03-9.18309E-03 8.80506E-26-1.01688E-03 4.02029E-14 2.14670E-13
 -1        29 1.26436E-03-6.25760E-03 1.62466E-25-9.19897E-04-1.20740E-13 2.82264E-13
 -1        30 7.18016E-04-3.54758E-03 1.23585E-25-7.72452E-04-3.23520E-13 6.07053E-14
 -1        31 2.31032E-04-1.34737E-03 6.12918E-25-4.78250E-04-4.59673E-13-4.12601E-13
 -1        32-7.06063E-03 2.48853E-02-3.78715E-28 3.64877E-03 6.27461E-15 1.78088E-15
 -1        33-4.30235E-03 1.92095E-02 3.56516E-27 2.07386E-03 7.36791E-15 4.76588E-14
 -1        34-3.18031E-03 1.31349E-02 2.08394E-26 2.08368E-03 1.43832E-14 1.05588E-13
 -1        35-1.97033E-03 7.75610E-03 3.46555E-27 1.84050E-03 2.16423E-14 5.15484E-14
 -1        36-9.61550E-04 3.06978E-03 4.78602E-26 1.52206E-03-1.79189E-14 1.61239E-13
 -1        37-1.66732E-04-5.47951E-04 1.35679E-26 1.07459E-03-8.42187E-14 5.43543E-14
 -1        38 3.87212E-04-2.89440E-03 2.16836E-26 6.74398E-04-1.04804E-13-6.69638E-14
 -1        39 6.48919E-04-4.36844E-03 9.77198E-26 5.08523E-04-5.78981E-14-2.23045E-13
 -1        40 9.90969E-04-5.90795E-03 1.73733E-25 6.76232E-04 2.75525E-14-2.97556E-13
 -1        41 1.51740E-03-8.35790E-03 8.53245E-26 9.95037E-04 1.00366E-13-1.90400E-13
 -1        42 2.32819E-03-1.17219E-02 2.10051E-26 1.12902E-03 9.67212E-14-7.29864E-14
 -1        43 3.02637E-03-1.48949E-02 8.68711E-27 7.94647E-04 3.42007E-14 7.43626E-14
 -1        44 3.35089E-03-1.62455E-02 1.29275E-26-9.81749E-06 3.48647E-14 7.35178E-14
 -1        45 3.10786E-03-1.50631E-02 2.12955E-26-7.80905E-04 6.91887E-14 7.74118E-14
 -1        46 2.54086E-03-1.22776E-02 3.16776E-26-1.06605E-03 8.58948E-14 9.95059E-14
 -1        47 1.82854E-03-9.18309E-03 8.80506E-26-1.01688E-03 4.02030E-14 2.14670E-13
 -1        48 1.26436E-03-6.25760E-03 1.62463E-25-9.19897E-04-1.20741E-13 2.82259E-13
 -1        49 7.18016E-04-3.54758E-03 1.23591E-25-7.72452E-04-3.23521E-13 6.07171E-14
 -1        50 2.31032E-04-1.34737E-03 6.12916E-25-4.78250E-04-4.59672E-13-4.12600E-13
 -1        51-2.68745E-04 1.67003E-03 5.83807E-25-5.37970E-04 5.07934E-13-3.72265E-13
 -1        52-6.95111E-04 3.79215E-03 1.56502E-25-8.20493E-04 3.36545E-13 6.99738E-14
 -1        53-1.33663E-03 6.39539E-03 1.51753E-25-9.47448E-04 1.60497E-13 2.44825E-13
 -1        54-2.00801E-03 9.28385E-03 6.83621E-26-1.02749E-03 2.65484E-14 1.89850E-13
 -1        55-2.66266E-03 1.24286E-02 1.32609E-26-1.05373E-03 1.96281E-14 8.53738E-14
 -1        56-3.32640E-03 1.52803E-02 8.41093E-27-7.47666E-04 3.57364E-14 5.65712E-14
 -1        57-3.76532E-03 1.65568E-02 1.63506E-27 1.10700E-05 1.08998E-14 3.31799E-14
 -1        58-3.48721E-03 1.53940E-02 5.76948E-27 7.96687E-04-2.97004E-14 5.89226E-14
 -1        59-2.76497E-03 1.24765E-02 3.72559E-27 1.14046E-03-6.30350E-14-5.70466E-14
 -1        60-2.04111E-03 9.37725E-03 1.16354E-25 1.02175E-03-3.62973E-14-2.46085E-13
 -1        61-1.65293E-03 7.16226E-03 1.39108E-25 7.04074E-04 3.06176E-14-2.63222E-13
 -1        62-1.42979E-03 5.81604E-03 9.28420E-26 5.27870E-04 8.07001E-14-2.05818E-13
 -1        63-1.17789E-03 4.52647E-03 1.22059E-26 6.93513E-04 7.55198E-14-7.38580E-14
 -1        64-7.27198E-04 2.35864E-03 8.77463E-27 1.09508E-03 3.45954E-14 8.01201E-14
 -1        65-3.94942E-05-1.16307E-03 4.92648E-26 1.52413E-03 1.00672E-14 1.60181E-13
 -1        66 9.84886E-04-5.85419E-03 1.05021E-26 1.84657E-03-1.41994E-14 7.99820E-14
 -1        67 2.18292E-03-1.12722E-02-1.51504E-27 2.12612E-03-1.78340E-14-4.93809E-15
 -1        68 3.19578E-03-1.74934E-02 1.11676E-27 2.11630E-03-2.05124E-14 1.68632E-14
 -1        69 6.07648E-03-2.33432E-02 7.63927E-28 3.58015E-03-1.90708E-14-1.09981E-14
 -1        70-2.68745E-04 1.67003E-03 5.83805E-25-5.37970E-04 5.07934E-13-3.72267E-13
 -1        71-6.95111E-04 3.79215E-03 1.56502E-25-8.20493E-04 3.36545E-13 6.99746E-14
 -1        72-1.33663E-03 6.39539E-03 1.51753E-25-9.47448E-04 1.60498E-13 2.44824E-13
 -1        73-2.00801E-03 9.28385E-03 6.83709E-26-1.02749E-03 2.65481E-14 1.89864E-13
 -1        74-2.66266E-03 1.24286E-02 1.32537E-26-1.05373E-03 1.96284E-14 8.53594E-14
 -1        75-3.32640E-03 1.52803E-02 8.41112E-27-7.47666E-04 3.57364E-14 5.65719E-14
 -1        76-3.76532E-03 1.65568E-02 1.63667E-27 1.10700E-05 1.09005E-14 3.31895E-14
 -1        77-3.48721E-03 1.53940E-02 5.76828E-27 7.96687E-04-2.97017E-14 5.89107E-14
 -1        78-2.76497E-03 1.24765E-02 3.72584E-27 1.14046E-03-6.30344E-14-5.70415E-14
 -1        79-2.04111E-03 9.37725E-03 1.16352E-25 1.02175E-03-3.62972E-14-2.46084E-13
 -1        80-1.65293E-03 7.16226E-03 1.39114E-25 7.04074E-04 3.06172E-14-2.63228E-13
 -1        81-1.42979E-03 5.81604E-03 9.28421E-26 5.27870E-04 8.07000E-14-2.05819E-13
 -1        82-1.17789E-03 4.52647E-03 1.22053E-26 6.93513E-04 7.55199E-14-7.38566E-14
 -1        83-7.27198E-04 2.35864E-03 8.77478E-27 1.09508E-03 3.45942E-14 8.01210E-14
 -1        84-3.94942E-05-1.16307E-03 4.92646E-26 1.52413E-03 1.00675E-14 1.60181E-13
 -1        85 9.84886E-04-5.85419E-03 1.05023E-26 1.84657E-03-1.41993E-14 7.99822E-14
 -1        86 2.18292E-03-1.12722E-02-1.51500E-27 2.12612E-03-1.78339E-14-4.93744E-15
 -1        87 3.19578E-03-1.74934E-02 1.11676E-27 2.11630E-03-2.05125E-14 1.68632E-14
 -1        88 6.07648E-03-2.33432E-02 7.63927E-28 3.58015E-03-1.90708E-14-1.09982E-14
 -1        89-4.92077E-04 5.71717E-04-1.63156E-28 2.67907E-03-9.92161E-15-7.06030E-15
 -1        90-5.53285E-04 8.35333E-04 3.27994E-27 3.06578E-03-2.03278E-14 3.91782E-14
 -1        91-4.98696E-04 8.89311E-04 3.10375E-27 2.67273E-03 4.42339E-15 4.65395E-14
 -1        92-4.92721E-04 9.43012E-04 1.21138E-26 2.39872E-03 2.28115E-14 7.94199E-14
 -1        93-5.00522E-04 9.64026E-04 4.81510E-26 1.96254E-03 1.55218E-15 1.58331E-13
 -1        94-4.46965E-04 8.96381E-04 9.67551E-27 1.39576E-03-2.36004E-14 8.62374E-14
 -1        95-3.95341E-04 8.02614E-04 2.28238E-28 8.73728E-04-1.92384E-14-7.14275E-14
 -1        96-3.90434E-04 7.28970E-04 9.10172E-26 6.53021E-04 1.96402E-14-2.19557E-13
 -1        97-3.30980E-04 6.18587E-04 1.69220E-25 8.75170E-04 1.67426E-14-2.91323E-13
 -1        98-2.61852E-04 4.63587E-04 1.03333E-25 1.31459E-03 1.97827E-14-2.35398E-13
 -1        99-2.18389E-04 3.19589E-04-5.80219E-27 1.50402E-03 1.50959E-14-4.31765E-14
 -1       100-2.30417E-04 2.12946E-04 4.26265E-27 1.04828E-03-2.86369E-15 5.62154E-14
 -1       101-2.07218E-04 1.16126E-04 7.71150E-27-9.14814E-06 2.00293E-14 6.05427E-14
 -1       102-1.09266E-04 3.13182E-05 1.56222E-26-1.00312E-03 4.59241E-14 7.66104E-14
 -1       103-6.09012E-05 2.11996E-05 1.70270E-26-1.38475E-03 4.44839E-14 9.20952E-14
 -1       104-8.97324E-05 6.13472E-05 1.09896E-25-1.34751E-03 2.70018E-14 2.37241E-13
 -1       105-3.61338E-05 7.02263E-05 1.77404E-25-1.23649E-03 2.44325E-14 3.09151E-13
 -1       106 1.14524E-05 1.00620E-04-6.12529E-26-1.05917E-03 2.30100E-14 8.41680E-14
 -1       107-1.88563E-05 2.20127E-04 8.72927E-26-6.75442E-04-1.15755E-15-3.61967E-13
 -1       108-1.88562E-05 2.20127E-04 8.72902E-26-6.75442E-04-1.15788E-15-3.61963E-13
 -1       109 1.14524E-05 1.00620E-04-6.12518E-26-1.05917E-03 2.30101E-14 8.41653E-14
 -1       110-3.61338E-05 7.02263E-05 1.77405E-25-1.23649E-03 2.44326E-14 3.09151E-13
 -1       111-8.97324E-05 6.13472E-05 1.09895E-25-1.34751E-03 2.70017E-14 2.37240E-13
 -1       112-6.09012E-05 2.11996E-05 1.70281E-26-1.38475E-03 4.44838E-14 9.20975E-14
 -1       113-1.09266E-04 3.13182E-05 1.56218E-26-1.00312E-03 4.59241E-14 7.66092E-14
 -1       114-2.07218E-04 1.16126E-04 7.71155E-27-9.14814E-06 2.00290E-14 6.05426E-14
 -1       115-2.30417E-04 2.12946E-04 4.26373E-27 1.04828E-03-2.86310E-15 5.62208E-14
 -1       116-2.18389E-04 3.19589E-04-5.80348E-27 1.50402E-03 1.50959E-14-4.31718E-14
 -1       117-2.61852E-04 4.63587E-04 1.03334E-25 1.31459E-03 1.97826E-14-2.35399E-13
 -1       118-3.30980E-04 6.18587E-04 1.69216E-25 8.75170E-04 1.67427E-14-2.91319E-13
 -1       119-3.90434E-04 7.28970E-04 9.10172E-26 6.53021E-04 1.96401E-14-2.19557E-13
 -1       120-3.95341E-04 8.02614E-04 2.28651E-28 8.73728E-04-1.92386E-14-7.14292E-14
 -1       121-4.46965E-04 8.96381E-04 9.67636E-27 1.39576E-03-2.36000E-14 8.62404E-14
 -1       122-5.00522E-04 9.64026E-04 4.81494E-26 1.96254E-03 1.55199E-15 1.58329E-13
 -1       123-4.92721E-04 9.43012E-04 1.21138E-26 2.39872E-03 2.28114E-14 7.94195E-14
 -1       124-4.98696E-04 8.89311E-04 3.10378E-27 2.67273E-03 4.42320E-15 4.65395E-14
 -1       125-5.53285E-04 8.35333E-04 3.27994E-27 3.06578E-03-2.03277E-14 3.91782E-14
 -1       126-4.92077E-04 5.71717E-04-1.63156E-28 2.67907E-03-9.92163E-15-7.06021E-15
 -3
    1PSTEP                        96          24           1          
  100CL  124 2.40000E-01         126                     1   24           1
 -4  ERROR       1    1
 -5  STR(%)      1    1    0    0
 -1         1 6.33494E+01
 -1         2 6.33494E+01
 -1         3 6.82128E+01
 -1         4 6.82128E+01
 -1         5 1.54077E+01
 -1         6 1.54077E+01
 -1         7 6.40323E+01
 -1         8 6.40323E+01
 -1         9 6.82128E+01
 -1        10 6.82128E+01
 -1        11 6.40323E+01
 -1        12 6.40323E+01
 -1        13 6.33494E+01
 -1        14 5.94845E+01
 -1        15 5.77643E+01
 -1        16 5.25676E+01
 -1        17 3.74506E+01
 -1        18 5.89108E+01
 -1        19 7.65836E+01
 -1        20 7.65836E+01
 -1        21 7.22329E+01
 -1        22 6.74011E+01
 -1        23 6.40913E+01
 -1        24 6.29845E+01
 -1        25 6.07964E+01
 -1        26 6.16114E+01
 -1        27 6.18037E+01
 -1        28 6.18849E+01
 -1        29 6.18849E+01
 -1        30 5.93524E+01
 -1        31 6.82128E+01
 -1        32 6.33494E+01
 -1        33 5.94845E+01
 -1        34 5.77643E+01
 -1        35 5.25676E+01
 -1        36 3.74506E+01
 -1        37 5.89108E+01
 -1        38 7.65836E+01
 -1        39 7.65836E+01
 -1        40 7.22329E+01
 -1        41 6.74011E+01
 -1        42 6.40913E+01
 -1        43 6.29845E+01
 -1        44 6.07964E+01
 -1        45 6.16114E+01
 -1        46 6.18037E+01
 -1        47 6.18849E+01
 -1        48 6.18849E+01
 -1        49 5.93524E+01
 -1        50 6.82128E+01
 -1        51 4.59852E+01
 -1        52 5.69415E+01
 -1        53 6.05277E+01
 -1        54 6.19407E+01
 -1        55 6.22165E+01
 -1        56 6.22165E+01
 -1        57 6.07110E+01
 -1        58 6.09400E+01
 -1        59 6.09400E+01
 -1        60 5.92794E+01
 -1        61 5.70641E+01
 -1        62 5.40032E+01
 -1        63 5.09383E+01
 -1        64 4.05471E+01
 -1        65 4.87532E+01
 -1        66 6.28362E+01
 -1        67 6.52154E+01
 -1        68 6.52154E+01
 -1        69 6.40800E+01
 -1        70 4.59852E+01
 -1        71 5.69415E+01
 -1        72 6.05277E+01
 -1        73 6.19407E+01
 -1        74 6.22165E+01
 -1        75 6.22165E+01
 -1        76 6.07110E+01
 -1        77 6.09400E+01
 -1        78 6.09400E+01
 -1        79 5.92794E+01
 -1        80 5.70641E+01
 -1        81 5.40032E+01
 -1        82 5.09383E+01
 -1        83 4.05471E+01
 -1        84 4.87532E+01
 -1        85 6.28362E+01
 -1        86 6.52154E+01
 -1        87 6.52154E+01
 -1        88 6.40800E+01
 -1        89 6.40800E+01
 -1        90 6.52154E+01
 -1        91 6.52154E+01
 -1        92 6.28362E+01
 -1        93 4.87532E+01
 -1        94 5.89108E+01
 -1        95 7.65836E+01
 -1        96 7.65836E+01
 -1        97 7.22329E+01
 -1        98 6.74011E+01
 -1        99 6.40913E+01
 -1       100 6.29845E+01
 -1       101 6.07964E+01
 -1       102 6.22165E+01
 -1       103 6.22165E+01
 -1       104 6.19407E+01
 -1       105 6.18849E+01
 -1       106 5.93524E+01
 -1       107 6.82128E+01
 -1       108 6.82128E+01
 -1       109 5.93524E+01
 -1       110 6.18849E+01
 -1       111 6.19407E+01
 -1       112 6.22165E+01
 -1       113 6.22165E+01
 -1       114 6.07964E+01
 -1       115 6.29845E+01
 -1       116 6.40913E+01
 -1       117 6.74011E+01
 -1       118 7.22329E+01
 -1       119 7.65836E+01
 -1       120 7.65836E+01
 -1       121 5.89108E+01
 -1       122 4.87532E+01
 -1       123 6.28362E+01
 -1       124 6.52154E+01
 -1       125 6.52154E+01
 -1       126 6.40800E+01
 -3
    1PSTEP                        97          25           1          
  100CL  125 2.50000E-01         126                     1   25           1
 -4  DISP        4    1
 -5  D1          1    2    1    0
 -5  D2          1    2    2    0
 -5  D3          1    2    3    0
 -5  ALL         1    2    0    0    1ALL
 -1         1 0.00000E+00 0.00000E+00 0.00000E+00
 -1         2 0.00000E+00 0.00000E+00 0.00000E+00
 -1         3 3.22439E-02-2.99053E-03 0.00000E+00
 -1         4 3.22439E-02-2.99053E-03 0.00000E+00
 -1         5 3.21777E-02 6.40120E-04 0.00000E+00
 -1         6 3.21777E-02 6.40120E-04 0.00000E+00
 -1         7 0.00000E+00 0.00000E+00 0.00000E+00
 -1         8 0.00000E+00 0.00000E+00 0.00000E+00
 -1         9 3.22074E-02-1.16682E-03 0.00000E+00
 -1        10 3.22074E-02-1.16682E-03 0.00000E+00
 -1        11 0.00000E+00 0.00000E+00 0.00000E+00
 -1        12 0.00000E+00 0.00000E+00 0.00000E+00
 -1        13 1.30624E-03 1.37192E-03 0.00000E+00
 -1        14 3.58519E-03 2.46121E-03 0.00000E+00
 -1        15 6.82071E-03 3.16186E-03 0.00000E+00
 -1        16 1.06236E-02 3.53208E-03 0.00000E+00
 -1        17 1.47100E-02 3.63131E-03 0.00000E+00
 -1        18 1.88602E-02 3.54316E-03 0.00000E+00
 -1        19 2.29309E-02 3.33775E-03 0.00000E+00
 -1        20 2.68709E-02 3.04662E-03 0.00000E+00
 -1        21 3.06248E-02 2.65618E-03 0.00000E+00
 -1        22 3.40767E-02 2.11807E-03 0.00000E+00
 -1        23 3.70017E-02 1.39881E-03 0.00000E+00
 -1        24 3.91272E-02 5.47713E-04 0.00000E+00
 -1        25 4.03161E-02-3.16095E-04 0.00000E+00
 -1        26 4.06244E-02-1.08808E-03 0.00000E+00
 -1        27 4.02084E-02-1.72798E-03 0.00000E+00
 -1        28 3.92227E-02-2.24258E-03 0.00000E+00
 -1        29 3.77697E-02-2.63113E-03 0.00000E+00
 -1        30 3.59887E-02-2.86780E-03 0.00000E+00
 -1        31 3.40939E-02-2.96180E-03 0.00000E+00
 -1        32 1.30624E-03 1.37192E-03 0.00000E+00
 -1        33 3.58519E-03 2.46121E-03 0.00000E+00
 -1        34 6.82071E-03 3.16186E-03 0.00000E+00
 -1        35 1.06236E-02 3.53208E-03 0.00000E+00
 -1        36 1.47100E-02 3.63131E-03 0.00000E+00
 -1        37 1.88602E-02 3.54316E-03 0.00000E+00
 -1        38 2.29309E-02 3.33775E-03 0.00000E+00
 -1        39 2.68709E-02 3.04662E-03 0.00000E+00
 -1        40 3.06248E-02 2.65618E-03 0.00000E+00
 -1        41 3.40767E-02 2.11807E-03 0.00000E+00
 -1        42 3.70017E-02 1.39881E-03 0.00000E+00
 -1        43 3.91272E-02 5.47713E-04 0.00000E+00
 -1        44 4.03161E-02-3.16095E-04 0.00000E+00
 -1        45 4.06244E-02-1.08808E-03 0.00000E+00
 -1        46 4.02084E-02-1.72798E-03 0.00000E+00
 -1        47 3.92227E-02-2.24258E-03 0.00000E+00
 -1        48 3.77697E-02-2.63113E-03 0.00000E+00
 -1        49 3.59887E-02-2.86780E-03 0.00000E+00
 -1        50 3.40939E-02-2.96180E-03 0.00000E+00
 -1        51 3.40229E-02 6.57498E-04 0.00000E+00
 -1        52 3.59207E-02 6.02661E-04 0.00000E+00
 -1        53 3.77203E-02 3.96193E-04 0.00000E+00
 -1        54 3.91952E-02 2.00092E-05 0.00000E+00
 -1        55 4.01953E-02-4.97082E-04 0.00000E+00
 -1        56 4.06217E-02-1.14631E-03 0.00000E+00
 -1        57 4.03023E-02-1.91913E-03 0.00000E+00
 -1        58 3.90730E-02-2.74681E-03 0.00000E+00
 -1        59 3.68819E-02-3.49823E-03 0.00000E+00
 -1        60 3.38837E-02-4.04846E-03 0.00000E+00
 -1        61 3.03695E-02-4.36769E-03 0.00000E+00
 -1        62 2.65728E-02-4.51314E-03 0.00000E+00
 -1        63 2.25987E-02-4.54625E-03 0.00000E+00
 -1        64 1.85095E-02-4.48501E-03 0.00000E+00
 -1        65 1.43695E-02-4.30097E-03 0.00000E+00
 -1        66 1.03184E-02-3.94471E-03 0.00000E+00
 -1        67 6.57810E-03-3.36389E-03 0.00000E+00
 -1        68 3.42596E-03-2.52523E-03 0.00000E+00
 -1        69 1.23133E-03-1.37719E-03 0.00000E+00
 -1        70 3.40229E-02 6.57498E-04 0.00000E+00
 -1        71 3.59207E-02 6.02661E-04 0.00000E+00
 -1        72 3.77203E-02 3.96193E-04 0.00000E+00
 -1        73 3.91952E-02 2.00092E-05 0.00000E+00
 -1        74 4.01953E-02-4.97082E-04 0.00000E+00
 -1        75 4.06217E-02-1.14631E-03 0.00000E+00
 -1        76 4.03023E-02-1.91913E-03 0.00000E+00
 -1        77 3.90730E-02-2.74681E-03 0.00000E+00
 -1        78 3.68819E-02-3.49823E-03 0.00000E+00
 -1        79 3.38837E-02-4.04846E-03 0.00000E+00
 -1        80 3.03695E-02-4.36769E-03 0.00000E+00
 -1        81 2.65728E-02-4.51314E-03 0.00000E+00
 -1        82 2.25987E-02-4.54625E-03 0.00000E+00
 -1        83 1.85095E-02-4.48501E-03 0.00000E+00
 -1        84 1.43695E-02-4.30097E-03 0.00000E+00
 -1        85 1.03184E-02-3.94471E-03 0.00000E+00
 -1        86 6.57810E-03-3.36389E-03 0.00000E+00
 -1        87 3.42596E-03-2.52523E-03 0.00000E+00
 -1        88 1.23133E-03-1.37719E-03 0.00000E+00
 -1        89 9.24784E-04 6.85409E-06 0.00000E+00
 -1        90 3.30824E-03-1.70049E-05 0.00000E+00
 -1        91 6.55899E-03-8.80530E-05 0.00000E+00
 -1        92 1.03923E-02-1.99162E-04 0.00000E+00
 -1        93 1.45061E-02-3.32815E-04 0.00000E+00
 -1        94 1.86806E-02-4.70136E-04 0.00000E+00
 -1        95 2.27845E-02-6.03590E-04 0.00000E+00
 -1        96 2.67612E-02-7.34843E-04 0.00000E+00
 -1        97 3.05638E-02-8.60112E-04 0.00000E+00
 -1        98 3.40857E-02-9.71776E-04 0.00000E+00
 -1        99 3.70928E-02-1.05774E-03 0.00000E+00
 -1       100 3.92755E-02-1.10559E-03 0.00000E+00
 -1       101 4.04797E-02-1.12002E-03 0.00000E+00
 -1       102 4.07677E-02-1.11682E-03 0.00000E+00
 -1       103 4.03207E-02-1.10933E-03 0.00000E+00
 -1       104 3.93011E-02-1.10773E-03 0.00000E+00
 -1       105 3.78057E-02-1.11697E-03 0.00000E+00
 -1       106 3.59787E-02-1.13317E-03 0.00000E+00
 -1       107 3.40609E-02-1.15065E-03 0.00000E+00
 -1       108 3.40609E-02-1.15065E-03 0.00000E+00
 -1       109 3.59787E-02-1.13317E-03 0.00000E+00
 -1       110 3.78057E-02-1.11697E-03 0.00000E+00
 -1       111 3.93011E-02-1.10773E-03 0.00000E+00
 -1       112 4.03207E-02-1.10933E-03 0.00000E+00
 -1       113 4.07677E-02-1.11682E-03 0.00000E+00
 -1       114 4.04797E-02-1.12002E-03 0.00000E+00
 -1       115 3.92755E-02-1.10559E-03 0.00000E+00
 -1       116 3.70928E-02-1.05774E-03 0.00000E+00
 -1       117 3.40857E-02-9.71776E-04 0.00000E+00
 -1       118 3.05638E-02-8.60112E-04 0.00000E+00
 -1       119 2.67612E-02-7.34843E-04 0.00000E+00
 -1       120 2.27845E-02-6.03590E-04 0.00000E+00
 -1       121 1.86806E-02-4.70136E-04 0.00000E+00
 -1       122 1.45061E-02-3.32815E-04 0.00000E+00
 -1       123 1.03923E-02-1.99162E-04 0.00000E+00
 -1       124 6.55899E-03-8.80530E-05 0.00000E+00
 -1       125 3.30824E-03-1.70049E-05 0.00000E+00
 -1       126 9.24784E-04 6.85409E-06 0.00000E+00
 -3
    1PSTEP                        98          25           1          
  100CL  125 2.50000E-01         126                     1   25           1
 -4  STRESS      6    1
 -5  SXX         1    4    1    1
 -5  SYY         1    4    2    2
 -5  SZZ         1    4    3    3
 -5  SXY         1    4    1    2
 -5  SYZ         1    4    2    3
 -5  SZX         1    4    3    1
 -1         1 6.50726E+03 1.54174E+04 6.32336E+03 4.37660E+03 4.80296E-10 4.15796E-10
 -1         2 6.50726E+03 1.54174E+04 6.32336E+03 4.37660E+03 4.80296E-10 4.15796E-10
 -1         3-3.35417E+00 3.84687E+01 1.05107E+01-8.19574E+01-8.76345E-09-1.10421E-07
 -1         4-3.35417E+00 3.84687E+01 1.05107E+01-8.19574E+01-8.76349E-09-1.10421E-07
 -1         5 1.17524E+02 1.84754E+02 9.05901E+01-1.19404E+02 2.05012E-08-1.26958E-07
 -1         6 1.17524E+02 1.84754E+02 9.05901E+01-1.19404E+02 2.05013E-08-1.26958E-07
 -1         7-6.21869E+03-1.42185E+04-6.37361E+03 3.46191E+03 5.55183E-10-5.35585E-10
 -1         8-6.21869E+03-1.42185E+04-6.37361E+03 3.46191E+03 5.55183E-10-5.35585E-10
 -1         9 9.11719E+01 1.86735E+02 8.32769E+01-1.19500E+02 5.96538E-10-1.17164E-07
 -1        10 9.11719E+01 1.86735E+02 8.32769E+01-1.19500E+02 5.96600E-10-1.17164E-07
 -1        11 1.47174E+02 9.59869E+00 7.11056E+01 2.84406E+03 4.75093E-10-4.24096E-11
 -1        12 1.47174E+02 9.59869E+00 7.11056E+01 2.84406E+03 4.75093E-10-4.24096E-11
 -1        13 2.05560E+03 1.23127E+04 4.16620E+03 1.52209E+03 2.19658E-08 1.07181E-07
 -1        14 2.27803E+03 9.64921E+03 3.48454E+03 1.07873E+03 1.57940E-09 1.60886E-07
 -1        15 1.48616E+03 6.38913E+03 2.31853E+03 1.01383E+03-2.20983E-08 1.64412E-07
 -1        16 9.15988E+02 3.71941E+03 1.37384E+03 7.75090E+02-3.38359E-08 1.15560E-07
 -1        17 3.85937E+02 1.60432E+03 5.92735E+02 5.28612E+02-4.04826E-08 9.52326E-08
 -1        18-4.32552E+01 1.10294E+02 1.93132E+01 3.06814E+02-4.64110E-08 6.04600E-08
 -1        19-2.72836E+02-9.26476E+02-3.60870E+02 1.70995E+02-3.50458E-08 4.60556E-09
 -1        20-4.95840E+02-1.93339E+03-7.32548E+02 1.45529E+02-1.19524E-08-1.12027E-08
 -1        21-8.24458E+02-3.30576E+03-1.25021E+03 1.75507E+02 4.59089E-09 1.73280E-08
 -1        22-1.25986E+03-5.13615E+03-1.94619E+03 1.77493E+02 8.85247E-09 8.52579E-09
 -1        23-1.65635E+03-6.92507E+03-2.62472E+03 7.68056E+01 3.15430E-09 1.92366E-08
 -1        24-1.91156E+03-7.91899E+03-3.01476E+03-8.79765E+01 3.32270E-09 1.10899E-08
 -1        25-1.90017E+03-7.76172E+03-2.96101E+03-2.12914E+02 3.24154E-09-1.51273E-08
 -1        26-1.70060E+03-6.79461E+03-2.59571E+03-2.48678E+02-3.15279E-09-2.83358E-08
 -1        27-1.37689E+03-5.53840E+03-2.10552E+03-2.21156E+02-9.67163E-09-2.28069E-08
 -1        28-1.01465E+03-4.23585E+03-1.59362E+03-2.18997E+02-1.40381E-08-3.75237E-08
 -1        29-6.64529E+02-2.80517E+03-1.04964E+03-2.80781E+02-2.20852E-08-3.46276E-08
 -1        30-3.66841E+02-1.33888E+03-5.14158E+02-2.98835E+02-2.77080E-08-6.31807E-08
 -1        31-1.09790E+02-2.97312E+02-1.22424E+02-1.84566E+02-1.74854E-08-1.01817E-07
 -1        32 2.05560E+03 1.23127E+04 4.16620E+03 1.52209E+03 2.19658E-08 1.07181E-07
 -1        33 2.27803E+03 9.64921E+03 3.48454E+03 1.07873E+03 1.57938E-09 1.60886E-07
 -1        34 1.48616E+03 6.38913E+03 2.31853E+03 1.01383E+03-2.20983E-08 1.64412E-07
 -1        35 9.15988E+02 3.71941E+03 1.37384E+03 7.75090E+02-3.38359E-08 1.15560E-07
 -1        36 3.85937E+02 1.60432E+03 5.92735E+02 5.28612E+02-4.04827E-08 9.52327E-08
 -1        37-4.32552E+01 1.10294E+02 1.93132E+01 3.06814E+02-4.64113E-08 6.04579E-08
 -1        38-2.72836E+02-9.26476E+02-3.60870E+02 1.70995E+02-3.50455E-08 4.60559E-09
 -1        39-4.95840E+02-1.93339E+03-7.32548E+02 1.45529E+02-1.19524E-08-1.12027E-08
 -1        40-8.24458E+02-3.30576E+03-1.25021E+03 1.75507E+02 4.59089E-09 1.73280E-08
 -1        41-1.25986E+03-5.13615E+03-1.94619E+03 1.77493E+02 8.85244E-09 8.52578E-09
 -1        42-1.65635E+03-6.92507E+03-2.62472E+03 7.68056E+01 3.15426E-09 1.92359E-08
 -1        43-1.91156E+03-7.91899E+03-3.01476E+03-8.79765E+01 3.32273E-09 1.10893E-08
 -1        44-1.90017E+03-7.76172E+03-2.96101E+03-2.12914E+02 3.24155E-09-1.51273E-08
 -1        45-1.70060E+03-6.79461E+03-2.59571E+03-2.48678E+02-3.15282E-09-2.83358E-08
 -1        46-1.37689E+03-5.53840E+03-2.10552E+03-2.21156E+02-9.67164E-09-2.28072E-08
 -1        47-1.01465E+03-4.23585E+03-1.59362E+03-2.18997E+02-1.40380E-08-3.75246E-08
 -1        48-6.64529E+02-2.80517E+03-1.04964E+03-2.80781E+02-2.20849E-08-3.46233E-08
 -1        49-3.66841E+02-1.33888E+03-5.14158E+02-2.98835E+02-2.77081E-08-6.31819E-08
 -1        50-1.09790E+02-2.97312E+02-1.22424E+02-1.84566E+02-1.74854E-08-1.01817E-07
 -1        51 2.06101E+02 5.41531E+02 2.23684E+02-2.02039E+02 2.30540E-08-9.84943E-08
 -1        52 4.84923E+02 1.62997E+03 6.30923E+02-3.70367E+02 2.74311E-08-5.90085E-08
 -1        53 8.23060E+02 3.14478E+03 1.17943E+03-4.22136E+02 2.30157E-08-3.49033E-08
 -1        54 1.15042E+03 4.59233E+03 1.70160E+03-3.83185E+02 2.14969E-08-1.66855E-08
 -1        55 1.42166E+03 5.86781E+03 2.15355E+03-3.45995E+02 1.62052E-08-1.44581E-08
 -1        56 1.72430E+03 7.13475E+03 2.60894E+03-2.61021E+02 1.34162E-08-1.60634E-08
 -1        57 1.90101E+03 8.09070E+03 2.93486E+03-2.86748E+01 1.43207E-08-5.74206E-09
 -1        58 1.93128E+03 8.19254E+03 2.97210E+03 3.22119E+02 1.17402E-08-3.82850E-09
 -1        59 1.75169E+03 7.13562E+03 2.61552E+03 6.19717E+02 3.85988E-09 3.59869E-08
 -1        60 1.41636E+03 5.33652E+03 1.99666E+03 6.86961E+02-1.99986E-10 2.64265E-08
 -1        61 9.88485E+02 3.57979E+03 1.35697E+03 5.55095E+02 2.79833E-09-7.66992E-09
 -1        62 6.70176E+02 2.33982E+03 8.96992E+02 3.97662E+02 8.96211E-09-9.39345E-09
 -1        63 4.05210E+02 1.42173E+03 5.45489E+02 3.16829E+02 2.33422E-08 1.16556E-08
 -1        64 1.62073E+02 4.11516E+02 1.71132E+02 3.18396E+02 2.79529E-08 6.02940E-08
 -1        65-1.79774E+02-1.05685E+03-3.73144E+02 3.56157E+02 2.24494E-08 1.00643E-07
 -1        66-6.69516E+02-3.13012E+03-1.15105E+03 3.64195E+02 2.16526E-08 1.33259E-07
 -1        67-1.28153E+03-5.72912E+03-2.13796E+03 3.66093E+02 3.12244E-09 1.58548E-07
 -1        68-2.23337E+03-8.88072E+03-3.41697E+03 3.21824E+02-3.40794E-08 1.58499E-07
 -1        69-2.08273E+03-1.13932E+04-4.17748E+03 8.34842E+02-4.83805E-08 1.08439E-07
 -1        70 2.06101E+02 5.41531E+02 2.23684E+02-2.02039E+02 2.30541E-08-9.84945E-08
 -1        71 4.84923E+02 1.62997E+03 6.30923E+02-3.70367E+02 2.74311E-08-5.90084E-08
 -1        72 8.23060E+02 3.14478E+03 1.17943E+03-4.22136E+02 2.30157E-08-3.49033E-08
 -1        73 1.15042E+03 4.59233E+03 1.70160E+03-3.83185E+02 2.14969E-08-1.66855E-08
 -1        74 1.42166E+03 5.86781E+03 2.15355E+03-3.45995E+02 1.62052E-08-1.44578E-08
 -1        75 1.72430E+03 7.13475E+03 2.60894E+03-2.61021E+02 1.34162E-08-1.60636E-08
 -1        76 1.90101E+03 8.09070E+03 2.93486E+03-2.86748E+01 1.43207E-08-5.74205E-09
 -1        77 1.93128E+03 8.19254E+03 2.97210E+03 3.22119E+02 1.17405E-08-3.82153E-09
 -1        78 1.75169E+03 7.13562E+03 2.61552E+03 6.19717E+02 3.85981E-09 3.59816E-08
 -1        79 1.41636E+03 5.33652E+03 1.99666E+03 6.86961E+02-1.99976E-10 2.64275E-08
 -1        80 9.88485E+02 3.57979E+03 1.35697E+03 5.55095E+02 2.79830E-09-7.67343E-09
 -1        81 6.70176E+02 2.33982E+03 8.96992E+02 3.97662E+02 8.96210E-09-9.39353E-09
 -1        82 4.05210E+02 1.42173E+03 5.45489E+02 3.16829E+02 2.33422E-08 1.16561E-08
 -1        83 1.62073E+02 4.11516E+02 1.71132E+02 3.18396E+02 2.79530E-08 6.02955E-08
 -1        84-1.79774E+02-1.05685E+03-3.73144E+02 3.56157E+02 2.24488E-08 1.00640E-07
 -1        85-6.69516E+02-3.13012E+03-1.15105E+03 3.64195E+02 2.16531E-08 1.33260E-07
 -1        86-1.28153E+03-5.72912E+03-2.13796E+03 3.66093E+02 3.12245E-09 1.58549E-07
 -1        87-2.23337E+03-8.88072E+03-3.41697E+03 3.21824E+02-3.40794E-08 1.58499E-07
 -1        88-2.08273E+03-1.13932E+04-4.17748E+03 8.34842E+02-4.83805E-08 1.08439E-07
 -1        89 5.05632E+01-7.55680E+00 2.05284E+01 8.58092E+02-1.54761E-08 1.03348E-07
 -1        90 1.06300E+02 1.07082E+02 7.39974E+01 9.96795E+02-1.64311E-08 1.68177E-07
 -1        91 1.38712E+02 1.65998E+02 9.42235E+01 8.61720E+02-5.97212E-09 1.65233E-07
 -1        92 1.47147E+02 2.08028E+02 1.06843E+02 7.28603E+02-6.23568E-09 1.23155E-07
 -1        93 1.22777E+02 2.45032E+02 1.09691E+02 5.55160E+02-1.43459E-08 9.65339E-08
 -1        94 8.05393E+01 2.62936E+02 1.02437E+02 3.94220E+02-1.02375E-08 6.34964E-08
 -1        95 8.03040E+01 2.37855E+02 9.52635E+01 3.09986E+02-2.58477E-09 7.12707E-09
 -1        96 9.65449E+01 1.67971E+02 7.97700E+01 3.41746E+02-3.13355E-09-1.24239E-08
 -1        97 9.95502E+01 7.75003E+01 5.45472E+01 4.62847E+02 6.46025E-09-4.60177E-10
 -1        98 1.06007E+02-7.96151E+00 3.25075E+01 5.54575E+02 8.98366E-09 1.79500E-08
 -1        99 8.06521E+01-6.41485E+01 9.45460E+00 4.46273E+02 1.44313E-09 2.64506E-08
 -1       100 4.20994E+01-6.68833E+01-1.51715E+00 1.39191E+02 8.74500E-09 8.80610E-09
 -1       101 2.76909E+01-2.97725E+01 5.93344E+00-1.71677E+02 1.26307E-08-9.23241E-09
 -1       102 3.61986E+01 2.45962E+01 2.41390E+01-3.34582E+02 5.60487E-09-2.07057E-08
 -1       103 4.13888E+01 6.53066E+01 3.60933E+01-3.62921E+02 3.55089E-09-1.82360E-08
 -1       104 7.44060E+01 9.58249E+01 5.30124E+01-3.88758E+02 2.84246E-09-2.61701E-08
 -1       105 8.46470E+01 1.19408E+02 6.16410E+01-4.54957E+02 5.23081E-10-3.53491E-08
 -1       106 7.41373E+01 1.47063E+02 6.62675E+01-4.23900E+02 1.47562E-09-6.34812E-08
 -1       107 7.47368E+01 1.72135E+02 7.38576E+01-2.36093E+02 4.69112E-10-1.01566E-07
 -1       108 7.47368E+01 1.72135E+02 7.38576E+01-2.36093E+02 4.69146E-10-1.01566E-07
 -1       109 7.41373E+01 1.47063E+02 6.62675E+01-4.23900E+02 1.47565E-09-6.34813E-08
 -1       110 8.46470E+01 1.19408E+02 6.16410E+01-4.54957E+02 5.23026E-10-3.53500E-08
 -1       111 7.44060E+01 9.58249E+01 5.30124E+01-3.88758E+02 2.84244E-09-2.61685E-08
 -1       112 4.13888E+01 6.53066E+01 3.60933E+01-3.62921E+02 3.55091E-09-1.82361E-08
 -1       113 3.61986E+01 2.45962E+01 2.41390E+01-3.34582E+02 5.60488E-09-2.07053E-08
 -1       114 2.76909E+01-2.97725E+01 5.93344E+00-1.71677E+02 1.26307E-08-9.23202E-09
 -1       115 4.20994E+01-6.68833E+01-1.51715E+00 1.39191E+02 8.74491E-09 8.80641E-09
 -1       116 8.06521E+01-6.41485E+01 9.45460E+00 4.46273E+02 1.44321E-09 2.64527E-08
 -1       117 1.06007E+02-7.96151E+00 3.25075E+01 5.54575E+02 8.98370E-09 1.79498E-08
 -1       118 9.95502E+01 7.75003E+01 5.45472E+01 4.62847E+02 6.46029E-09-4.59607E-10
 -1       119 9.65449E+01 1.67971E+02 7.97700E+01 3.41746E+02-3.13353E-09-1.24240E-08
 -1       120 8.03040E+01 2.37855E+02 9.52635E+01 3.09986E+02-2.58490E-09 7.12683E-09
 -1       121 8.05393E+01 2.62936E+02 1.02437E+02 3.94220E+02-1.02374E-08 6.34981E-08
 -1       122 1.22777E+02 2.45032E+02 1.09691E+02 5.55160E+02-1.43458E-08 9.65339E-08
 -1       123 1.47147E+02 2.08028E+02 1.06843E+02 7.28603E+02-6.23576E-09 1.23155E-07
 -1       124 1.38712E+02 1.65998E+02 9.42235E+01 8.61720E+02-5.97212E-09 1.65233E-07
 -1       125 1.06300E+02 1.07082E+02 7.39974E+01 9.96795E+02-1.64311E-08 1.68177E-07
 -1       126 5.05632E+01-7.55680E+00 2.05284E+01 8.58092E+02-1.54761E-08 1.03348E-07
 -3
    1PSTEP                        99          25           1          
  100CL  125 2.50000E-01         126                     1   25           1
 -4  TOSTRAIN    6    1
 -5  EXX         1    4    1    1
 -5  EYY         1    4    2    2
 -5  EZZ         1    4    3    3
 -5  EXY         1    4    1    2
 -5  EYZ         1    4    2    3
 -5  EZX         1    4    3    1
 -1         1-6.68391E-05 2.80884E-02-4.11668E-26 1.30622E-02 3.84899E-20 7.30653E-16
 -1         2-6.68391E-05 2.80884E-02-4.11668E-26 1.30622E-02 3.84899E-20 7.30653E-16
 -1         3-6.45754E-05 1.10113E-04 2.58355E-25-2.60632E-04-1.53693E-14-3.59690E-13
 -1         4-6.45754E-05 1.10113E-04 2.58355E-25-2.60632E-04-1.53694E-14-3.59690E-13
 -1         5 5.92172E-05 3.33489E-04 3.44463E-25-3.78686E-04 8.14528E-14-4.09772E-13
 -1         6 5.92172E-05 3.33489E-04 3.44463E-25-3.78686E-04 8.14531E-14-4.09772E-13
 -1         7-6.70926E-05-2.69276E-02-5.01006E-26 1.23131E-02 1.38455E-18-1.14596E-15
 -1         8-6.70926E-05-2.69276E-02-5.01006E-26 1.23131E-02 1.38455E-18-1.14596E-15
 -1         9-2.67911E-06 3.63672E-04 2.88007E-25-3.75595E-04 1.57538E-14-3.80381E-13
 -1        10-2.67911E-06 3.63672E-04 2.88007E-25-3.75595E-04 1.57540E-14-3.80381E-13
 -1        11-6.69658E-05 2.41146E-04-3.78402E-26 9.24764E-03 7.43802E-19-2.02544E-16
 -1        12-6.69658E-05 2.41146E-04-3.78402E-26 9.24764E-03 7.43802E-19-2.02544E-16
 -1        13-7.28154E-03 2.55541E-02 2.20802E-25 3.80240E-03 7.79774E-14 3.44554E-13
 -1        14-4.32581E-03 1.96021E-02 5.39760E-25 2.19375E-03 3.03209E-14 5.19877E-13
 -1        15-3.12214E-03 1.32504E-02 5.77404E-25 2.16072E-03-3.61997E-14 5.36873E-13
 -1        16-1.83501E-03 7.82025E-03 2.99150E-25 1.77617E-03-8.07180E-14 3.82530E-13
 -1        17-9.27279E-04 3.50374E-03 2.21525E-25 1.36933E-03-1.06110E-13 3.19136E-13
 -1        18-3.63854E-04 4.48763E-04 1.10672E-25 9.41955E-04-1.34511E-13 2.08282E-13
 -1        19 1.82232E-04-1.74374E-03 1.59044E-26 7.18543E-04-1.12624E-13 2.40674E-14
 -1        20 6.65754E-04-3.83208E-03 2.36838E-27 8.27778E-04-4.16544E-14-3.33262E-14
 -1        21 1.25080E-03-6.64477E-03 3.89277E-27 1.14871E-03 1.90414E-14 5.51328E-14
 -1        22 2.07808E-03-1.04555E-02 2.75257E-27 1.38026E-03 3.09042E-14 2.58748E-14
 -1        23 3.01316E-03-1.42893E-02 7.49876E-27 1.11882E-03 1.35585E-14 6.20877E-14
 -1        24 3.49327E-03-1.64313E-02 1.47002E-27 3.71528E-04 1.21779E-14 3.57415E-14
 -1        25 3.38534E-03-1.60946E-02 3.07150E-27-3.97609E-04 9.92034E-15-4.94225E-14
 -1        26 2.85468E-03-1.40082E-02 1.62016E-26-8.23123E-04-1.04426E-14-9.23055E-14
 -1        27 2.31262E-03-1.13743E-02 1.18471E-26-9.08753E-04-3.09105E-14-7.47027E-14
 -1        28 1.81857E-03-8.68834E-03 3.21354E-26-9.66608E-04-4.32944E-14-1.23201E-13
 -1        29 1.17468E-03-5.70632E-03 3.25987E-26-1.13511E-03-6.88107E-14-1.14936E-13
 -1        30 4.02115E-04-2.62492E-03 9.37632E-26-1.08608E-03-8.31693E-14-2.08657E-13
 -1        31-4.88769E-06-5.25147E-04 2.21587E-25-6.22185E-04-4.48437E-14-3.32889E-13
 -1        32-7.28154E-03 2.55541E-02 2.20802E-25 3.80240E-03 7.79774E-14 3.44554E-13
 -1        33-4.32581E-03 1.96021E-02 5.39760E-25 2.19375E-03 3.03208E-14 5.19877E-13
 -1        34-3.12214E-03 1.32504E-02 5.77403E-25 2.16072E-03-3.61997E-14 5.36873E-13
 -1        35-1.83501E-03 7.82025E-03 2.99148E-25 1.77617E-03-8.07181E-14 3.82529E-13
 -1        36-9.27279E-04 3.50374E-03 2.21526E-25 1.36933E-03-1.06110E-13 3.19137E-13
 -1        37-3.63854E-04 4.48763E-04 1.10667E-25 9.41955E-04-1.34513E-13 2.08276E-13
 -1        38 1.82232E-04-1.74374E-03 1.59047E-26 7.18543E-04-1.12623E-13 2.40674E-14
 -1        39 6.65754E-04-3.83208E-03 2.36838E-27 8.27778E-04-4.16544E-14-3.33262E-14
 -1        40 1.25080E-03-6.64477E-03 3.89277E-27 1.14871E-03 1.90415E-14 5.51328E-14
 -1        41 2.07808E-03-1.04555E-02 2.75256E-27 1.38026E-03 3.09041E-14 2.58748E-14
 -1        42 3.01316E-03-1.42893E-02 7.49804E-27 1.11882E-03 1.35582E-14 6.20855E-14
 -1        43 3.49327E-03-1.64313E-02 1.46976E-27 3.71528E-04 1.21779E-14 3.57392E-14
 -1        44 3.38534E-03-1.60946E-02 3.07150E-27-3.97609E-04 9.92036E-15-4.94225E-14
 -1        45 2.85468E-03-1.40082E-02 1.62016E-26-8.23123E-04-1.04426E-14-9.23055E-14
 -1        46 2.31262E-03-1.13743E-02 1.18473E-26-9.08753E-04-3.09105E-14-7.47035E-14
 -1        47 1.81857E-03-8.68834E-03 3.21365E-26-9.66608E-04-4.32943E-14-1.23204E-13
 -1        48 1.17468E-03-5.70632E-03 3.25913E-26-1.13511E-03-6.88102E-14-1.14922E-13
 -1        49 4.02115E-04-2.62492E-03 9.37657E-26-1.08608E-03-8.31694E-14-2.08661E-13
 -1        50-4.88769E-06-5.25147E-04 2.21586E-25-6.22185E-04-4.48438E-14-3.32888E-13
 -1        51-1.04838E-04 1.07543E-03 2.09744E-25-6.12466E-04 8.63174E-14-3.16965E-13
 -1        52-5.58825E-04 3.30062E-03 8.26169E-26-1.06181E-03 9.53347E-14-1.88210E-13
 -1        53-1.25001E-03 6.38285E-03 3.30996E-26-1.12476E-03 7.75613E-14-1.10793E-13
 -1        54-1.86835E-03 9.28404E-03 1.31079E-26-9.70230E-04 7.02608E-14-5.23721E-14
 -1        55-2.44083E-03 1.18387E-02 9.02749E-27-9.20870E-04 5.25011E-14-4.61150E-14
 -1        56-2.93283E-03 1.43336E-02 8.53365E-27-8.32479E-04 4.27811E-14-5.19862E-14
 -1        57-3.43664E-03 1.62724E-02 4.54176E-27-4.03036E-04 4.52002E-14-1.92916E-14
 -1        58-3.52494E-03 1.65243E-02-2.87505E-28 3.61209E-04 3.67463E-14-1.37270E-14
 -1        59-3.03491E-03 1.44646E-02 2.43900E-26 1.11459E-03 1.77991E-14 1.15864E-13
 -1        60-2.14769E-03 1.08588E-02 1.20584E-26 1.39603E-03 4.61764E-15 8.55676E-14
 -1        61-1.42266E-03 7.33112E-03-7.68917E-28 1.17367E-03 7.30511E-15-2.55032E-14
 -1        62-9.07201E-04 4.80689E-03 1.96176E-27 8.57190E-04 2.65850E-14-3.26532E-14
 -1        63-6.01006E-04 2.97001E-03 6.56837E-27 7.51238E-04 7.83052E-14 3.16475E-14
 -1        64-1.93746E-04 9.36971E-04 8.07149E-26 9.54943E-04 1.06153E-13 1.87797E-13
 -1        65 4.19648E-04-2.03268E-03 2.14487E-25 1.37631E-03 9.89257E-14 3.20125E-13
 -1        66 1.32262E-03-6.28886E-03 3.77552E-25 1.79466E-03 1.03418E-13 4.26707E-13
 -1        67 2.51467E-03-1.17118E-02 5.25222E-25 2.18172E-03 4.44806E-14 5.14336E-13
 -1        68 3.58362E-03-1.82209E-02 5.48631E-25 2.21278E-03-8.72353E-14 5.22143E-13
 -1        69 6.47750E-03-2.43521E-02 2.70820E-25 3.74374E-03-1.53285E-13 3.58562E-13
 -1        70-1.04838E-04 1.07543E-03 2.09745E-25-6.12466E-04 8.63175E-14-3.16966E-13
 -1        71-5.58825E-04 3.30062E-03 8.26161E-26-1.06181E-03 9.53347E-14-1.88209E-13
 -1        72-1.25001E-03 6.38285E-03 3.30995E-26-1.12476E-03 7.75614E-14-1.10793E-13
 -1        73-1.86835E-03 9.28404E-03 1.31078E-26-9.70230E-04 7.02608E-14-5.23721E-14
 -1        74-2.44083E-03 1.18387E-02 9.02729E-27-9.20870E-04 5.25010E-14-4.61143E-14
 -1        75-2.93283E-03 1.43336E-02 8.53383E-27-8.32479E-04 4.27811E-14-5.19869E-14
 -1        76-3.43664E-03 1.62724E-02 4.54182E-27-4.03036E-04 4.52002E-14-1.92916E-14
 -1        77-3.52494E-03 1.65243E-02-2.84464E-28 3.61209E-04 3.67481E-14-1.37044E-14
 -1        78-3.03491E-03 1.44646E-02 2.43855E-26 1.11459E-03 1.77981E-14 1.15846E-13
 -1        79-2.14769E-03 1.08588E-02 1.20584E-26 1.39603E-03 4.61788E-15 8.55706E-14
 -1        80-1.42266E-03 7.33112E-03-7.68980E-28 1.17367E-03 7.30421E-15-2.55146E-14
 -1        81-9.07201E-04 4.80689E-03 1.96173E-27 8.57190E-04 2.65850E-14-3.26535E-14
 -1        82-6.01006E-04 2.97001E-03 6.56877E-27 7.51238E-04 7.83054E-14 3.16492E-14
 -1        83-1.93746E-04 9.36971E-04 8.07197E-26 9.54943E-04 1.06153E-13 1.87802E-13
 -1        84 4.19648E-04-2.03268E-03 2.14477E-25 1.37631E-03 9.89233E-14 3.20118E-13
 -1        85 1.32262E-03-6.28886E-03 3.77562E-25 1.79466E-03 1.03420E-13 4.26713E-13
 -1        86 2.51467E-03-1.17118E-02 5.25223E-25 2.18172E-03 4.44806E-14 5.14337E-13
 -1        87 3.58362E-03-1.82209E-02 5.48631E-25 2.21278E-03-8.72353E-14 5.22143E-13
 -1        88 6.47750E-03-2.43521E-02 2.70820E-25 3.74374E-03-1.53285E-13 3.58562E-13
 -1        89-4.02024E-04 4.28869E-04 2.00851E-25 2.78546E-03-4.14569E-14 3.37385E-13
 -1        90-3.71093E-04 6.45085E-04 5.95817E-25 3.21751E-03-2.61453E-14 5.48794E-13
 -1        91-3.03734E-04 6.92537E-04 5.73933E-25 2.76517E-03 1.56710E-14 5.37088E-13
 -1        92-2.56196E-04 7.12381E-04 3.13969E-25 2.32171E-03 9.69509E-15 4.00594E-13
 -1        93-2.53815E-04 7.27906E-04 1.94655E-25 1.74631E-03-2.15928E-14 3.16522E-13
 -1        94-2.78800E-04 7.22594E-04 7.50141E-26 1.21470E-03-1.65830E-14 2.08419E-13
 -1        95-2.09387E-04 6.21431E-04-8.10260E-27 9.52803E-04-6.52566E-15 2.37660E-14
 -1        96-1.20724E-04 4.63804E-04 2.16848E-27 1.07878E-03-1.31633E-14-3.94622E-14
 -1        97-8.59305E-05 3.15507E-04-5.58099E-28 1.49278E-03 2.08785E-14-3.05081E-15
 -1        98-3.48054E-05 1.60407E-04 7.36335E-27 1.80996E-03 3.27687E-14 5.63331E-14
 -1        99-1.08754E-05 2.59891E-05 1.37891E-26 1.46564E-03 8.85357E-15 8.56310E-14
 -1       100-1.58356E-05-2.37435E-05 1.79017E-27 4.63066E-04 2.92381E-14 2.76039E-14
 -1       101-2.56502E-05 1.92258E-05 4.06066E-27-5.54077E-04 4.05017E-14-3.05927E-14
 -1       102-3.90761E-05 1.18280E-04 9.01284E-27-1.08639E-03 1.82285E-14-6.72366E-14
 -1       103-6.41052E-05 2.03415E-04 6.53713E-27-1.17727E-03 1.23729E-14-5.90746E-14
 -1       104-2.48908E-05 2.44255E-04 1.29151E-26-1.25943E-03 1.12422E-14-8.47568E-14
 -1       105-3.76645E-05 2.99722E-04 2.31002E-26-1.47078E-03 5.23273E-15-1.14751E-13
 -1       106-7.83547E-05 3.63943E-04 7.84896E-26-1.36455E-03 1.19646E-14-2.05974E-13
 -1       107-5.48629E-05 3.74813E-04 2.13458E-25-7.52907E-04 1.34614E-14-3.29763E-13
 -1       108-5.48629E-05 3.74813E-04 2.13457E-25-7.52907E-04 1.34614E-14-3.29762E-13
 -1       109-7.83547E-05 3.63943E-04 7.84908E-26-1.36455E-03 1.19648E-14-2.05974E-13
 -1       110-3.76645E-05 2.99722E-04 2.31020E-26-1.47078E-03 5.23264E-15-1.14754E-13
 -1       111-2.48908E-05 2.44255E-04 1.29131E-26-1.25943E-03 1.12420E-14-8.47517E-14
 -1       112-6.41052E-05 2.03415E-04 6.53710E-27-1.17727E-03 1.23730E-14-5.90747E-14
 -1       113-3.90761E-05 1.18280E-04 9.01250E-27-1.08639E-03 1.82286E-14-6.72353E-14
 -1       114-2.56502E-05 1.92258E-05 4.06051E-27-5.54077E-04 4.05018E-14-3.05915E-14
 -1       115-1.58356E-05-2.37435E-05 1.79021E-27 4.63066E-04 2.92378E-14 2.76050E-14
 -1       116-1.08754E-05 2.59891E-05 1.37911E-26 1.46564E-03 8.85415E-15 8.56377E-14
 -1       117-3.48054E-05 1.60407E-04 7.36336E-27 1.80996E-03 3.27688E-14 5.63326E-14
 -1       118-8.59305E-05 3.15507E-04-5.58072E-28 1.49278E-03 2.08788E-14-3.04897E-15
 -1       119-1.20724E-04 4.63804E-04 2.16848E-27 1.07878E-03-1.31632E-14-3.94624E-14
 -1       120-2.09387E-04 6.21431E-04-8.10316E-27 9.52803E-04-6.52611E-15 2.37652E-14
 -1       121-2.78800E-04 7.22594E-04 7.50183E-26 1.21470E-03-1.65823E-14 2.08424E-13
 -1       122-2.53815E-04 7.27906E-04 1.94655E-25 1.74631E-03-2.15925E-14 3.16522E-13
 -1       123-2.56196E-04 7.12381E-04 3.13971E-25 2.32171E-03 9.69496E-15 4.00596E-13
 -1       124-3.03734E-04 6.92537E-04 5.73934E-25 2.76517E-03 1.56710E-14 5.37089E-13
 -1       125-3.71093E-04 6.45085E-04 5.95817E-25 3.21751E-03-2.61452E-14 5.48794E-13
 -1       126-4.02024E-04 4.28869E-04 2.00851E-25 2.78546E-03-4.14569E-14 3.37385E-13
 -3
    1PSTEP                       100          25           1          
  100CL  125 2.50000E-01         126                     1   25           1
 -4  ERROR       1    1
 -5  STR(%)      1    1    0    0
 -1         1 6.36852E+01
 -1         2 6.36852E+01
 -1         3 2.76478E+01
 -1         4 2.76478E+01
 -1         5 7.38636E+00
 -1         6 7.38636E+00
 -1         7 6.38493E+01
 -1         8 6.38493E+01
 -1         9 2.76478E+01
 -1        10 2.76478E+01
 -1        11 6.38493E+01
 -1        12 6.38493E+01
 -1        13 6.36852E+01
 -1        14 6.01371E+01
 -1        15 5.84908E+01
 -1        16 5.35105E+01
 -1        17 4.30170E+01
 -1        18 8.05626E+01
 -1        19 8.05626E+01
 -1        20 6.56413E+01
 -1        21 6.40047E+01
 -1        22 6.18637E+01
 -1        23 6.16579E+01
 -1        24 6.08670E+01
 -1        25 6.12302E+01
 -1        26 6.27207E+01
 -1        27 6.37873E+01
 -1        28 6.37873E+01
 -1        29 6.35796E+01
 -1        30 5.53066E+01
 -1        31 3.89624E+01
 -1        32 6.36852E+01
 -1        33 6.01371E+01
 -1        34 5.84908E+01
 -1        35 5.35105E+01
 -1        36 4.30170E+01
 -1        37 8.05626E+01
 -1        38 8.05626E+01
 -1        39 6.56413E+01
 -1        40 6.40047E+01
 -1        41 6.18637E+01
 -1        42 6.16579E+01
 -1        43 6.08670E+01
 -1        44 6.12302E+01
 -1        45 6.27207E+01
 -1        46 6.37873E+01
 -1        47 6.37873E+01
 -1        48 6.35796E+01
 -1        49 5.53066E+01
 -1        50 3.89624E+01
 -1        51 2.50332E+01
 -1        52 4.78198E+01
 -1        53 5.79998E+01
 -1        54 5.98780E+01
 -1        55 6.07887E+01
 -1        56 6.09826E+01
 -1        57 6.09826E+01
 -1        58 6.15257E+01
 -1        59 6.15257E+01
 -1        60 6.10068E+01
 -1        61 5.79851E+01
 -1        62 5.41600E+01
 -1        63 4.75605E+01
 -1        64 3.90182E+01
 -1        65 5.53773E+01
 -1        66 6.27842E+01
 -1        67 6.45596E+01
 -1        68 6.45596E+01
 -1        69 6.38493E+01
 -1        70 2.50332E+01
 -1        71 4.78198E+01
 -1        72 5.79998E+01
 -1        73 5.98780E+01
 -1        74 6.07887E+01
 -1        75 6.09826E+01
 -1        76 6.09826E+01
 -1        77 6.15257E+01
 -1        78 6.15257E+01
 -1        79 6.10068E+01
 -1        80 5.79851E+01
 -1        81 5.41600E+01
 -1        82 4.75605E+01
 -1        83 3.90182E+01
 -1        84 5.53773E+01
 -1        85 6.27842E+01
 -1        86 6.45596E+01
 -1        87 6.45596E+01
 -1        88 6.38493E+01
 -1        89 6.38493E+01
 -1        90 6.45596E+01
 -1        91 6.45596E+01
 -1        92 6.27842E+01
 -1        93 5.53773E+01
 -1        94 8.05626E+01
 -1        95 8.05626E+01
 -1        96 6.56413E+01
 -1        97 6.40047E+01
 -1        98 6.18637E+01
 -1        99 6.16579E+01
 -1       100 6.15257E+01
 -1       101 6.12302E+01
 -1       102 6.27207E+01
 -1       103 6.37873E+01
 -1       104 6.37873E+01
 -1       105 6.35796E+01
 -1       106 5.53066E+01
 -1       107 3.89624E+01
 -1       108 3.89624E+01
 -1       109 5.53066E+01
 -1       110 6.35796E+01
 -1       111 6.37873E+01
 -1       112 6.37873E+01
 -1       113 6.27207E+01
 -1       114 6.12302E+01
 -1       115 6.15257E+01
 -1       116 6.16579E+01
 -1       117 6.18637E+01
 -1       118 6.40047E+01
 -1       119 6.56413E+01
 -1       120 8.05626E+01
 -1       121 8.05626E+01
 -1       122 5.53773E+01
 -1       123 6.27842E+01
 -1       124 6.45596E+01
 -1       125 6.45596E+01
 -1       126 6.38493E+01
 -3
    1PSTEP                       101          26           1          
  100CL  126 2.60000E-01         126                     1   26           1
 -4  DISP        4    1
 -5  D1          1    2    1    0
 -5  D2          1    2    2    0
 -5  D3          1    2    3    0
 -5  ALL         1    2    0    0    1ALL
 -1         1 0.00000E+00 0.00000E+00 0.00000E+00
 -1         2 0.00000E+00 0.00000E+00 0.00000E+00
 -1         3 3.53753E-02-2.99807E-03 0.00000E+00
 -1         4 3.53753E-02-2.99807E-03 0.00000E+00
 -1         5 3.53137E-02 2.37995E-04 0.00000E+00
 -1         6 3.53137E-02 2.37995E-04 0.00000E+00
 -1         7 0.00000E+00 0.00000E+00 0.00000E+00
 -1         8 0.00000E+00 0.00000E+00 0.00000E+00
 -1         9 3.53435E-02-1.37035E-03 0.00000E+00
 -1        10 3.53435E-02-1.37035E-03 0.00000E+00
 -1        11 0.00000E+00 0.00000E+00 0.00000E+00
 -1        12 0.00000E+00 0.00000E+00 0.00000E+00
 -1        13 1.35370E-03 1.40436E-03 0.00000E+00
 -1        14 3.71186E-03 2.50655E-03 0.00000E+00
 -1        15 7.03035E-03 3.20165E-03 0.00000E+00
 -1        16 1.09112E-02 3.57085E-03 0.00000E+00
 -1        17 1.50879E-02 3.69671E-03 0.00000E+00
 -1        18 1.94040E-02 3.65904E-03 0.00000E+00
 -1        19 2.37714E-02 3.49835E-03 0.00000E+00
 -1        20 2.81092E-02 3.19956E-03 0.00000E+00
 -1        21 3.22644E-02 2.71572E-03 0.00000E+00
 -1        22 3.59789E-02 2.02751E-03 0.00000E+00
 -1        23 3.89569E-02 1.19071E-03 0.00000E+00
 -1        24 4.10450E-02 3.11643E-04 0.00000E+00
 -1        25 4.22465E-02-5.10293E-04 0.00000E+00
 -1        26 4.26806E-02-1.23216E-03 0.00000E+00
 -1        27 4.24255E-02-1.85112E-03 0.00000E+00
 -1        28 4.15649E-02-2.34860E-03 0.00000E+00
 -1        29 4.02539E-02-2.69438E-03 0.00000E+00
 -1        30 3.86879E-02-2.88960E-03 0.00000E+00
 -1        31 3.70261E-02-2.97215E-03 0.00000E+00
 -1        32 1.35370E-03 1.40436E-03 0.00000E+00
 -1        33 3.71186E-03 2.50655E-03 0.00000E+00
 -1        34 7.03035E-03 3.20165E-03 0.00000E+00
 -1        35 1.09112E-02 3.57085E-03 0.00000E+00
 -1        36 1.50879E-02 3.69671E-03 0.00000E+00
 -1        37 1.94040E-02 3.65904E-03 0.00000E+00
 -1        38 2.37714E-02 3.49835E-03 0.00000E+00
 -1        39 2.81092E-02 3.19956E-03 0.00000E+00
 -1        40 3.22644E-02 2.71572E-03 0.00000E+00
 -1        41 3.59789E-02 2.02751E-03 0.00000E+00
 -1        42 3.89569E-02 1.19071E-03 0.00000E+00
 -1        43 4.10450E-02 3.11643E-04 0.00000E+00
 -1        44 4.22465E-02-5.10293E-04 0.00000E+00
 -1        45 4.26806E-02-1.23216E-03 0.00000E+00
 -1        46 4.24255E-02-1.85112E-03 0.00000E+00
 -1        47 4.15649E-02-2.34860E-03 0.00000E+00
 -1        48 4.02539E-02-2.69438E-03 0.00000E+00
 -1        49 3.86879E-02-2.88960E-03 0.00000E+00
 -1        50 3.70261E-02-2.97215E-03 0.00000E+00
 -1        51 3.69588E-02 2.37113E-04 0.00000E+00
 -1        52 3.86190E-02 1.66487E-04 0.00000E+00
 -1        53 4.01902E-02-2.78152E-05 0.00000E+00
 -1        54 4.15202E-02-3.84718E-04 0.00000E+00
 -1        55 4.23999E-02-9.05224E-04 0.00000E+00
 -1        56 4.26614E-02-1.54713E-03 0.00000E+00
 -1        57 4.22179E-02-2.27363E-03 0.00000E+00
 -1        58 4.09758E-02-3.06181E-03 0.00000E+00
 -1        59 3.88161E-02-3.84154E-03 0.00000E+00
 -1        60 3.57530E-02-4.49118E-03 0.00000E+00
 -1        61 3.19615E-02-4.90432E-03 0.00000E+00
 -1        62 2.77492E-02-5.05735E-03 0.00000E+00
 -1        63 2.33871E-02-5.00600E-03 0.00000E+00
 -1        64 1.90225E-02-4.81976E-03 0.00000E+00
 -1        65 1.47232E-02-4.52757E-03 0.00000E+00
 -1        66 1.05846E-02-4.10389E-03 0.00000E+00
 -1        67 6.77379E-03-3.48806E-03 0.00000E+00
 -1        68 3.54080E-03-2.62107E-03 0.00000E+00
 -1        69 1.27669E-03-1.43188E-03 0.00000E+00
 -1        70 3.69588E-02 2.37113E-04 0.00000E+00
 -1        71 3.86190E-02 1.66487E-04 0.00000E+00
 -1        72 4.01902E-02-2.78152E-05 0.00000E+00
 -1        73 4.15202E-02-3.84718E-04 0.00000E+00
 -1        74 4.23999E-02-9.05224E-04 0.00000E+00
 -1        75 4.26614E-02-1.54713E-03 0.00000E+00
 -1        76 4.22179E-02-2.27363E-03 0.00000E+00
 -1        77 4.09758E-02-3.06181E-03 0.00000E+00
 -1        78 3.88161E-02-3.84154E-03 0.00000E+00
 -1        79 3.57530E-02-4.49118E-03 0.00000E+00
 -1        80 3.19615E-02-4.90432E-03 0.00000E+00
 -1        81 2.77492E-02-5.05735E-03 0.00000E+00
 -1        82 2.33871E-02-5.00600E-03 0.00000E+00
 -1        83 1.90225E-02-4.81976E-03 0.00000E+00
 -1        84 1.47232E-02-4.52757E-03 0.00000E+00
 -1        85 1.05846E-02-4.10389E-03 0.00000E+00
 -1        86 6.77379E-03-3.48806E-03 0.00000E+00
 -1        87 3.54080E-03-2.62107E-03 0.00000E+00
 -1        88 1.27669E-03-1.43188E-03 0.00000E+00
 -1        89 9.65791E-04-5.36024E-06 0.00000E+00
 -1        90 3.43080E-03-4.29352E-05 0.00000E+00
 -1        91 6.76363E-03-1.30381E-04 0.00000E+00
 -1        92 1.06665E-02-2.57613E-04 0.00000E+00
 -1        93 1.48625E-02-4.09684E-04 0.00000E+00
 -1        94 1.91951E-02-5.78379E-04 0.00000E+00
 -1        95 2.35875E-02-7.54655E-04 0.00000E+00
 -1        96 2.79725E-02-9.31801E-04 0.00000E+00
 -1        97 3.22038E-02-1.10169E-03 0.00000E+00
 -1        98 3.60033E-02-1.24274E-03 0.00000E+00
 -1        99 3.90565E-02-1.33507E-03 0.00000E+00
 -1       100 4.11860E-02-1.38100E-03 0.00000E+00
 -1       101 4.23944E-02-1.39523E-03 0.00000E+00
 -1       102 4.28126E-02-1.39072E-03 0.00000E+00
 -1       103 4.25337E-02-1.37810E-03 0.00000E+00
 -1       104 4.16332E-02-1.36650E-03 0.00000E+00
 -1       105 4.02774E-02-1.35929E-03 0.00000E+00
 -1       106 3.86776E-02-1.35850E-03 0.00000E+00
 -1       107 3.69984E-02-1.36388E-03 0.00000E+00
 -1       108 3.69984E-02-1.36388E-03 0.00000E+00
 -1       109 3.86776E-02-1.35850E-03 0.00000E+00
 -1       110 4.02774E-02-1.35929E-03 0.00000E+00
 -1       111 4.16332E-02-1.36650E-03 0.00000E+00
 -1       112 4.25337E-02-1.37810E-03 0.00000E+00
 -1       113 4.28126E-02-1.39072E-03 0.00000E+00
 -1       114 4.23944E-02-1.39523E-03 0.00000E+00
 -1       115 4.11860E-02-1.38100E-03 0.00000E+00
 -1       116 3.90565E-02-1.33507E-03 0.00000E+00
 -1       117 3.60033E-02-1.24274E-03 0.00000E+00
 -1       118 3.22038E-02-1.10169E-03 0.00000E+00
 -1       119 2.79725E-02-9.31801E-04 0.00000E+00
 -1       120 2.35875E-02-7.54655E-04 0.00000E+00
 -1       121 1.91951E-02-5.78379E-04 0.00000E+00
 -1       122 1.48625E-02-4.09684E-04 0.00000E+00
 -1       123 1.06665E-02-2.57613E-04 0.00000E+00
 -1       124 6.76363E-03-1.30381E-04 0.00000E+00
 -1       125 3.43080E-03-4.29352E-05 0.00000E+00
 -1       126 9.65791E-04-5.36024E-06 0.00000E+00
 -3
    1PSTEP                       102          26           1          
  100CL  126 2.60000E-01         126                     1   26           1
 -4  STRESS      6    1
 -5  SXX         1    4    1    1
 -5  SYY         1    4    2    2
 -5  SZZ         1    4    3    3
 -5  SXY         1    4    1    2
 -5  SYZ         1    4    2    3
 -5  SZX         1    4    3    1
 -1         1 6.67292E+03 1.57998E+04 6.47468E+03 4.54509E+03 5.47944E-10 5.61056E-10
 -1         2 6.67292E+03 1.57998E+04 6.47468E+03 4.54509E+03 5.47944E-10 5.61056E-10
 -1         3-4.69691E+01-1.50435E+01-1.86152E+01-7.13493E+01 1.04939E-07 8.77605E-08
 -1         4-4.69691E+01-1.50435E+01-1.86152E+01-7.13493E+01 1.04939E-07 8.77607E-08
 -1         5 9.46066E+01 2.75932E+02 1.11028E+02-1.16301E+02-1.21940E-07 1.30032E-07
 -1         6 9.46066E+01 2.75932E+02 1.11028E+02-1.16301E+02-1.21940E-07 1.30032E-07
 -1         7-6.46089E+03-1.47562E+04-6.62788E+03 3.57532E+03 5.58648E-10-4.81624E-10
 -1         8-6.46089E+03-1.47562E+04-6.62788E+03 3.57532E+03 5.58648E-10-4.81620E-10
 -1         9 5.42387E+01 1.96681E+02 7.51834E+01-1.15864E+02 8.41927E-10 1.04091E-07
 -1        10 5.42387E+01 1.96681E+02 7.51834E+01-1.15864E+02 8.41865E-10 1.04091E-07
 -1        11 1.02354E+02-1.23598E+02 1.83305E+01 2.96763E+03 4.77043E-10 6.52184E-11
 -1        12 1.02354E+02-1.23598E+02 1.83305E+01 2.96763E+03 4.77043E-10 6.52111E-11
 -1        13 2.12389E+03 1.25683E+04 4.25763E+03 1.59092E+03 4.71869E-08 1.16965E-07
 -1        14 2.31577E+03 9.73203E+03 3.51936E+03 1.11697E+03 2.97238E-08 1.72108E-07
 -1        15 1.50326E+03 6.41396E+03 2.33137E+03 1.01314E+03-2.04108E-08 2.11514E-07
 -1        16 9.36803E+02 3.90730E+03 1.43586E+03 7.43910E+02-5.41131E-08 1.73530E-07
 -1        17 5.00430E+02 2.09619E+03 7.73342E+02 5.02699E+02-5.07110E-08 1.00736E-07
 -1        18 1.56058E+02 7.77122E+02 2.78538E+02 3.49808E+02-2.21268E-08 4.33970E-08
 -1        19-1.60105E+02-4.91515E+02-1.96486E+02 2.92387E+02-8.42978E-11 4.42939E-08
 -1        20-5.41020E+02-2.14619E+03-8.11757E+02 2.85219E+02 3.66656E-09 5.67023E-08
 -1        21-1.00695E+03-4.23175E+03-1.59102E+03 2.32627E+02-8.59584E-09 9.21443E-08
 -1        22-1.53633E+03-6.28563E+03-2.38834E+03 7.36410E+01-2.66554E-08 8.71499E-08
 -1        23-1.87603E+03-7.59865E+03-2.90261E+03-1.22469E+02-2.93059E-08 2.93240E-08
 -1        24-1.96101E+03-7.87155E+03-3.01383E+03-2.43070E+02-2.41453E-08-2.28183E-08
 -1        25-1.84637E+03-7.34380E+03-2.81183E+03-2.49271E+02-2.43505E-08-4.29827E-08
 -1        26-1.65961E+03-6.47706E+03-2.48338E+03-2.14417E+02-2.07332E-08-5.37356E-08
 -1        27-1.35782E+03-5.38256E+03-2.05168E+03-2.36251E+02-2.25491E-08-6.32347E-08
 -1        28-1.03352E+03-4.01564E+03-1.53145E+03-2.84540E+02-2.01562E-08-9.84751E-08
 -1        29-6.88603E+02-2.49676E+03-9.62279E+02-2.90564E+02 1.52152E-08-1.39908E-07
 -1        30-3.62741E+02-1.16547E+03-4.60119E+02-2.41034E+02 6.83880E-08-1.22818E-07
 -1        31-1.33934E+02-3.06236E+02-1.32249E+02-1.44601E+02 9.86379E-08-1.97834E-08
 -1        32 2.12389E+03 1.25683E+04 4.25763E+03 1.59092E+03 4.71869E-08 1.16965E-07
 -1        33 2.31577E+03 9.73203E+03 3.51936E+03 1.11697E+03 2.97238E-08 1.72108E-07
 -1        34 1.50326E+03 6.41396E+03 2.33137E+03 1.01314E+03-2.04108E-08 2.11514E-07
 -1        35 9.36803E+02 3.90730E+03 1.43586E+03 7.43910E+02-5.41131E-08 1.73530E-07
 -1        36 5.00430E+02 2.09619E+03 7.73342E+02 5.02699E+02-5.07111E-08 1.00736E-07
 -1        37 1.56058E+02 7.77122E+02 2.78538E+02 3.49808E+02-2.21268E-08 4.33975E-08
 -1        38-1.60105E+02-4.91515E+02-1.96486E+02 2.92387E+02-8.45008E-11 4.42933E-08
 -1        39-5.41020E+02-2.14619E+03-8.11757E+02 2.85219E+02 3.66656E-09 5.67023E-08
 -1        40-1.00695E+03-4.23175E+03-1.59102E+03 2.32627E+02-8.59585E-09 9.21443E-08
 -1        41-1.53633E+03-6.28563E+03-2.38834E+03 7.36410E+01-2.66554E-08 8.71499E-08
 -1        42-1.87603E+03-7.59865E+03-2.90261E+03-1.22469E+02-2.93059E-08 2.93235E-08
 -1        43-1.96101E+03-7.87155E+03-3.01383E+03-2.43070E+02-2.41453E-08-2.28173E-08
 -1        44-1.84637E+03-7.34380E+03-2.81183E+03-2.49271E+02-2.43506E-08-4.29827E-08
 -1        45-1.65961E+03-6.47706E+03-2.48338E+03-2.14417E+02-2.07332E-08-5.37359E-08
 -1        46-1.35782E+03-5.38256E+03-2.05168E+03-2.36251E+02-2.25491E-08-6.32347E-08
 -1        47-1.03352E+03-4.01564E+03-1.53145E+03-2.84540E+02-2.01562E-08-9.84751E-08
 -1        48-6.88603E+02-2.49676E+03-9.62279E+02-2.90564E+02 1.52152E-08-1.39909E-07
 -1        49-3.62741E+02-1.16547E+03-4.60119E+02-2.41034E+02 6.83880E-08-1.22814E-07
 -1        50-1.33934E+02-3.06236E+02-1.32249E+02-1.44601E+02 9.86380E-08-1.97843E-08
 -1        51 1.51986E+02 6.06174E+02 2.26843E+02-1.66992E+02-1.03965E-07 2.49743E-09
 -1        52 3.69446E+02 1.53520E+03 5.68404E+02-2.99256E+02-6.76999E-08-1.27360E-07
 -1        53 6.43562E+02 2.88089E+03 1.04807E+03-4.01282E+02-2.02094E-08-1.39397E-07
 -1        54 9.91202E+02 4.42582E+03 1.60473E+03-4.19432E+02 5.53456E-09-1.05689E-07
 -1        55 1.30006E+03 5.78502E+03 2.09234E+03-3.29169E+02 6.88911E-09-6.18937E-08
 -1        56 1.54666E+03 6.81387E+03 2.46365E+03-1.98829E+02 1.02525E-08-5.14988E-08
 -1        57 1.72493E+03 7.63020E+03 2.75137E+03-6.10654E+01 2.27784E-08-3.71818E-08
 -1        58 1.82338E+03 8.10534E+03 2.91561E+03 1.69649E+02 3.70972E-08-3.43987E-09
 -1        59 1.75993E+03 7.75478E+03 2.79545E+03 4.83281E+02 3.78228E-08 3.39856E-08
 -1        60 1.52647E+03 6.36248E+03 2.32503E+03 7.22357E+02 1.00394E-08 8.20850E-08
 -1        61 1.09682E+03 4.27806E+03 1.59204E+03 7.47406E+02-1.49786E-08 9.46676E-08
 -1        62 5.99466E+02 2.21337E+03 8.37307E+02 5.71400E+02-1.15343E-08 6.64223E-08
 -1        63 1.84309E+02 6.27229E+02 2.42153E+02 3.66244E+02 7.15316E-09 5.30296E-08
 -1        64-1.04857E+02-5.59832E+02-2.00237E+02 2.59675E+02 3.01151E-08 4.75519E-08
 -1        65-4.45524E+02-1.82787E+03-6.85781E+02 2.52097E+02 3.62792E-08 9.71272E-08
 -1        66-8.88862E+02-3.59765E+03-1.35955E+03 2.84799E+02 1.48197E-08 1.60403E-07
 -1        67-1.44401E+03-6.01885E+03-2.27667E+03 3.38370E+02-1.53499E-08 2.21443E-07
 -1        68-2.41880E+03-9.21504E+03-3.57937E+03 3.27577E+02-3.60208E-08 1.93453E-07
 -1        69-2.22999E+03-1.18316E+04-4.36457E+03 8.67670E+02-3.60889E-08 1.07781E-07
 -1        70 1.51986E+02 6.06174E+02 2.26843E+02-1.66992E+02-1.03965E-07 2.49667E-09
 -1        71 3.69446E+02 1.53520E+03 5.68404E+02-2.99256E+02-6.77000E-08-1.27358E-07
 -1        72 6.43562E+02 2.88089E+03 1.04807E+03-4.01282E+02-2.02094E-08-1.39400E-07
 -1        73 9.91202E+02 4.42582E+03 1.60473E+03-4.19432E+02 5.53463E-09-1.05692E-07
 -1        74 1.30006E+03 5.78502E+03 2.09234E+03-3.29169E+02 6.88905E-09-6.18939E-08
 -1        75 1.54666E+03 6.81387E+03 2.46365E+03-1.98829E+02 1.02525E-08-5.14992E-08
 -1        76 1.72493E+03 7.63020E+03 2.75137E+03-6.10654E+01 2.27785E-08-3.71821E-08
 -1        77 1.82338E+03 8.10534E+03 2.91561E+03 1.69649E+02 3.70972E-08-3.43183E-09
 -1        78 1.75993E+03 7.75478E+03 2.79545E+03 4.83281E+02 3.78229E-08 3.39801E-08
 -1        79 1.52647E+03 6.36248E+03 2.32503E+03 7.22357E+02 1.00396E-08 8.20882E-08
 -1        80 1.09682E+03 4.27806E+03 1.59204E+03 7.47406E+02-1.49791E-08 9.46675E-08
 -1        81 5.99466E+02 2.21337E+03 8.37307E+02 5.71400E+02-1.15344E-08 6.64224E-08
 -1        82 1.84309E+02 6.27229E+02 2.42153E+02 3.66244E+02 7.15330E-09 5.30298E-08
 -1        83-1.04857E+02-5.59832E+02-2.00237E+02 2.59675E+02 3.01147E-08 4.75499E-08
 -1        84-4.45524E+02-1.82787E+03-6.85781E+02 2.52097E+02 3.62793E-08 9.71281E-08
 -1        85-8.88862E+02-3.59765E+03-1.35955E+03 2.84799E+02 1.48193E-08 1.60403E-07
 -1        86-1.44401E+03-6.01885E+03-2.27667E+03 3.38370E+02-1.53498E-08 2.21442E-07
 -1        87-2.41880E+03-9.21504E+03-3.57937E+03 3.27577E+02-3.60208E-08 1.93453E-07
 -1        88-2.22999E+03-1.18316E+04-4.36457E+03 8.67670E+02-3.60889E-08 1.07781E-07
 -1        89 1.30154E+01-1.33229E+02-2.77716E+01 9.10641E+02 7.71108E-09 1.01160E-07
 -1        90 3.98447E+01-2.49038E+01 1.54436E+01 1.02870E+03-3.71127E-09 1.89941E-07
 -1        91 7.11268E+01 4.04602E+01 3.71367E+01 8.39988E+02-2.56223E-08 2.18900E-07
 -1        92 5.27961E+01 8.00885E+01 4.10067E+01 6.55307E+02-2.20471E-08 1.77768E-07
 -1        93 4.17373E+01 9.39179E+01 4.07030E+01 4.72067E+02-1.51622E-09 9.62317E-08
 -1        94 3.50582E+01 8.11953E+01 3.44683E+01 3.82265E+02 7.77580E-09 4.20469E-08
 -1        95 3.05778E+01 5.19623E+01 2.42962E+01 4.22742E+02 1.91868E-09 4.15964E-08
 -1        96 5.42854E+01-4.62980E+00 1.49173E+01 5.52287E+02-5.62871E-09 6.50238E-08
 -1        97 7.21331E+01-7.15665E+01 1.50830E+00 6.27578E+02-1.24092E-08 9.40741E-08
 -1        98 2.86946E+01-1.09050E+02-2.08167E+01 5.08957E+02-6.59222E-09 9.25183E-08
 -1        99-2.20766E+01-1.05894E+02-3.30147E+01 2.27816E+02 5.44671E-09 3.25495E-08
 -1       100-4.11049E+01-8.19179E+01-3.02212E+01-5.66726E+01 3.80934E-09-1.45274E-08
 -1       101-4.02108E+01-3.63346E+01-1.60598E+01-2.11061E+02-2.58006E-09-3.92947E-08
 -1       102-3.94254E+01 2.56832E+01 1.28362E+00-2.70580E+02-4.09528E-09-5.32483E-08
 -1       103-1.53508E+01 9.53062E+01 2.71138E+01-3.60006E+02-5.82962E-09-6.25528E-08
 -1       104-4.58109E+00 1.51792E+02 4.56839E+01-4.51761E+02-7.54356E-09-1.06942E-07
 -1       105-3.08402E+00 1.84710E+02 5.49775E+01-4.47677E+02-5.96050E-09-1.50822E-07
 -1       106 1.70341E+01 1.91184E+02 6.24416E+01-3.46182E+02-2.42042E-09-1.26998E-07
 -1       107 2.90262E+01 1.86700E+02 6.46065E+01-1.94918E+02 2.02902E-09-1.82280E-08
 -1       108 2.90262E+01 1.86700E+02 6.46065E+01-1.94918E+02 2.02888E-09-1.82265E-08
 -1       109 1.70341E+01 1.91184E+02 6.24416E+01-3.46182E+02-2.42039E-09-1.26999E-07
 -1       110-3.08402E+00 1.84710E+02 5.49775E+01-4.47677E+02-5.96044E-09-1.50821E-07
 -1       111-4.58109E+00 1.51792E+02 4.56839E+01-4.51761E+02-7.54356E-09-1.06942E-07
 -1       112-1.53508E+01 9.53062E+01 2.71138E+01-3.60006E+02-5.82968E-09-6.25524E-08
 -1       113-3.94254E+01 2.56832E+01 1.28362E+00-2.70580E+02-4.09523E-09-5.32475E-08
 -1       114-4.02108E+01-3.63346E+01-1.60598E+01-2.11061E+02-2.58016E-09-3.92944E-08
 -1       115-4.11049E+01-8.19179E+01-3.02212E+01-5.66726E+01 3.80940E-09-1.45304E-08
 -1       116-2.20766E+01-1.05894E+02-3.30147E+01 2.27816E+02 5.44663E-09 3.25515E-08
 -1       117 2.86946E+01-1.09050E+02-2.08167E+01 5.08957E+02-6.59228E-09 9.25177E-08
 -1       118 7.21331E+01-7.15665E+01 1.50830E+00 6.27578E+02-1.24092E-08 9.40741E-08
 -1       119 5.42854E+01-4.62980E+00 1.49173E+01 5.52287E+02-5.62867E-09 6.50238E-08
 -1       120 3.05778E+01 5.19623E+01 2.42962E+01 4.22742E+02 1.91864E-09 4.15963E-08
 -1       121 3.50582E+01 8.11953E+01 3.44683E+01 3.82265E+02 7.77580E-09 4.20472E-08
 -1       122 4.17373E+01 9.39179E+01 4.07030E+01 4.72067E+02-1.51617E-09 9.62309E-08
 -1       123 5.27961E+01 8.00885E+01 4.10067E+01 6.55307E+02-2.20471E-08 1.77768E-07
 -1       124 7.11268E+01 4.04602E+01 3.71367E+01 8.39988E+02-2.56223E-08 2.18900E-07
 -1       125 3.98447E+01-2.49038E+01 1.54436E+01 1.02870E+03-3.71127E-09 1.89941E-07
 -1       126 1.30154E+01-1.33229E+02-2.77716E+01 9.10641E+02 7.71107E-09 1.01160E-07
 -3
    1PSTEP                       103          26           1          
  100CL  126 2.60000E-01         126                     1   26           1
 -4  TOSTRAIN    6    1
 -5  EXX         1    4    1    1
 -5  EYY         1    4    2    2
 -5  EZZ         1    4    3    3
 -5  EXY         1    4    1    2
 -5  EYZ         1    4    2    3
 -5  EZX         1    4    3    1
 -1         1-7.11330E-05 2.87762E-02-5.37873E-26 1.35368E-02-1.41029E-18 1.14836E-15
 -1         2-7.11330E-05 2.87762E-02-5.37873E-26 1.35368E-02-1.41029E-18 1.14836E-15
 -1         3-1.07364E-04 2.66784E-05 3.15997E-25-2.28049E-04 3.31579E-13 2.96369E-13
 -1         4-1.07364E-04 2.66784E-05 3.15997E-25-2.28049E-04 3.31579E-13 2.96369E-13
 -1         5-7.75467E-05 5.58888E-04 5.55951E-25-3.57574E-04-4.09373E-13 4.09286E-13
 -1         6-7.75467E-05 5.58888E-04 5.55951E-25-3.57574E-04-4.09373E-13 4.09286E-13
 -1         7-7.11633E-05-2.79720E-02-4.48687E-26 1.27667E-02 5.05452E-19-9.71625E-16
 -1         8-7.11633E-05-2.79720E-02-4.48687E-26 1.27667E-02 5.05711E-19-9.71612E-16
 -1         9-9.24554E-05 4.18338E-04 1.29235E-25-3.60313E-04-8.21514E-15 3.38180E-13
 -1        10-9.24554E-05 4.18338E-04 1.29235E-25-3.60313E-04-8.21529E-15 3.38178E-13
 -1        11-7.11481E-05 8.18753E-06-3.50991E-26 9.65770E-03-3.59140E-19 1.46033E-16
 -1        12-7.11481E-05 8.18753E-06-3.50991E-26 9.65770E-03-3.59625E-19 1.46009E-16
 -1        13-7.38792E-03 2.60654E-02 2.90333E-25 3.96458E-03 1.58239E-13 3.73226E-13
 -1        14-4.33718E-03 1.97675E-02 6.23713E-25 2.27056E-03 1.21879E-13 5.50935E-13
 -1        15-3.11402E-03 1.32977E-02 9.45821E-25 2.12956E-03-1.98701E-14 6.88860E-13
 -1        16-1.95620E-03 8.21084E-03 6.82953E-25 1.61635E-03-1.30598E-13 5.75476E-13
 -1        17-1.12784E-03 4.48932E-03 2.44206E-25 1.17254E-03-1.36500E-13 3.39947E-13
 -1        18-5.79769E-04 1.78901E-03 3.93525E-26 9.45697E-04-5.95399E-14 1.46735E-13
 -1        19-5.47056E-05-7.94639E-04 4.05842E-26 1.03081E-03 1.19987E-14 1.43504E-13
 -1        20 6.82353E-04-4.18764E-03 6.49553E-26 1.35872E-03 2.72913E-14 1.82813E-13
 -1        21 1.69522E-03-8.55006E-03 1.77896E-25 1.57395E-03-5.08080E-15 3.01255E-13
 -1        22 2.61330E-03-1.28803E-02 1.68337E-25 1.27508E-03-6.92810E-14 2.89135E-13
 -1        23 3.24877E-03-1.57090E-02 2.23632E-26 5.56868E-04-9.24115E-14 1.00342E-13
 -1        24 3.37329E-03-1.63069E-02 1.55832E-26-1.44374E-04-8.27964E-14-7.16627E-14
 -1        25 3.10020E-03-1.51745E-02 4.97383E-26-5.10689E-04-8.32465E-14-1.38717E-13
 -1        26 2.63254E-03-1.33076E-02 6.93052E-26-6.67049E-04-6.91377E-14-1.74954E-13
 -1        27 2.19980E-03-1.10315E-02 9.25403E-26-9.13324E-04-7.24543E-14-2.06745E-13
 -1        28 1.55374E-03-8.15623E-03 2.06089E-25-1.13459E-03-6.00105E-14-3.21941E-13
 -1        29 8.24262E-04-4.97979E-03 4.06342E-25-1.11296E-03 6.18346E-14-4.53638E-13
 -1        30 2.62480E-04-2.25254E-03 3.74558E-25-8.67131E-04 2.35040E-13-3.92048E-13
 -1        31-3.72279E-05-5.35430E-04 1.40736E-25-4.88198E-04 3.22719E-13-5.36596E-14
 -1        32-7.38792E-03 2.60654E-02 2.90333E-25 3.96458E-03 1.58239E-13 3.73226E-13
 -1        33-4.33718E-03 1.97675E-02 6.23713E-25 2.27056E-03 1.21879E-13 5.50935E-13
 -1        34-3.11402E-03 1.32977E-02 9.45821E-25 2.12956E-03-1.98701E-14 6.88860E-13
 -1        35-1.95620E-03 8.21084E-03 6.82953E-25 1.61635E-03-1.30598E-13 5.75475E-13
 -1        36-1.12784E-03 4.48932E-03 2.44208E-25 1.17254E-03-1.36500E-13 3.39948E-13
 -1        37-5.79769E-04 1.78901E-03 3.93534E-26 9.45697E-04-5.95399E-14 1.46737E-13
 -1        38-5.47056E-05-7.94639E-04 4.05832E-26 1.03081E-03 1.19979E-14 1.43502E-13
 -1        39 6.82353E-04-4.18764E-03 6.49553E-26 1.35872E-03 2.72913E-14 1.82813E-13
 -1        40 1.69522E-03-8.55006E-03 1.77896E-25 1.57395E-03-5.08082E-15 3.01255E-13
 -1        41 2.61330E-03-1.28803E-02 1.68337E-25 1.27508E-03-6.92809E-14 2.89135E-13
 -1        42 3.24877E-03-1.57090E-02 2.23630E-26 5.56868E-04-9.24115E-14 1.00341E-13
 -1        43 3.37329E-03-1.63069E-02 1.55829E-26-1.44374E-04-8.27963E-14-7.16594E-14
 -1        44 3.10020E-03-1.51745E-02 4.97380E-26-5.10689E-04-8.32466E-14-1.38717E-13
 -1        45 2.63254E-03-1.33076E-02 6.93057E-26-6.67049E-04-6.91378E-14-1.74955E-13
 -1        46 2.19980E-03-1.10315E-02 9.25403E-26-9.13324E-04-7.24542E-14-2.06745E-13
 -1        47 1.55374E-03-8.15623E-03 2.06089E-25-1.13459E-03-6.00105E-14-3.21941E-13
 -1        48 8.24262E-04-4.97979E-03 4.06348E-25-1.11296E-03 6.18347E-14-4.53641E-13
 -1        49 2.62480E-04-2.25254E-03 3.74541E-25-8.67131E-04 2.35040E-13-3.92036E-13
 -1        50-3.72279E-05-5.35430E-04 1.40739E-25-4.88198E-04 3.22719E-13-5.36626E-14
 -1        51-2.77458E-04 1.26169E-03 1.25883E-25-4.92033E-04-3.37400E-13-3.02259E-15
 -1        52-7.06097E-04 3.17522E-03 3.90208E-25-8.47661E-04-2.06463E-13-4.20563E-13
 -1        53-1.39022E-03 5.94949E-03 4.12570E-25-1.09251E-03-5.32564E-14-4.54317E-13
 -1        54-2.06994E-03 9.06161E-03 2.29885E-25-1.11955E-03 2.43521E-14-3.42501E-13
 -1        55-2.63723E-03 1.17654E-02 7.77626E-26-9.06852E-04 2.38775E-14-2.00473E-13
 -1        56-3.02944E-03 1.37890E-02 5.66646E-26-6.77819E-04 3.22552E-14-1.66993E-13
 -1        57-3.39008E-03 1.54159E-02 3.45155E-26-5.18884E-04 7.05150E-14-1.21692E-13
 -1        58-3.65127E-03 1.64002E-02 1.86294E-26-1.34133E-04 1.17616E-13-1.51169E-14
 -1        59-3.56130E-03 1.57805E-02 4.12951E-26 5.65499E-04 1.25663E-13 1.03694E-13
 -1        60-2.89716E-03 1.30483E-02 1.36433E-25 1.27153E-03 4.89986E-14 2.63294E-13
 -1        61-1.94822E-03 8.88590E-03 1.91768E-25 1.58328E-03-2.47933E-14 3.10059E-13
 -1        62-1.05328E-03 4.69437E-03 9.36933E-26 1.38279E-03-1.93590E-14 2.18102E-13
 -1        63-3.83617E-04 1.43527E-03 5.80661E-26 1.04630E-03 3.77681E-14 1.69636E-13
 -1        64 1.52877E-04-1.01916E-03 5.97261E-26 9.59247E-04 1.10800E-13 1.45513E-13
 -1        65 6.08491E-04-3.57240E-03 2.09802E-25 1.18820E-03 1.44224E-13 3.04825E-13
 -1        66 1.31671E-03-7.17943E-03 5.26032E-25 1.61895E-03 8.89998E-14 5.16656E-13
 -1        67 2.44348E-03-1.22318E-02 1.03023E-24 2.14705E-03-1.70568E-15 7.23073E-13
 -1        68 3.49844E-03-1.88200E-02 8.02560E-25 2.29455E-03-8.71994E-14 6.36579E-13
 -1        69 6.58581E-03-2.52464E-02 2.33843E-25 3.92261E-03-1.11852E-13 3.55145E-13
 -1        70-2.77458E-04 1.26169E-03 1.25884E-25-4.92033E-04-3.37400E-13-3.02507E-15
 -1        71-7.06097E-04 3.17522E-03 3.90198E-25-8.47661E-04-2.06464E-13-4.20556E-13
 -1        72-1.39022E-03 5.94949E-03 4.12590E-25-1.09251E-03-5.32562E-14-4.54328E-13
 -1        73-2.06994E-03 9.06161E-03 2.29898E-25-1.11955E-03 2.43525E-14-3.42511E-13
 -1        74-2.63723E-03 1.17654E-02 7.77621E-26-9.06852E-04 2.38772E-14-2.00474E-13
 -1        75-3.02944E-03 1.37890E-02 5.66654E-26-6.77819E-04 3.22551E-14-1.66995E-13
 -1        76-3.39008E-03 1.54159E-02 3.45148E-26-5.18884E-04 7.05152E-14-1.21693E-13
 -1        77-3.65127E-03 1.64002E-02 1.86292E-26-1.34133E-04 1.17617E-13-1.50908E-14
 -1        78-3.56130E-03 1.57805E-02 4.12900E-26 5.65499E-04 1.25663E-13 1.03676E-13
 -1        79-2.89716E-03 1.30483E-02 1.36445E-25 1.27153E-03 4.89997E-14 2.63304E-13
 -1        80-1.94822E-03 8.88590E-03 1.91768E-25 1.58328E-03-2.47946E-14 3.10058E-13
 -1        81-1.05328E-03 4.69437E-03 9.36935E-26 1.38279E-03-1.93591E-14 2.18102E-13
 -1        82-3.83617E-04 1.43527E-03 5.80663E-26 1.04630E-03 3.77686E-14 1.69636E-13
 -1        83 1.52877E-04-1.01916E-03 5.97208E-26 9.59247E-04 1.10798E-13 1.45507E-13
 -1        84 6.08491E-04-3.57240E-03 2.09805E-25 1.18820E-03 1.44224E-13 3.04828E-13
 -1        85 1.31671E-03-7.17943E-03 5.26034E-25 1.61895E-03 8.89985E-14 5.16657E-13
 -1        86 2.44348E-03-1.22318E-02 1.03022E-24 2.14705E-03-1.70546E-15 7.23071E-13
 -1        87 3.49844E-03-1.88200E-02 8.02560E-25 2.29455E-03-8.71994E-14 6.36579E-13
 -1        88 6.58581E-03-2.52464E-02 2.33843E-25 3.92261E-03-1.11852E-13 3.55145E-13
 -1        89-4.01056E-04 2.13797E-04 1.79056E-25 2.96554E-03 3.39053E-14 3.27794E-13
 -1        90-4.19368E-04 4.36519E-04 7.42832E-25 3.33341E-03 1.94349E-14 6.17101E-13
 -1        91-3.35267E-04 4.75204E-04 1.02365E-24 2.70867E-03-3.55023E-14 7.15728E-13
 -1        92-3.19743E-04 4.89335E-04 6.59325E-25 2.09530E-03-2.70474E-14 5.81800E-13
 -1        93-2.59674E-04 4.33700E-04 1.71234E-25 1.49790E-03 2.08269E-14 3.12094E-13
 -1        94-2.13446E-04 3.62373E-04 3.09056E-26 1.21066E-03 3.67612E-14 1.33947E-13
 -1        95-2.19161E-04 3.23898E-04 3.54108E-26 1.34708E-03 1.77256E-14 1.34143E-13
 -1        96-1.85465E-04 2.46828E-04 8.71497E-26 1.78511E-03-7.37070E-16 2.12157E-13
 -1        97-1.26499E-04 1.22643E-04 1.88978E-25 2.05051E-03-1.68860E-14 3.08029E-13
 -1        98-1.41929E-04 3.05844E-05 1.74021E-25 1.66895E-03-1.83354E-15 3.01472E-13
 -1        99-1.56264E-04-1.66673E-05 8.65466E-27 7.50378E-04 2.29787E-14 1.04742E-13
 -1       100-1.38990E-04-2.42139E-05-3.83538E-27-1.79103E-04 1.08718E-14-4.75688E-14
 -1       101-1.44944E-04 4.67695E-05 2.93352E-26-6.85100E-04-1.05034E-14-1.27559E-13
 -1       102-1.98451E-04 1.81273E-04 5.89589E-26-8.79047E-04-1.37662E-14-1.73060E-13
 -1       103-2.18716E-04 3.20143E-04 7.90726E-26-1.16485E-03-1.70319E-14-2.03526E-13
 -1       104-2.58096E-04 4.46555E-04 2.35869E-25-1.45496E-03-1.77894E-14-3.48080E-13
 -1       105-2.82980E-04 5.17042E-04 4.76837E-25-1.43458E-03-6.42263E-15-4.90606E-13
 -1       106-2.21808E-04 4.91194E-04 3.03935E-25-1.10417E-03 4.67203E-15-4.12817E-13
 -1       107-1.57343E-04 4.37182E-04-7.65155E-26-6.14924E-04 8.46771E-15-5.89860E-14
 -1       108-1.57343E-04 4.37182E-04-7.65164E-26-6.14924E-04 8.46708E-15-5.89810E-14
 -1       109-2.21808E-04 4.91194E-04 3.03940E-25-1.10417E-03 4.67224E-15-4.12820E-13
 -1       110-2.82980E-04 5.17042E-04 4.76833E-25-1.43458E-03-6.42247E-15-4.90604E-13
 -1       111-2.58096E-04 4.46555E-04 2.35868E-25-1.45496E-03-1.77894E-14-3.48080E-13
 -1       112-2.18716E-04 3.20143E-04 7.90715E-26-1.16485E-03-1.70321E-14-2.03525E-13
 -1       113-1.98451E-04 1.81273E-04 5.89573E-26-8.79047E-04-1.37661E-14-1.73057E-13
 -1       114-1.44944E-04 4.67695E-05 2.93353E-26-6.85100E-04-1.05037E-14-1.27558E-13
 -1       115-1.38990E-04-2.42139E-05-3.83471E-27-1.79103E-04 1.08716E-14-4.75784E-14
 -1       116-1.56264E-04-1.66673E-05 8.65637E-27 7.50378E-04 2.29788E-14 1.04748E-13
 -1       117-1.41929E-04 3.05844E-05 1.74019E-25 1.66895E-03-1.83385E-15 3.01470E-13
 -1       118-1.26499E-04 1.22643E-04 1.88978E-25 2.05051E-03-1.68860E-14 3.08029E-13
 -1       119-1.85465E-04 2.46828E-04 8.71498E-26 1.78511E-03-7.36940E-16 2.12157E-13
 -1       120-2.19161E-04 3.23898E-04 3.54105E-26 1.34708E-03 1.77254E-14 1.34143E-13
 -1       121-2.13446E-04 3.62373E-04 3.09064E-26 1.21066E-03 3.67613E-14 1.33947E-13
 -1       122-2.59674E-04 4.33700E-04 1.71230E-25 1.49790E-03 2.08269E-14 3.12092E-13
 -1       123-3.19743E-04 4.89335E-04 6.59326E-25 2.09530E-03-2.70472E-14 5.81800E-13
 -1       124-3.35267E-04 4.75204E-04 1.02365E-24 2.70867E-03-3.55024E-14 7.15728E-13
 -1       125-4.19368E-04 4.36519E-04 7.42832E-25 3.33341E-03 1.94348E-14 6.17101E-13
 -1       126-4.01056E-04 2.13797E-04 1.79056E-25 2.96554E-03 3.39053E-14 3.27794E-13
 -3
    1PSTEP                       104          26           1          
  100CL  126 2.60000E-01         126                     1   26           1
 -4  ERROR       1    1
 -5  STR(%)      1    1    0    0
 -1         1 6.42970E+01
 -1         2 6.42970E+01
 -1         3 4.35911E+01
 -1         4 4.35911E+01
 -1         5 4.88547E+00
 -1         6 4.88547E+00
 -1         7 6.30288E+01
 -1         8 6.30288E+01
 -1         9 4.35911E+01
 -1        10 4.35911E+01
 -1        11 6.42970E+01
 -1        12 6.42970E+01
 -1        13 6.42970E+01
 -1        14 6.08087E+01
 -1        15 5.96021E+01
 -1        16 5.62877E+01
 -1        17 5.15347E+01
 -1        18 4.27030E+01
 -1        19 3.88076E+01
 -1        20 5.48417E+01
 -1        21 6.05469E+01
 -1        22 6.10646E+01
 -1        23 6.10646E+01
 -1        24 6.00746E+01
 -1        25 6.11254E+01
 -1        26 6.27792E+01
 -1        27 6.44902E+01
 -1        28 6.44902E+01
 -1        29 6.39569E+01
 -1        30 5.95711E+01
 -1        31 4.94705E+01
 -1        32 6.42970E+01
 -1        33 6.08087E+01
 -1        34 5.96021E+01
 -1        35 5.62877E+01
 -1        36 5.15347E+01
 -1        37 4.27030E+01
 -1        38 3.88076E+01
 -1        39 5.48417E+01
 -1        40 6.05469E+01
 -1        41 6.10646E+01
 -1        42 6.10646E+01
 -1        43 6.00746E+01
 -1        44 6.11254E+01
 -1        45 6.27792E+01
 -1        46 6.44902E+01
 -1        47 6.44902E+01
 -1        48 6.39569E+01
 -1        49 5.95711E+01
 -1        50 4.94705E+01
 -1        51 3.15706E+01
 -1        52 4.66942E+01
 -1        53 5.52917E+01
 -1        54 5.94414E+01
 -1        55 6.05151E+01
 -1        56 6.11163E+01
 -1        57 6.12824E+01
 -1        58 6.12824E+01
 -1        59 6.21666E+01
 -1        60 6.21666E+01
 -1        61 6.07627E+01
 -1        62 5.37344E+01
 -1        63 3.62612E+01
 -1        64 5.12823E+01
 -1        65 6.00302E+01
 -1        66 6.16668E+01
 -1        67 6.27565E+01
 -1        68 6.27565E+01
 -1        69 6.30288E+01
 -1        70 3.15706E+01
 -1        71 4.66942E+01
 -1        72 5.52917E+01
 -1        73 5.94414E+01
 -1        74 6.05151E+01
 -1        75 6.11163E+01
 -1        76 6.12824E+01
 -1        77 6.12824E+01
 -1        78 6.21666E+01
 -1        79 6.21666E+01
 -1        80 6.07627E+01
 -1        81 5.37344E+01
 -1        82 3.62612E+01
 -1        83 5.12823E+01
 -1        84 6.00302E+01
 -1        85 6.16668E+01
 -1        86 6.27565E+01
 -1        87 6.27565E+01
 -1        88 6.30288E+01
 -1        89 6.42970E+01
 -1        90 6.27565E+01
 -1        91 6.27565E+01
 -1        92 6.16668E+01
 -1        93 6.00302E+01
 -1        94 5.12823E+01
 -1        95 3.88076E+01
 -1        96 5.48417E+01
 -1        97 6.07627E+01
 -1        98 6.21666E+01
 -1        99 6.21666E+01
 -1       100 6.12824E+01
 -1       101 6.12824E+01
 -1       102 6.27792E+01
 -1       103 6.44902E+01
 -1       104 6.44902E+01
 -1       105 6.39569E+01
 -1       106 5.95711E+01
 -1       107 4.94705E+01
 -1       108 4.94705E+01
 -1       109 5.95711E+01
 -1       110 6.39569E+01
 -1       111 6.44902E+01
 -1       112 6.44902E+01
 -1       113 6.27792E+01
 -1       114 6.12824E+01
 -1       115 6.12824E+01
 -1       116 6.21666E+01
 -1       117 6.21666E+01
 -1       118 6.07627E+01
 -1       119 5.48417E+01
 -1       120 3.88076E+01
 -1       121 5.12823E+01
 -1       122 6.00302E+01
 -1       123 6.16668E+01
 -1       124 6.27565E+01
 -1       125 6.27565E+01
 -1       126 6.42970E+01
 -3
    1PSTEP                       105          27           1          
  100CL  127 2.70000E-01         126                     1   27           1
 -4  DISP        4    1
 -5  D1          1    2    1    0
 -5  D2          1    2    2    0
 -5  D3          1    2    3    0
 -5  ALL         1    2    0    0    1ALL
 -1         1 0.00000E+00 0.00000E+00 0.00000E+00
 -1         2 0.00000E+00 0.00000E+00 0.00000E+00
 -1         3 3.86892E-02-3.01678E-03 0.00000E+00
 -1         4 3.86892E-02-3.01678E-03 0.00000E+00
 -1         5 3.86475E-02-1.90144E-04 0.00000E+00
 -1         6 3.86475E-02-1.90144E-04 0.00000E+00
 -1         7 0.00000E+00 0.00000E+00 0.00000E+00
 -1         8 0.00000E+00 0.00000E+00 0.00000E+00
 -1         9 3.86698E-02-1.59380E-03 0.00000E+00
 -1        10 3.86698E-02-1.59380E-03 0.00000E+00
 -1        11 0.00000E+00 0.00000E+00 0.00000E+00
 -1        12 0.00000E+00 0.00000E+00 0.00000E+00
 -1        13 1.39174E-03 1.41962E-03 0.00000E+00
 -1        14 3.79775E-03 2.52125E-03 0.00000E+00
 -1        15 7.15873E-03 3.22024E-03 0.00000E+00
 -1        16 1.10970E-02 3.62121E-03 0.00000E+00
 -1        17 1.54203E-02 3.80516E-03 0.00000E+00
 -1        18 2.00063E-02 3.82211E-03 0.00000E+00
 -1        19 2.47537E-02 3.66396E-03 0.00000E+00
 -1        20 2.95030E-02 3.28467E-03 0.00000E+00
 -1        21 3.39543E-02 2.66092E-03 0.00000E+00
 -1        22 3.77712E-02 1.84846E-03 0.00000E+00
 -1        23 4.07357E-02 9.70281E-04 0.00000E+00
 -1        24 4.28419E-02 1.30376E-04 0.00000E+00
 -1        25 4.41643E-02-6.39487E-04 0.00000E+00
 -1        26 4.47411E-02-1.33880E-03 0.00000E+00
 -1        27 4.46177E-02-1.94237E-03 0.00000E+00
 -1        28 4.39154E-02-2.40582E-03 0.00000E+00
 -1        29 4.28216E-02-2.71078E-03 0.00000E+00
 -1        30 4.15271E-02-2.88864E-03 0.00000E+00
 -1        31 4.01248E-02-2.98136E-03 0.00000E+00
 -1        32 1.39174E-03 1.41962E-03 0.00000E+00
 -1        33 3.79775E-03 2.52125E-03 0.00000E+00
 -1        34 7.15873E-03 3.22024E-03 0.00000E+00
 -1        35 1.10970E-02 3.62121E-03 0.00000E+00
 -1        36 1.54203E-02 3.80516E-03 0.00000E+00
 -1        37 2.00063E-02 3.82211E-03 0.00000E+00
 -1        38 2.47537E-02 3.66396E-03 0.00000E+00
 -1        39 2.95030E-02 3.28467E-03 0.00000E+00
 -1        40 3.39543E-02 2.66092E-03 0.00000E+00
 -1        41 3.77712E-02 1.84846E-03 0.00000E+00
 -1        42 4.07357E-02 9.70281E-04 0.00000E+00
 -1        43 4.28419E-02 1.30376E-04 0.00000E+00
 -1        44 4.41643E-02-6.39487E-04 0.00000E+00
 -1        45 4.47411E-02-1.33880E-03 0.00000E+00
 -1        46 4.46177E-02-1.94237E-03 0.00000E+00
 -1        47 4.39154E-02-2.40582E-03 0.00000E+00
 -1        48 4.28216E-02-2.71078E-03 0.00000E+00
 -1        49 4.15271E-02-2.88864E-03 0.00000E+00
 -1        50 4.01248E-02-2.98136E-03 0.00000E+00
 -1        51 4.00788E-02-2.09359E-04 0.00000E+00
 -1        52 4.14827E-02-3.01649E-04 0.00000E+00
 -1        53 4.27817E-02-4.90032E-04 0.00000E+00
 -1        54 4.38827E-02-8.14417E-04 0.00000E+00
 -1        55 4.45986E-02-1.30372E-03 0.00000E+00
 -1        56 4.47260E-02-1.93557E-03 0.00000E+00
 -1        57 4.41278E-02-2.65075E-03 0.00000E+00
 -1        58 4.27647E-02-3.40047E-03 0.00000E+00
 -1        59 4.05929E-02-4.15666E-03 0.00000E+00
 -1        60 3.75357E-02-4.85501E-03 0.00000E+00
 -1        61 3.36219E-02-5.37026E-03 0.00000E+00
 -1        62 2.91032E-02-5.59686E-03 0.00000E+00
 -1        63 2.43286E-02-5.52971E-03 0.00000E+00
 -1        64 1.95869E-02-5.24686E-03 0.00000E+00
 -1        65 1.50356E-02-4.82528E-03 0.00000E+00
 -1        66 1.07711E-02-4.28884E-03 0.00000E+00
 -1        67 6.90935E-03-3.60280E-03 0.00000E+00
 -1        68 3.64041E-03-2.70029E-03 0.00000E+00
 -1        69 1.33332E-03-1.48131E-03 0.00000E+00
 -1        70 4.00788E-02-2.09359E-04 0.00000E+00
 -1        71 4.14827E-02-3.01649E-04 0.00000E+00
 -1        72 4.27817E-02-4.90032E-04 0.00000E+00
 -1        73 4.38827E-02-8.14417E-04 0.00000E+00
 -1        74 4.45986E-02-1.30372E-03 0.00000E+00
 -1        75 4.47260E-02-1.93557E-03 0.00000E+00
 -1        76 4.41278E-02-2.65075E-03 0.00000E+00
 -1        77 4.27647E-02-3.40047E-03 0.00000E+00
 -1        78 4.05929E-02-4.15666E-03 0.00000E+00
 -1        79 3.75357E-02-4.85501E-03 0.00000E+00
 -1        80 3.36219E-02-5.37026E-03 0.00000E+00
 -1        81 2.91032E-02-5.59686E-03 0.00000E+00
 -1        82 2.43286E-02-5.52971E-03 0.00000E+00
 -1        83 1.95869E-02-5.24686E-03 0.00000E+00
 -1        84 1.50356E-02-4.82528E-03 0.00000E+00
 -1        85 1.07711E-02-4.28884E-03 0.00000E+00
 -1        86 6.90935E-03-3.60280E-03 0.00000E+00
 -1        87 3.64041E-03-2.70029E-03 0.00000E+00
 -1        88 1.33332E-03-1.48131E-03 0.00000E+00
 -1        89 1.00268E-03-2.04548E-05 0.00000E+00
 -1        90 3.51684E-03-7.64668E-05 0.00000E+00
 -1        91 6.88513E-03-1.79142E-04 0.00000E+00
 -1        92 1.08348E-02-3.25064E-04 0.00000E+00
 -1        93 1.51611E-02-5.03234E-04 0.00000E+00
 -1        94 1.97576E-02-7.07121E-04 0.00000E+00
 -1        95 2.45438E-02-9.32891E-04 0.00000E+00
 -1        96 2.93595E-02-1.16312E-03 0.00000E+00
 -1        97 3.39021E-02-1.36594E-03 0.00000E+00
 -1        98 3.78057E-02-1.51453E-03 0.00000E+00
 -1        99 4.08319E-02-1.60234E-03 0.00000E+00
 -1       100 4.29659E-02-1.64088E-03 0.00000E+00
 -1       101 4.42989E-02-1.64716E-03 0.00000E+00
 -1       102 4.48701E-02-1.63731E-03 0.00000E+00
 -1       103 4.47224E-02-1.62188E-03 0.00000E+00
 -1       104 4.39793E-02-1.60626E-03 0.00000E+00
 -1       105 4.28494E-02-1.59588E-03 0.00000E+00
 -1       106 4.15281E-02-1.59195E-03 0.00000E+00
 -1       107 4.01105E-02-1.59177E-03 0.00000E+00
 -1       108 4.01105E-02-1.59177E-03 0.00000E+00
 -1       109 4.15281E-02-1.59195E-03 0.00000E+00
 -1       110 4.28494E-02-1.59588E-03 0.00000E+00
 -1       111 4.39793E-02-1.60626E-03 0.00000E+00
 -1       112 4.47224E-02-1.62188E-03 0.00000E+00
 -1       113 4.48701E-02-1.63731E-03 0.00000E+00
 -1       114 4.42989E-02-1.64716E-03 0.00000E+00
 -1       115 4.29659E-02-1.64088E-03 0.00000E+00
 -1       116 4.08319E-02-1.60234E-03 0.00000E+00
 -1       117 3.78057E-02-1.51453E-03 0.00000E+00
 -1       118 3.39021E-02-1.36594E-03 0.00000E+00
 -1       119 2.93595E-02-1.16312E-03 0.00000E+00
 -1       120 2.45438E-02-9.32891E-04 0.00000E+00
 -1       121 1.97576E-02-7.07121E-04 0.00000E+00
 -1       122 1.51611E-02-5.03234E-04 0.00000E+00
 -1       123 1.08348E-02-3.25064E-04 0.00000E+00
 -1       124 6.88513E-03-1.79142E-04 0.00000E+00
 -1       125 3.51684E-03-7.64668E-05 0.00000E+00
 -1       126 1.00268E-03-2.04548E-05 0.00000E+00
 -3
    1PSTEP                       106          27           1          
  100CL  127 2.70000E-01         126                     1   27           1
 -4  STRESS      6    1
 -5  SXX         1    4    1    1
 -5  SYY         1    4    2    2
 -5  SZZ         1    4    3    3
 -5  SXY         1    4    1    2
 -5  SYZ         1    4    2    3
 -5  SZX         1    4    3    1
 -1         1 6.75833E+03 1.59825E+04 6.54784E+03 4.67787E+03 4.01442E-11 1.28098E-10
 -1         2 6.75833E+03 1.59825E+04 6.54784E+03 4.67787E+03 4.01442E-11 1.28098E-10
 -1         3-5.71523E+01-1.57786E+02-6.44833E+01-3.72621E+01 1.40943E-07 2.23268E-07
 -1         4-5.71523E+01-1.57786E+02-6.44833E+01-3.72621E+01 1.40943E-07 2.23267E-07
 -1         5 1.59981E+02 4.11105E+02 1.71122E+02-8.90036E+01-1.33018E-07 2.22202E-07
 -1         6 1.59981E+02 4.11105E+02 1.71122E+02-8.90036E+01-1.33018E-07 2.22202E-07
 -1         7-6.67326E+03-1.52352E+04-6.85580E+03 3.72190E+03 1.08208E-10-1.70125E-10
 -1         8-6.67326E+03-1.52352E+04-6.85580E+03 3.72190E+03 1.08208E-10-1.70125E-10
 -1         9 8.17239E+01 1.92852E+02 8.23222E+01-8.59594E+01-3.31341E-09 2.14424E-07
 -1        10 8.17239E+01 1.92852E+02 8.23222E+01-8.59594E+01-3.31353E-09 2.14425E-07
 -1        11 4.34489E+01-2.85844E+02-4.79726E+01 3.07889E+03 4.58067E-11-9.85829E-12
 -1        12 4.34489E+01-2.85844E+02-4.79726E+01 3.07889E+03 4.58067E-11-9.85829E-12
 -1        13 2.16701E+03 1.26628E+04 4.29732E+03 1.63602E+03 2.44602E-08 6.85457E-09
 -1        14 2.36237E+03 9.78754E+03 3.55017E+03 1.11154E+03 2.86026E-08 8.65345E-08
 -1        15 1.57086E+03 6.64390E+03 2.41918E+03 9.67750E+02 8.33509E-09 1.01664E-07
 -1        16 1.08891E+03 4.45715E+03 1.64282E+03 7.14649E+02-1.48287E-08 8.32918E-08
 -1        17 6.72171E+02 2.82230E+03 1.03921E+03 5.50583E+02-1.71613E-08 5.40593E-08
 -1        18 2.95242E+02 1.31606E+03 4.80172E+02 4.73281E+02 4.29614E-09 4.71365E-08
 -1        19-8.88772E+01-5.31654E+02-1.88402E+02 4.45990E+02 2.15419E-08 6.29203E-08
 -1        20-6.57242E+02-2.90678E+03-1.07996E+03 3.64987E+02 1.43247E-08 8.46908E-08
 -1        21-1.26777E+03-5.32284E+03-2.00796E+03 1.61048E+02-1.34542E-08 8.93811E-08
 -1        22-1.74295E+03-7.01720E+03-2.67974E+03-9.44071E+01-3.94948E-08 5.89412E-08
 -1        23-1.90778E+03-7.60239E+03-2.91248E+03-2.58471E+02-5.54890E-08 2.12983E-08
 -1        24-1.90197E+03-7.44438E+03-2.85984E+03-2.68367E+02-5.62561E-08-1.59108E-08
 -1        25-1.78243E+03-6.98529E+03-2.67944E+03-2.25845E+02-3.78375E-08-6.45232E-08
 -1        26-1.59505E+03-6.28432E+03-2.40391E+03-2.29124E+02-2.95980E-08-5.27870E-08
 -1        27-1.30300E+03-5.15953E+03-1.96602E+03-2.66080E+02-2.50262E-08-1.01360E-07
 -1        28-9.64885E+02-3.69365E+03-1.41162E+03-2.76684E+02-4.51412E-09-1.22944E-07
 -1        29-6.03556E+02-2.25600E+03-8.63052E+02-2.22802E+02 2.83383E-08-1.17225E-07
 -1        30-3.40025E+02-1.18276E+03-4.58292E+02-1.47390E+02 7.70660E-08-7.72024E-08
 -1        31-1.43588E+02-4.54216E+02-1.79585E+02-8.59272E+01 1.21741E-07 6.63312E-08
 -1        32 2.16701E+03 1.26628E+04 4.29732E+03 1.63602E+03 2.44602E-08 6.85457E-09
 -1        33 2.36237E+03 9.78754E+03 3.55017E+03 1.11154E+03 2.86026E-08 8.65345E-08
 -1        34 1.57086E+03 6.64390E+03 2.41918E+03 9.67750E+02 8.33507E-09 1.01664E-07
 -1        35 1.08891E+03 4.45715E+03 1.64282E+03 7.14649E+02-1.48287E-08 8.32916E-08
 -1        36 6.72171E+02 2.82230E+03 1.03921E+03 5.50583E+02-1.71613E-08 5.40594E-08
 -1        37 2.95242E+02 1.31606E+03 4.80172E+02 4.73281E+02 4.29613E-09 4.71382E-08
 -1        38-8.88772E+01-5.31654E+02-1.88402E+02 4.45990E+02 2.15419E-08 6.29219E-08
 -1        39-6.57242E+02-2.90678E+03-1.07996E+03 3.64987E+02 1.43247E-08 8.46907E-08
 -1        40-1.26777E+03-5.32284E+03-2.00796E+03 1.61048E+02-1.34543E-08 8.93820E-08
 -1        41-1.74295E+03-7.01720E+03-2.67974E+03-9.44071E+01-3.94948E-08 5.89410E-08
 -1        42-1.90778E+03-7.60239E+03-2.91248E+03-2.58471E+02-5.54889E-08 2.12983E-08
 -1        43-1.90197E+03-7.44438E+03-2.85984E+03-2.68367E+02-5.62561E-08-1.59114E-08
 -1        44-1.78243E+03-6.98529E+03-2.67944E+03-2.25845E+02-3.78375E-08-6.45241E-08
 -1        45-1.59505E+03-6.28432E+03-2.40391E+03-2.29124E+02-2.95980E-08-5.27868E-08
 -1        46-1.30300E+03-5.15953E+03-1.96602E+03-2.66080E+02-2.50262E-08-1.01360E-07
 -1        47-9.64885E+02-3.69365E+03-1.41162E+03-2.76684E+02-4.51411E-09-1.22943E-07
 -1        48-6.03556E+02-2.25600E+03-8.63052E+02-2.22802E+02 2.83380E-08-1.17225E-07
 -1        49-3.40025E+02-1.18276E+03-4.58292E+02-1.47390E+02 7.70659E-08-7.72044E-08
 -1        50-1.43588E+02-4.54216E+02-1.79585E+02-8.59272E+01 1.21741E-07 6.63362E-08
 -1        51 2.20816E+02 7.54663E+02 2.91897E+02-1.16153E+02-1.31506E-07 7.26415E-08
 -1        52 4.31393E+02 1.57252E+03 5.98417E+02-2.04473E+02-9.97757E-08-5.08284E-08
 -1        53 6.67374E+02 2.66925E+03 9.93417E+02-3.15742E+02-4.91220E-08-1.26762E-07
 -1        54 9.59356E+02 4.09386E+03 1.49863E+03-3.89817E+02-8.57692E-09-1.31854E-07
 -1        55 1.28848E+03 5.58148E+03 2.02991E+03-3.39164E+02 1.61857E-08-1.02648E-07
 -1        56 1.58164E+03 6.73750E+03 2.45176E+03-1.83611E+02 1.83780E-08-6.27137E-08
 -1        57 1.70421E+03 7.41398E+03 2.68324E+03-1.58857E+01 1.88210E-08-5.46671E-08
 -1        58 1.80489E+03 7.83563E+03 2.83410E+03 1.31112E+02 2.53003E-08-2.16007E-08
 -1        59 1.84317E+03 7.92763E+03 2.87073E+03 3.47014E+02 3.08567E-08 1.91973E-08
 -1        60 1.73956E+03 7.19828E+03 2.62927E+03 6.42111E+02 2.91636E-08 7.26466E-08
 -1        61 1.36297E+03 5.32893E+03 1.97645E+03 8.26937E+02 7.55663E-09 1.04339E-07
 -1        62 8.47310E+02 2.81439E+03 1.08740E+03 7.53721E+02-1.95387E-08 1.04897E-07
 -1        63 2.95261E+02 4.52497E+02 2.22021E+02 5.07932E+02-2.27415E-08 4.07340E-08
 -1        64-1.77299E+02-1.34388E+03-4.59220E+02 2.75152E+02-2.27162E-09 3.14329E-08
 -1        65-5.96418E+02-2.78706E+03-1.02327E+03 1.66666E+02 1.70255E-08 7.06309E-08
 -1        66-9.92482E+02-4.34419E+03-1.62025E+03 1.66779E+02 1.20576E-08 9.81649E-08
 -1        67-1.48128E+03-6.44160E+03-2.41962E+03 2.53186E+02-1.43460E-08 9.64672E-08
 -1        68-2.38780E+03-9.44961E+03-3.64528E+03 2.97932E+02-3.19127E-08 6.22931E-08
 -1        69-2.17293E+03-1.21160E+04-4.44151E+03 9.03794E+02-2.22840E-08 1.76006E-08
 -1        70 2.20816E+02 7.54663E+02 2.91897E+02-1.16153E+02-1.31506E-07 7.26420E-08
 -1        71 4.31393E+02 1.57252E+03 5.98417E+02-2.04473E+02-9.97757E-08-5.08278E-08
 -1        72 6.67374E+02 2.66925E+03 9.93417E+02-3.15742E+02-4.91219E-08-1.26763E-07
 -1        73 9.59356E+02 4.09386E+03 1.49863E+03-3.89817E+02-8.57695E-09-1.31853E-07
 -1        74 1.28848E+03 5.58148E+03 2.02991E+03-3.39164E+02 1.61858E-08-1.02652E-07
 -1        75 1.58164E+03 6.73750E+03 2.45176E+03-1.83611E+02 1.83780E-08-6.27135E-08
 -1        76 1.70421E+03 7.41398E+03 2.68324E+03-1.58857E+01 1.88210E-08-5.46676E-08
 -1        77 1.80489E+03 7.83563E+03 2.83410E+03 1.31112E+02 2.53000E-08-2.16008E-08
 -1        78 1.84317E+03 7.92763E+03 2.87073E+03 3.47014E+02 3.08567E-08 1.92010E-08
 -1        79 1.73956E+03 7.19828E+03 2.62927E+03 6.42111E+02 2.91643E-08 7.26463E-08
 -1        80 1.36297E+03 5.32893E+03 1.97645E+03 8.26937E+02 7.55692E-09 1.04340E-07
 -1        81 8.47310E+02 2.81439E+03 1.08740E+03 7.53721E+02-1.95387E-08 1.04897E-07
 -1        82 2.95261E+02 4.52497E+02 2.22021E+02 5.07932E+02-2.27416E-08 4.07345E-08
 -1        83-1.77299E+02-1.34388E+03-4.59220E+02 2.75152E+02-2.27159E-09 3.14327E-08
 -1        84-5.96418E+02-2.78706E+03-1.02327E+03 1.66666E+02 1.70254E-08 7.06308E-08
 -1        85-9.92482E+02-4.34419E+03-1.62025E+03 1.66779E+02 1.20584E-08 9.81659E-08
 -1        86-1.48128E+03-6.44160E+03-2.41962E+03 2.53186E+02-1.43462E-08 9.64672E-08
 -1        87-2.38780E+03-9.44961E+03-3.64528E+03 2.97932E+02-3.19127E-08 6.22931E-08
 -1        88-2.17293E+03-1.21160E+04-4.44151E+03 9.03794E+02-2.22840E-08 1.76006E-08
 -1        89 5.94463E+01-2.57990E+02-5.09678E+01 9.40545E+02-2.65299E-09 9.43856E-09
 -1        90 7.30925E+01-1.40388E+02-8.30721E+00 1.00996E+03-3.89919E-09 7.12579E-08
 -1        91 8.49460E+01-6.69374E+01 1.02162E+01 7.56431E+02 1.86210E-09 1.11450E-07
 -1        92 7.64422E+01-3.01495E+01 1.60170E+01 5.59711E+02 2.23611E-09 9.38254E-08
 -1        93 6.05378E+01-1.94630E+01 1.27721E+01 4.47666E+02-3.09358E-09 6.38646E-08
 -1        94 7.95261E+01-4.39139E+01 9.99517E+00 4.78951E+02-1.38097E-09 3.04588E-08
 -1        95 1.25771E+02-8.78129E+01 1.02891E+01 6.20811E+02 6.59313E-09 5.47511E-08
 -1        96 1.28733E+02-1.16322E+02 3.44869E+00 7.24917E+02 2.16680E-09 9.75477E-08
 -1        97 8.93689E+01-1.07255E+02-3.72865E+00 6.31289E+02-7.98989E-09 1.03796E-07
 -1        98 3.52098E+01-7.32620E+01-7.24762E+00 3.43310E+02-1.25732E-08 6.82670E-08
 -1        99-3.29150E+00-2.56397E+01-2.22622E+00 4.88300E+01-1.49230E-08 2.28965E-08
 -1       100-2.23536E+01 2.11818E+01 7.08324E+00-9.86991E+01-1.30271E-08-2.04071E-08
 -1       101-1.71158E+01 5.63625E+01 1.82085E+01-1.64741E+02-1.17633E-08-5.70085E-08
 -1       102 9.52394E+00 9.02247E+01 3.46705E+01-2.66806E+02-1.09985E-08-6.18602E-08
 -1       103 1.18570E+01 1.28260E+02 4.49101E+01-3.88619E+02-9.70376E-09-1.03771E-07
 -1       104 1.56635E+01 1.64979E+02 5.57461E+01-4.34779E+02-8.17299E-09-1.34049E-07
 -1       105 3.96065E+01 1.83595E+02 6.76494E+01-3.56506E+02-4.15930E-09-1.33469E-07
 -1       106 4.98640E+01 1.85155E+02 7.06871E+01-2.35756E+02-4.68719E-09-7.80781E-08
 -1       107 5.70682E+01 1.85007E+02 7.26307E+01-1.34851E+02-6.92260E-09 6.88134E-08
 -1       108 5.70682E+01 1.85007E+02 7.26307E+01-1.34851E+02-6.92246E-09 6.88091E-08
 -1       109 4.98640E+01 1.85155E+02 7.06871E+01-2.35756E+02-4.68719E-09-7.80788E-08
 -1       110 3.96065E+01 1.83595E+02 6.76494E+01-3.56506E+02-4.15923E-09-1.33468E-07
 -1       111 1.56635E+01 1.64979E+02 5.57461E+01-4.34779E+02-8.17300E-09-1.34051E-07
 -1       112 1.18570E+01 1.28260E+02 4.49101E+01-3.88619E+02-9.70376E-09-1.03769E-07
 -1       113 9.52394E+00 9.02247E+01 3.46705E+01-2.66806E+02-1.09985E-08-6.18604E-08
 -1       114-1.71158E+01 5.63625E+01 1.82085E+01-1.64741E+02-1.17633E-08-5.70078E-08
 -1       115-2.23536E+01 2.11818E+01 7.08324E+00-9.86991E+01-1.30270E-08-2.04059E-08
 -1       116-3.29150E+00-2.56397E+01-2.22622E+00 4.88300E+01-1.49231E-08 2.28956E-08
 -1       117 3.52098E+01-7.32620E+01-7.24762E+00 3.43310E+02-1.25734E-08 6.82677E-08
 -1       118 8.93689E+01-1.07255E+02-3.72865E+00 6.31289E+02-7.98982E-09 1.03794E-07
 -1       119 1.28733E+02-1.16322E+02 3.44869E+00 7.24917E+02 2.16679E-09 9.75479E-08
 -1       120 1.25771E+02-8.78129E+01 1.02891E+01 6.20811E+02 6.59318E-09 5.47493E-08
 -1       121 7.95261E+01-4.39139E+01 9.99517E+00 4.78951E+02-1.38100E-09 3.04583E-08
 -1       122 6.05378E+01-1.94630E+01 1.27721E+01 4.47666E+02-3.09352E-09 6.38643E-08
 -1       123 7.64422E+01-3.01495E+01 1.60170E+01 5.59711E+02 2.23606E-09 9.38255E-08
 -1       124 8.49460E+01-6.69374E+01 1.02162E+01 7.56431E+02 1.86215E-09 1.11450E-07
 -1       125 7.30925E+01-1.40388E+02-8.30721E+00 1.00996E+03-3.89921E-09 7.12578E-08
 -1       126 5.94463E+01-2.57990E+02-5.09678E+01 9.40545E+02-2.65298E-09 9.43856E-09
 -3
    1PSTEP                       107          27           1          
  100CL  127 2.70000E-01         126                     1   27           1
 -4  TOSTRAIN    6    1
 -5  EXX         1    4    1    1
 -5  EYY         1    4    2    2
 -5  EZZ         1    4    3    3
 -5  EXY         1    4    1    2
 -5  EYZ         1    4    2    3
 -5  EZX         1    4    3    1
 -1         1-7.40460E-05 2.91080E-02-1.64034E-27 1.39171E-02-4.67356E-19 3.87740E-16
 -1         2-7.40460E-05 2.91080E-02-1.64034E-27 1.39171E-02-4.67356E-19 3.87740E-16
 -1         3 1.66085E-05-2.96034E-04 1.31272E-24-1.30374E-04 4.37396E-13 7.38560E-13
 -1         4 1.66085E-05-2.96034E-04 1.31272E-24-1.30374E-04 4.37396E-13 7.38559E-13
 -1         5-5.20450E-05 7.94086E-04 1.27558E-24-2.65137E-04-4.51896E-13 7.09279E-13
 -1         6-5.20450E-05 7.94086E-04 1.27559E-24-2.65137E-04-4.51896E-13 7.09280E-13
 -1         7-7.48973E-05-2.89060E-02-2.79144E-27 1.33330E-02 4.84713E-19-4.40562E-16
 -1         8-7.48973E-05-2.89060E-02-2.79144E-27 1.33330E-02 4.84713E-19-4.40562E-16
 -1         9-1.77182E-05 3.74520E-04 8.30251E-25-2.68376E-04-3.04645E-14 6.96170E-13
 -1        10-1.77182E-05 3.74520E-04 8.30254E-25-2.68376E-04-3.04650E-14 6.96173E-13
 -1        11-7.44717E-05-2.82412E-04 9.74381E-30 1.00266E-02 6.09112E-20-3.85100E-17
 -1        12-7.44717E-05-2.82412E-04 9.74381E-30 1.00266E-02 6.09112E-20-3.85100E-17
 -1        13-7.39552E-03 2.62478E-02-2.10663E-27 4.07701E-03 7.74148E-14 1.93549E-14
 -1        14-4.28596E-03 1.98512E-02 1.56877E-25 2.22785E-03 1.04666E-13 2.74591E-13
 -1        15-3.16131E-03 1.37290E-02 2.17049E-25 1.92846E-03 4.87059E-14 3.26797E-13
 -1        16-2.12282E-03 9.28131E-03 1.47322E-25 1.39771E-03-2.63164E-14 2.73280E-13
 -1        17-1.46210E-03 5.98161E-03 6.49712E-26 1.14524E-03-4.00755E-14 1.79772E-13
 -1        18-8.60694E-04 2.94647E-03 4.47120E-26 1.20626E-03 2.77105E-14 1.51213E-13
 -1        19 3.66751E-05-8.48666E-04 9.03857E-26 1.56273E-03 8.86292E-14 1.96988E-13
 -1        20 1.08589E-03-5.74351E-03 1.52279E-25 1.83916E-03 7.13793E-14 2.70108E-13
 -1        21 2.18869E-03-1.08292E-02 1.67633E-25 1.60753E-03-2.06078E-14 2.93746E-13
 -1        22 2.93393E-03-1.44452E-02 9.95214E-26 8.68822E-04-1.17580E-13 2.00472E-13
 -1        23 3.22829E-03-1.57316E-02 6.74306E-26 1.18040E-04-1.80376E-13 7.86292E-14
 -1        24 3.09013E-03-1.53695E-02 6.27258E-26-2.41871E-04-1.88482E-13-4.54595E-14
 -1        25 2.88161E-03-1.43932E-02 1.12600E-25-4.07220E-04-1.29662E-13-2.07813E-13
 -1        26 2.58633E-03-1.29232E-02 7.25767E-26-6.73273E-04-9.89505E-14-1.71549E-13
 -1        27 2.10640E-03-1.05715E-02 2.24641E-25-9.66593E-04-8.05261E-14-3.30742E-13
 -1        28 1.40192E-03-7.48979E-03 3.16074E-25-1.05767E-03-8.45985E-15-4.00416E-13
 -1        29 8.02001E-04-4.53064E-03 2.94378E-25-8.52518E-04 1.01126E-13-3.79079E-13
 -1        30 3.55541E-04-2.33818E-03 1.82939E-25-5.52567E-04 2.57671E-13-2.44208E-13
 -1        31 1.00256E-04-8.77845E-04 2.66107E-25-3.07608E-04 3.89978E-13 2.26784E-13
 -1        32-7.39552E-03 2.62478E-02-2.10663E-27 4.07701E-03 7.74148E-14 1.93549E-14
 -1        33-4.28596E-03 1.98512E-02 1.56877E-25 2.22785E-03 1.04666E-13 2.74591E-13
 -1        34-3.16131E-03 1.37290E-02 2.17049E-25 1.92846E-03 4.87058E-14 3.26797E-13
 -1        35-2.12282E-03 9.28131E-03 1.47321E-25 1.39771E-03-2.63164E-14 2.73280E-13
 -1        36-1.46210E-03 5.98161E-03 6.49715E-26 1.14524E-03-4.00754E-14 1.79772E-13
 -1        37-8.60694E-04 2.94647E-03 4.47151E-26 1.20626E-03 2.77110E-14 1.51218E-13
 -1        38 3.66751E-05-8.48666E-04 9.03900E-26 1.56273E-03 8.86298E-14 1.96993E-13
 -1        39 1.08589E-03-5.74351E-03 1.52279E-25 1.83916E-03 7.13792E-14 2.70107E-13
 -1        40 2.18869E-03-1.08292E-02 1.67636E-25 1.60753E-03-2.06077E-14 2.93749E-13
 -1        41 2.93393E-03-1.44452E-02 9.95204E-26 8.68822E-04-1.17580E-13 2.00471E-13
 -1        42 3.22829E-03-1.57316E-02 6.74303E-26 1.18040E-04-1.80376E-13 7.86292E-14
 -1        43 3.09013E-03-1.53695E-02 6.27260E-26-2.41871E-04-1.88482E-13-4.54615E-14
 -1        44 2.88161E-03-1.43932E-02 1.12602E-25-4.07220E-04-1.29662E-13-2.07816E-13
 -1        45 2.58633E-03-1.29232E-02 7.25761E-26-6.73273E-04-9.89506E-14-1.71548E-13
 -1        46 2.10640E-03-1.05715E-02 2.24641E-25-9.66593E-04-8.05261E-14-3.30742E-13
 -1        47 1.40192E-03-7.48979E-03 3.16069E-25-1.05767E-03-8.45986E-15-4.00413E-13
 -1        48 8.02001E-04-4.53064E-03 2.94377E-25-8.52518E-04 1.01125E-13-3.79078E-13
 -1        49 3.55541E-04-2.33818E-03 1.82940E-25-5.52567E-04 2.57670E-13-2.44215E-13
 -1        50 1.00256E-04-8.77845E-04 2.66116E-25-3.07608E-04 3.89977E-13 2.26800E-13
 -1        51-2.50998E-04 1.51770E-03 3.51885E-25-3.27514E-04-4.32870E-13 2.23816E-13
 -1        52-5.76882E-04 3.17617E-03 1.86698E-25-5.63151E-04-3.18560E-13-1.73713E-13
 -1        53-1.10878E-03 5.42936E-03 3.67346E-25-8.68823E-04-1.49460E-13-4.15211E-13
 -1        54-1.81036E-03 8.33817E-03 3.64728E-25-1.08358E-03-2.08984E-14-4.28302E-13
 -1        55-2.46283E-03 1.13179E-02 2.20360E-25-9.88540E-04 5.39186E-14-3.32454E-13
 -1        56-2.87562E-03 1.35839E-02 8.39383E-26-6.75718E-04 5.75872E-14-2.03549E-13
 -1        57-3.23313E-03 1.49597E-02 6.49915E-26-4.09965E-04 5.66164E-14-1.78293E-13
 -1        58-3.41823E-03 1.58095E-02 1.27601E-26-2.57436E-04 7.81748E-14-7.28089E-14
 -1        59-3.48423E-03 1.60364E-02 1.15318E-26 1.04899E-04 1.01308E-13 5.69450E-14
 -1        60-3.17082E-03 1.46597E-02 1.14580E-25 8.56192E-04 1.08365E-13 2.28390E-13
 -1        61-2.39068E-03 1.10132E-02 2.26805E-25 1.58599E-03 5.09517E-14 3.35175E-13
 -1        62-1.18354E-03 5.91791E-03 2.31076E-25 1.82035E-03-3.27608E-14 3.44902E-13
 -1        63-6.92337E-05 1.03587E-03 3.47202E-26 1.56931E-03-6.13040E-14 1.38735E-13
 -1        64 7.14210E-04-2.69959E-03 1.71528E-26 1.22850E-03 1.96973E-15 1.02432E-13
 -1        65 1.22792E-03-5.64651E-03 1.05261E-25 1.16203E-03 7.55410E-14 2.23952E-13
 -1        66 1.86317E-03-8.84596E-03 2.03514E-25 1.42656E-03 6.50854E-14 3.15227E-13
 -1        67 2.81280E-03-1.32125E-02 1.95545E-25 1.97795E-03-2.55702E-14 3.16805E-13
 -1        68 3.81721E-03-1.94176E-02 9.62722E-26 2.26730E-03-9.56503E-14 2.08768E-13
 -1        69 7.00066E-03-2.59849E-02 1.17881E-26 4.10815E-03-7.34471E-14 5.98987E-14
 -1        70-2.50998E-04 1.51770E-03 3.51885E-25-3.27514E-04-4.32870E-13 2.23818E-13
 -1        71-5.76882E-04 3.17617E-03 1.86694E-25-5.63151E-04-3.18560E-13-1.73711E-13
 -1        72-1.10878E-03 5.42936E-03 3.67348E-25-8.68823E-04-1.49460E-13-4.15212E-13
 -1        73-1.81036E-03 8.33817E-03 3.64724E-25-1.08358E-03-2.08985E-14-4.28299E-13
 -1        74-2.46283E-03 1.13179E-02 2.20378E-25-9.88540E-04 5.39191E-14-3.32466E-13
 -1        75-2.87562E-03 1.35839E-02 8.39379E-26-6.75718E-04 5.75872E-14-2.03548E-13
 -1        76-3.23313E-03 1.49597E-02 6.49924E-26-4.09965E-04 5.66164E-14-1.78294E-13
 -1        77-3.41823E-03 1.58095E-02 1.27584E-26-2.57436E-04 7.81740E-14-7.28090E-14
 -1        78-3.48423E-03 1.60364E-02 1.15338E-26 1.04899E-04 1.01309E-13 5.69569E-14
 -1        79-3.17082E-03 1.46597E-02 1.14579E-25 8.56192E-04 1.08367E-13 2.28389E-13
 -1        80-2.39068E-03 1.10132E-02 2.26808E-25 1.58599E-03 5.09529E-14 3.35178E-13
 -1        81-1.18354E-03 5.91791E-03 2.31076E-25 1.82035E-03-3.27607E-14 3.44902E-13
 -1        82-6.92337E-05 1.03587E-03 3.47213E-26 1.56931E-03-6.13043E-14 1.38737E-13
 -1        83 7.14210E-04-2.69959E-03 1.71523E-26 1.22850E-03 1.96974E-15 1.02431E-13
 -1        84 1.22792E-03-5.64651E-03 1.05261E-25 1.16203E-03 7.55405E-14 2.23952E-13
 -1        85 1.86317E-03-8.84596E-03 2.03518E-25 1.42656E-03 6.50883E-14 3.15230E-13
 -1        86 2.81280E-03-1.32125E-02 1.95545E-25 1.97795E-03-2.55705E-14 3.16805E-13
 -1        87 3.81721E-03-1.94176E-02 9.62722E-26 2.26730E-03-9.56503E-14 2.08768E-13
 -1        88 7.00066E-03-2.59849E-02 1.17881E-26 4.10815E-03-7.34471E-14 5.98987E-14
 -1        89-1.97432E-04-9.18076E-05-6.68445E-27 3.08017E-03-7.69928E-15 3.09097E-14
 -1        90-2.34376E-04 1.47461E-04 9.46297E-26 3.29955E-03-6.31144E-16 2.32028E-13
 -1        91-1.74255E-04 1.95936E-04 2.58082E-25 2.46781E-03 3.07531E-14 3.60854E-13
 -1        92-1.29825E-04 1.88844E-04 1.83051E-25 1.82269E-03 3.13669E-14 3.03298E-13
 -1        93-1.17090E-04 1.68221E-04 8.16979E-26 1.45502E-03 7.91068E-15 2.07635E-13
 -1        94-7.32419E-05 1.15351E-04 1.63781E-26 1.56685E-03 4.54888E-15 9.89847E-14
 -1        95-1.62793E-05 5.97664E-05 5.75849E-26 2.04664E-03 3.77043E-14 1.75062E-13
 -1        96-4.88211E-05 5.79639E-05 1.96121E-25 2.38892E-03 3.51470E-14 3.15013E-13
 -1        97-1.00999E-04 6.90918E-05 2.26068E-25 2.07605E-03 1.19812E-15 3.38363E-13
 -1        98-1.18448E-04 6.07493E-05 9.17122E-26 1.12913E-03-2.58045E-14 2.24191E-13
 -1        99-1.27968E-04 8.75274E-05 2.06128E-27 1.61919E-04-4.44362E-14 7.68062E-14
 -1       100-1.64050E-04 1.64809E-04 5.98650E-28-3.24406E-04-4.44615E-14-6.48387E-14
 -1       101-1.75759E-04 2.28069E-04 6.62973E-26-5.39275E-04-4.17649E-14-1.84513E-13
 -1       102-1.44648E-04 2.72946E-04 7.81253E-26-8.67669E-04-3.68309E-14-2.00910E-13
 -1       103-1.78216E-04 3.57745E-04 2.23605E-25-1.25885E-03-2.94031E-14-3.37536E-13
 -1       104-2.04221E-04 4.37484E-04 3.80108E-25-1.40284E-03-1.97021E-14-4.36120E-13
 -1       105-1.53389E-04 4.43062E-04 3.66753E-25-1.14563E-03-3.97666E-15-4.33988E-13
 -1       106-1.10671E-04 4.15863E-04 5.83879E-26-7.52830E-04-8.72766E-15-2.54057E-13
 -1       107-7.53711E-05 3.89914E-04-3.01370E-26-4.25542E-04-2.87023E-14 2.22893E-13
 -1       108-7.53711E-05 3.89914E-04-3.01482E-26-4.25542E-04-2.87014E-14 2.22879E-13
 -1       109-1.10671E-04 4.15863E-04 5.83947E-26-7.52830E-04-8.72759E-15-2.54060E-13
 -1       110-1.53389E-04 4.43062E-04 3.66750E-25-1.14563E-03-3.97651E-15-4.33986E-13
 -1       111-2.04221E-04 4.37484E-04 3.80116E-25-1.40284E-03-1.97021E-14-4.36125E-13
 -1       112-1.78216E-04 3.57745E-04 2.23599E-25-1.25885E-03-2.94032E-14-3.37532E-13
 -1       113-1.44648E-04 2.72946E-04 7.81261E-26-8.67669E-04-3.68309E-14-2.00911E-13
 -1       114-1.75759E-04 2.28069E-04 6.62958E-26-5.39275E-04-4.17649E-14-1.84511E-13
 -1       115-1.64050E-04 1.64809E-04 5.98522E-28-3.24406E-04-4.44612E-14-6.48349E-14
 -1       116-1.27968E-04 8.75274E-05 2.06098E-27 1.61919E-04-4.44365E-14 7.68032E-14
 -1       117-1.18448E-04 6.07493E-05 9.17144E-26 1.12913E-03-2.58047E-14 2.24193E-13
 -1       118-1.00999E-04 6.90918E-05 2.26060E-25 2.07605E-03 1.19784E-15 3.38357E-13
 -1       119-4.88211E-05 5.79639E-05 1.96122E-25 2.38892E-03 3.51470E-14 3.15013E-13
 -1       120-1.62793E-05 5.97664E-05 5.75806E-26 2.04664E-03 3.77039E-14 1.75056E-13
 -1       121-7.32419E-05 1.15351E-04 1.63773E-26 1.56685E-03 4.54863E-15 9.89830E-14
 -1       122-1.17090E-04 1.68221E-04 8.16970E-26 1.45502E-03 7.91080E-15 2.07634E-13
 -1       123-1.29825E-04 1.88844E-04 1.83052E-25 1.82269E-03 3.13668E-14 3.03298E-13
 -1       124-1.74255E-04 1.95936E-04 2.58082E-25 2.46781E-03 3.07533E-14 3.60855E-13
 -1       125-2.34376E-04 1.47461E-04 9.46294E-26 3.29955E-03-6.31219E-16 2.32027E-13
 -1       126-1.97432E-04-9.18076E-05-6.68446E-27 3.08017E-03-7.69926E-15 3.09097E-14
 -3
    1PSTEP                       108          27           1          
  100CL  127 2.70000E-01         126                     1   27           1
 -4  ERROR       1    1
 -5  STR(%)      1    1    0    0
 -1         1 6.50493E+01
 -1         2 6.50493E+01
 -1         3 6.86699E+01
 -1         4 6.86699E+01
 -1         5 1.52057E+01
 -1         6 1.52057E+01
 -1         7 6.25324E+01
 -1         8 6.25324E+01
 -1         9 6.86699E+01
 -1        10 6.86699E+01
 -1        11 6.50493E+01
 -1        12 6.50493E+01
 -1        13 6.50493E+01
 -1        14 6.19313E+01
 -1        15 6.12728E+01
 -1        16 6.03321E+01
 -1        17 5.95722E+01
 -1        18 5.50082E+01
 -1        19 3.05127E+01
 -1        20 5.58943E+01
 -1        21 6.16152E+01
 -1        22 6.16152E+01
 -1        23 6.00066E+01
 -1        24 6.08613E+01
 -1        25 6.17150E+01
 -1        26 6.33104E+01
 -1        27 6.46751E+01
 -1        28 6.47496E+01
 -1        29 6.56775E+01
 -1        30 6.68910E+01
 -1        31 6.86699E+01
 -1        32 6.50493E+01
 -1        33 6.19313E+01
 -1        34 6.12728E+01
 -1        35 6.03321E+01
 -1        36 5.95722E+01
 -1        37 5.50082E+01
 -1        38 3.05127E+01
 -1        39 5.58943E+01
 -1        40 6.16152E+01
 -1        41 6.16152E+01
 -1        42 6.00066E+01
 -1        43 6.08613E+01
 -1        44 6.17150E+01
 -1        45 6.33104E+01
 -1        46 6.46751E+01
 -1        47 6.47496E+01
 -1        48 6.56775E+01
 -1        49 6.68910E+01
 -1        50 6.86699E+01
 -1        51 4.10940E+01
 -1        52 4.97560E+01
 -1        53 5.43622E+01
 -1        54 5.84159E+01
 -1        55 6.00516E+01
 -1        56 6.00516E+01
 -1        57 5.96471E+01
 -1        58 5.97062E+01
 -1        59 6.03377E+01
 -1        60 6.15905E+01
 -1        61 6.15905E+01
 -1        62 5.53825E+01
 -1        63 5.24942E+01
 -1        64 5.88557E+01
 -1        65 6.25884E+01
 -1        66 6.25884E+01
 -1        67 6.24022E+01
 -1        68 6.23061E+01
 -1        69 6.25324E+01
 -1        70 4.10940E+01
 -1        71 4.97560E+01
 -1        72 5.43622E+01
 -1        73 5.84159E+01
 -1        74 6.00516E+01
 -1        75 6.00516E+01
 -1        76 5.96471E+01
 -1        77 5.97062E+01
 -1        78 6.03377E+01
 -1        79 6.15905E+01
 -1        80 6.15905E+01
 -1        81 5.53825E+01
 -1        82 5.24942E+01
 -1        83 5.88557E+01
 -1        84 6.25884E+01
 -1        85 6.25884E+01
 -1        86 6.24022E+01
 -1        87 6.23061E+01
 -1        88 6.25324E+01
 -1        89 6.50493E+01
 -1        90 6.23061E+01
 -1        91 6.24022E+01
 -1        92 6.25884E+01
 -1        93 6.25884E+01
 -1        94 5.88557E+01
 -1        95 5.24942E+01
 -1        96 5.58943E+01
 -1        97 6.16152E+01
 -1        98 6.16152E+01
 -1        99 6.03377E+01
 -1       100 6.08613E+01
 -1       101 6.17150E+01
 -1       102 6.33104E+01
 -1       103 6.46751E+01
 -1       104 6.47496E+01
 -1       105 6.56775E+01
 -1       106 6.68910E+01
 -1       107 6.86699E+01
 -1       108 6.86699E+01
 -1       109 6.68910E+01
 -1       110 6.56775E+01
 -1       111 6.47496E+01
 -1       112 6.46751E+01
 -1       113 6.33104E+01
 -1       114 6.17150E+01
 -1       115 6.08613E+01
 -1       116 6.03377E+01
 -1       117 6.16152E+01
 -1       118 6.16152E+01
 -1       119 5.58943E+01
 -1       120 5.24942E+01
 -1       121 5.88557E+01
 -1       122 6.25884E+01
 -1       123 6.25884E+01
 -1       124 6.24022E+01
 -1       125 6.23061E+01
 -1       126 6.50493E+01
 -3
    1PSTEP                       109          28           1          
  100CL  128 2.80000E-01         126                     1   28           1
 -4  DISP        4    1
 -5  D1          1    2    1    0
 -5  D2          1    2    2    0
 -5  D3          1    2    3    0
 -5  ALL         1    2    0    0    1ALL
 -1         1 0.00000E+00 0.00000E+00 0.00000E+00
 -1         2 0.00000E+00 0.00000E+00 0.00000E+00
 -1         3 4.22136E-02-2.95155E-03 0.00000E+00
 -1         4 4.22136E-02-2.95155E-03 0.00000E+00
 -1         5 4.21880E-02-7.24072E-04 0.00000E+00
 -1         6 4.21880E-02-7.24072E-04 0.00000E+00
 -1         7 0.00000E+00 0.00000E+00 0.00000E+00
 -1         8 0.00000E+00 0.00000E+00 0.00000E+00
 -1         9 4.22001E-02-1.82997E-03 0.00000E+00
 -1        10 4.22001E-02-1.82997E-03 0.00000E+00
 -1        11 0.00000E+00 0.00000E+00 0.00000E+00
 -1        12 0.00000E+00 0.00000E+00 0.00000E+00
 -1        13 1.39065E-03 1.40987E-03 0.00000E+00
 -1        14 3.79431E-03 2.51390E-03 0.00000E+00
 -1        15 7.17465E-03 3.24680E-03 0.00000E+00
 -1        16 1.12215E-02 3.71691E-03 0.00000E+00
 -1        17 1.57908E-02 3.97180E-03 0.00000E+00
 -1        18 2.07608E-02 4.00765E-03 0.00000E+00
 -1        19 2.59226E-02 3.78121E-03 0.00000E+00
 -1        20 3.09683E-02 3.26797E-03 0.00000E+00
 -1        21 3.55379E-02 2.52537E-03 0.00000E+00
 -1        22 3.93769E-02 1.67347E-03 0.00000E+00
 -1        23 4.24010E-02 8.16166E-04 0.00000E+00
 -1        24 4.46272E-02 1.65923E-06 0.00000E+00
 -1        25 4.60769E-02-7.54813E-04 0.00000E+00
 -1        26 4.67715E-02-1.42926E-03 0.00000E+00
 -1        27 4.67934E-02-1.98037E-03 0.00000E+00
 -1        28 4.63250E-02-2.39063E-03 0.00000E+00
 -1        29 4.55246E-02-2.67672E-03 0.00000E+00
 -1        30 4.44950E-02-2.85308E-03 0.00000E+00
 -1        31 4.33537E-02-2.93254E-03 0.00000E+00
 -1        32 1.39065E-03 1.40987E-03 0.00000E+00
 -1        33 3.79431E-03 2.51390E-03 0.00000E+00
 -1        34 7.17465E-03 3.24680E-03 0.00000E+00
 -1        35 1.12215E-02 3.71691E-03 0.00000E+00
 -1        36 1.57908E-02 3.97180E-03 0.00000E+00
 -1        37 2.07608E-02 4.00765E-03 0.00000E+00
 -1        38 2.59226E-02 3.78121E-03 0.00000E+00
 -1        39 3.09683E-02 3.26797E-03 0.00000E+00
 -1        40 3.55379E-02 2.52537E-03 0.00000E+00
 -1        41 3.93769E-02 1.67347E-03 0.00000E+00
 -1        42 4.24010E-02 8.16166E-04 0.00000E+00
 -1        43 4.46272E-02 1.65923E-06 0.00000E+00
 -1        44 4.60769E-02-7.54813E-04 0.00000E+00
 -1        45 4.67715E-02-1.42926E-03 0.00000E+00
 -1        46 4.67934E-02-1.98037E-03 0.00000E+00
 -1        47 4.63250E-02-2.39063E-03 0.00000E+00
 -1        48 4.55246E-02-2.67672E-03 0.00000E+00
 -1        49 4.44950E-02-2.85308E-03 0.00000E+00
 -1        50 4.33537E-02-2.93254E-03 0.00000E+00
 -1        51 4.33251E-02-7.35911E-04 0.00000E+00
 -1        52 4.44677E-02-8.13242E-04 0.00000E+00
 -1        53 4.55055E-02-9.93973E-04 0.00000E+00
 -1        54 4.63151E-02-1.29581E-03 0.00000E+00
 -1        55 4.67809E-02-1.73373E-03 0.00000E+00
 -1        56 4.67498E-02-2.31697E-03 0.00000E+00
 -1        57 4.60344E-02-3.01281E-03 0.00000E+00
 -1        58 4.45415E-02-3.75510E-03 0.00000E+00
 -1        59 4.22465E-02-4.48999E-03 0.00000E+00
 -1        60 3.91316E-02-5.17184E-03 0.00000E+00
 -1        61 3.51925E-02-5.72544E-03 0.00000E+00
 -1        62 3.05358E-02-6.04367E-03 0.00000E+00
 -1        63 2.54395E-02-6.04557E-03 0.00000E+00
 -1        64 2.02849E-02-5.74113E-03 0.00000E+00
 -1        65 1.53722E-02-5.21302E-03 0.00000E+00
 -1        66 1.08835E-02-4.54034E-03 0.00000E+00
 -1        67 6.93286E-03-3.73923E-03 0.00000E+00
 -1        68 3.65289E-03-2.76507E-03 0.00000E+00
 -1        69 1.34570E-03-1.50693E-03 0.00000E+00
 -1        70 4.33251E-02-7.35911E-04 0.00000E+00
 -1        71 4.44677E-02-8.13242E-04 0.00000E+00
 -1        72 4.55055E-02-9.93973E-04 0.00000E+00
 -1        73 4.63151E-02-1.29581E-03 0.00000E+00
 -1        74 4.67809E-02-1.73373E-03 0.00000E+00
 -1        75 4.67498E-02-2.31697E-03 0.00000E+00
 -1        76 4.60344E-02-3.01281E-03 0.00000E+00
 -1        77 4.45415E-02-3.75510E-03 0.00000E+00
 -1        78 4.22465E-02-4.48999E-03 0.00000E+00
 -1        79 3.91316E-02-5.17184E-03 0.00000E+00
 -1        80 3.51925E-02-5.72544E-03 0.00000E+00
 -1        81 3.05358E-02-6.04367E-03 0.00000E+00
 -1        82 2.54395E-02-6.04557E-03 0.00000E+00
 -1        83 2.02849E-02-5.74113E-03 0.00000E+00
 -1        84 1.53722E-02-5.21302E-03 0.00000E+00
 -1        85 1.08835E-02-4.54034E-03 0.00000E+00
 -1        86 6.93286E-03-3.73923E-03 0.00000E+00
 -1        87 3.65289E-03-2.76507E-03 0.00000E+00
 -1        88 1.34570E-03-1.50693E-03 0.00000E+00
 -1        89 1.00885E-03-3.42543E-05 0.00000E+00
 -1        90 3.51757E-03-1.09003E-04 0.00000E+00
 -1        91 6.89133E-03-2.31335E-04 0.00000E+00
 -1        92 1.09328E-02-4.00179E-04 0.00000E+00
 -1        93 1.54970E-02-6.12775E-04 0.00000E+00
 -1        94 2.04815E-02-8.62900E-04 0.00000E+00
 -1        95 2.57005E-02-1.13416E-03 0.00000E+00
 -1        96 3.08354E-02-1.39743E-03 0.00000E+00
 -1        97 3.54975E-02-1.61389E-03 0.00000E+00
 -1        98 3.94099E-02-1.76167E-03 0.00000E+00
 -1        99 4.24871E-02-1.84619E-03 0.00000E+00
 -1       100 4.47453E-02-1.88295E-03 0.00000E+00
 -1       101 4.62076E-02-1.88725E-03 0.00000E+00
 -1       102 4.68916E-02-1.87286E-03 0.00000E+00
 -1       103 4.68901E-02-1.85409E-03 0.00000E+00
 -1       104 4.63934E-02-1.84183E-03 0.00000E+00
 -1       105 4.55622E-02-1.83644E-03 0.00000E+00
 -1       106 4.45043E-02-1.83388E-03 0.00000E+00
 -1       107 4.33456E-02-1.83296E-03 0.00000E+00
 -1       108 4.33456E-02-1.83296E-03 0.00000E+00
 -1       109 4.45043E-02-1.83388E-03 0.00000E+00
 -1       110 4.55622E-02-1.83644E-03 0.00000E+00
 -1       111 4.63934E-02-1.84183E-03 0.00000E+00
 -1       112 4.68901E-02-1.85409E-03 0.00000E+00
 -1       113 4.68916E-02-1.87286E-03 0.00000E+00
 -1       114 4.62076E-02-1.88725E-03 0.00000E+00
 -1       115 4.47453E-02-1.88295E-03 0.00000E+00
 -1       116 4.24871E-02-1.84619E-03 0.00000E+00
 -1       117 3.94099E-02-1.76167E-03 0.00000E+00
 -1       118 3.54975E-02-1.61389E-03 0.00000E+00
 -1       119 3.08354E-02-1.39743E-03 0.00000E+00
 -1       120 2.57005E-02-1.13416E-03 0.00000E+00
 -1       121 2.04815E-02-8.62900E-04 0.00000E+00
 -1       122 1.54970E-02-6.12775E-04 0.00000E+00
 -1       123 1.09328E-02-4.00179E-04 0.00000E+00
 -1       124 6.89133E-03-2.31335E-04 0.00000E+00
 -1       125 3.51757E-03-1.09003E-04 0.00000E+00
 -1       126 1.00885E-03-3.42543E-05 0.00000E+00
 -3
    1PSTEP                       110          28           1          
  100CL  128 2.80000E-01         126                     1   28           1
 -4  STRESS      6    1
 -5  SXX         1    4    1    1
 -5  SYY         1    4    2    2
 -5  SZZ         1    4    3    3
 -5  SXY         1    4    1    2
 -5  SYZ         1    4    2    3
 -5  SZX         1    4    3    1
 -1         1 6.71437E+03 1.58672E+04 6.50396E+03 4.67182E+03-2.18897E-10-2.38098E-10
 -1         2 6.71437E+03 1.58672E+04 6.50396E+03 4.67182E+03-2.18897E-10-2.38098E-10
 -1         3-3.49758E+01-7.15495E+01-3.19617E+01-5.67138E+01 4.92255E-08 1.47735E-07
 -1         4-3.49758E+01-7.15495E+01-3.19617E+01-5.67138E+01 4.92255E-08 1.47733E-07
 -1         5 1.19534E+02 2.63005E+02 1.14652E+02-9.78420E+01-5.51692E-08 1.42792E-07
 -1         6 1.19534E+02 2.63005E+02 1.14652E+02-9.78420E+01-5.51692E-08 1.42794E-07
 -1         7-6.79034E+03-1.54860E+04-6.97606E+03 3.74997E+03-3.03938E-10 2.41782E-10
 -1         8-6.79034E+03-1.54860E+04-6.97606E+03 3.74997E+03-3.03938E-10 2.41786E-10
 -1         9 7.43645E+01 1.67302E+02 7.24375E+01-9.89458E+01-4.21659E-10 1.48440E-07
 -1        10 7.43645E+01 1.67302E+02 7.24375E+01-9.89458E+01-4.21646E-10 1.48443E-07
 -1        11-1.83557E+01-4.34715E+02-1.11094E+02 3.09565E+03-2.58345E-10-4.18185E-11
 -1        12-1.83557E+01-4.34715E+02-1.11094E+02 3.09565E+03-2.58345E-10-4.18258E-11
 -1        13 2.22504E+03 1.26499E+04 4.31279E+03 1.61746E+03-2.31650E-08-4.54789E-08
 -1        14 2.50058E+03 1.00232E+04 3.66023E+03 1.06385E+03-5.39546E-09-8.57558E-08
 -1        15 1.78104E+03 7.25187E+03 2.65808E+03 9.40729E+02 2.79339E-08-9.41760E-08
 -1        16 1.35440E+03 5.32693E+03 1.97546E+03 7.67833E+02 5.08486E-08-6.75704E-08
 -1        17 9.37017E+02 3.55769E+03 1.33378E+03 7.00999E+02 4.49023E-08-2.36385E-08
 -1        18 4.21571E+02 1.43898E+03 5.53063E+02 6.56869E+02 1.61782E-08 4.69808E-08
 -1        19-1.66743E+02-1.17675E+03-4.07752E+02 5.29774E+02-8.37006E-10 2.34250E-08
 -1        20-8.17069E+02-3.88514E+03-1.42864E+03 2.89896E+02-1.22770E-08 3.74204E-08
 -1        21-1.39452E+03-5.96753E+03-2.24648E+03 6.38115E+00-2.15816E-08 2.15392E-08
 -1        22-1.75044E+03-7.05777E+03-2.69375E+03-1.94017E+02-2.38704E-08-2.07038E-08
 -1        23-1.84177E+03-7.34238E+03-2.80985E+03-2.58377E+02-2.39777E-08-8.67609E-09
 -1        24-1.80968E+03-7.20810E+03-2.75767E+03-2.41602E+02-2.38130E-08-1.81868E-08
 -1        25-1.69507E+03-6.76470E+03-2.58427E+03-2.37963E+02-3.08650E-08-4.14624E-08
 -1        26-1.49990E+03-5.90784E+03-2.25795E+03-2.76058E+02-2.87525E-08-7.32031E-08
 -1        27-1.16452E+03-4.65831E+03-1.76889E+03-2.88193E+02-1.04605E-08-8.17097E-08
 -1        28-8.10980E+02-3.34788E+03-1.25905E+03-2.45640E+02 1.65721E-08-8.02400E-08
 -1        29-5.37281E+02-2.18594E+03-8.22014E+02-2.13971E+02 3.94943E-08-1.06949E-08
 -1        30-3.15118E+02-1.16355E+03-4.45197E+02-1.94019E+02 4.35490E-08 6.51904E-08
 -1        31-1.18809E+02-3.76777E+02-1.48914E+02-1.23374E+02 4.35231E-08 1.00200E-07
 -1        32 2.22504E+03 1.26499E+04 4.31279E+03 1.61746E+03-2.31650E-08-4.54789E-08
 -1        33 2.50058E+03 1.00232E+04 3.66023E+03 1.06385E+03-5.39547E-09-8.57558E-08
 -1        34 1.78104E+03 7.25187E+03 2.65808E+03 9.40729E+02 2.79339E-08-9.41760E-08
 -1        35 1.35440E+03 5.32693E+03 1.97546E+03 7.67833E+02 5.08486E-08-6.75708E-08
 -1        36 9.37017E+02 3.55769E+03 1.33378E+03 7.00999E+02 4.49023E-08-2.36385E-08
 -1        37 4.21571E+02 1.43898E+03 5.53063E+02 6.56869E+02 1.61781E-08 4.69817E-08
 -1        38-1.66743E+02-1.17675E+03-4.07752E+02 5.29774E+02-8.36562E-10 2.34232E-08
 -1        39-8.17069E+02-3.88514E+03-1.42864E+03 2.89896E+02-1.22770E-08 3.74204E-08
 -1        40-1.39452E+03-5.96753E+03-2.24648E+03 6.38115E+00-2.15817E-08 2.15385E-08
 -1        41-1.75044E+03-7.05777E+03-2.69375E+03-1.94017E+02-2.38704E-08-2.07036E-08
 -1        42-1.84177E+03-7.34238E+03-2.80985E+03-2.58377E+02-2.39778E-08-8.67702E-09
 -1        43-1.80968E+03-7.20810E+03-2.75767E+03-2.41602E+02-2.38130E-08-1.81868E-08
 -1        44-1.69507E+03-6.76470E+03-2.58427E+03-2.37963E+02-3.08650E-08-4.14601E-08
 -1        45-1.49990E+03-5.90784E+03-2.25795E+03-2.76058E+02-2.87526E-08-7.32077E-08
 -1        46-1.16452E+03-4.65831E+03-1.76889E+03-2.88193E+02-1.04605E-08-8.17087E-08
 -1        47-8.10980E+02-3.34788E+03-1.25905E+03-2.45640E+02 1.65721E-08-8.02400E-08
 -1        48-5.37281E+02-2.18594E+03-8.22014E+02-2.13971E+02 3.94944E-08-1.06967E-08
 -1        49-3.15118E+02-1.16355E+03-4.45197E+02-1.94019E+02 4.35489E-08 6.51904E-08
 -1        50-1.18809E+02-3.76777E+02-1.48914E+02-1.23374E+02 4.35233E-08 1.00201E-07
 -1        51 1.79909E+02 5.76073E+02 2.26295E+02-1.36727E+02-4.99213E-08 9.26453E-08
 -1        52 3.78111E+02 1.39424E+03 5.29390E+02-2.25879E+02-5.13156E-08 6.52468E-08
 -1        53 6.28063E+02 2.47131E+03 9.23321E+02-2.68082E+02-5.11077E-08-1.10691E-09
 -1        54 9.24060E+02 3.71489E+03 1.37778E+03-3.01925E+02-2.95029E-08-6.34334E-08
 -1        55 1.19259E+03 5.07735E+03 1.85546E+03-3.09462E+02-6.99970E-09-8.10193E-08
 -1        56 1.46288E+03 6.38575E+03 2.31461E+03-2.01581E+02 6.45214E-09-7.41151E-08
 -1        57 1.66096E+03 7.29680E+03 2.63608E+03-4.19037E+00 5.99796E-09-3.47291E-08
 -1        58 1.78018E+03 7.73051E+03 2.79632E+03 1.80760E+02-1.69510E-09-2.53724E-08
 -1        59 1.80764E+03 7.78042E+03 2.81854E+03 3.52567E+02-4.46538E-09 4.58559E-09
 -1        60 1.75085E+03 7.34450E+03 2.67566E+03 5.62368E+02 2.15937E-09 1.24718E-08
 -1        61 1.51515E+03 6.06116E+03 2.23440E+03 7.76611E+02 1.13532E-08 1.73913E-08
 -1        62 1.08077E+03 3.80619E+03 1.44774E+03 8.49284E+02 6.69506E-09 3.02152E-08
 -1        63 4.43215E+02 9.91846E+02 4.25702E+02 6.92510E+02-6.34318E-09 4.31227E-08
 -1        64-1.97632E+02-1.62645E+03-5.52412E+02 4.08478E+02-2.22431E-08 4.18894E-08
 -1        65-7.42412E+02-3.67303E+03-1.33958E+03 1.70267E+02-3.24011E-08-7.54528E-09
 -1        66-1.20592E+03-5.37750E+03-2.00490E+03 6.56665E+01-1.76162E-08-7.07173E-08
 -1        67-1.65618E+03-7.24814E+03-2.72529E+03 1.22934E+02 5.63390E-09-1.04947E-07
 -1        68-2.50580E+03-9.94049E+03-3.83751E+03 2.05658E+02 1.36186E-08-1.00395E-07
 -1        69-2.25294E+03-1.24063E+04-4.56020E+03 8.81241E+02 1.32930E-08-5.76063E-08
 -1        70 1.79909E+02 5.76073E+02 2.26295E+02-1.36727E+02-4.99213E-08 9.26427E-08
 -1        71 3.78111E+02 1.39424E+03 5.29390E+02-2.25879E+02-5.13156E-08 6.52466E-08
 -1        72 6.28063E+02 2.47131E+03 9.23321E+02-2.68082E+02-5.11077E-08-1.10741E-09
 -1        73 9.24060E+02 3.71489E+03 1.37778E+03-3.01925E+02-2.95029E-08-6.34298E-08
 -1        74 1.19259E+03 5.07735E+03 1.85546E+03-3.09462E+02-6.99970E-09-8.10202E-08
 -1        75 1.46288E+03 6.38575E+03 2.31461E+03-2.01581E+02 6.45215E-09-7.41151E-08
 -1        76 1.66096E+03 7.29680E+03 2.63608E+03-4.19037E+00 5.99789E-09-3.47247E-08
 -1        77 1.78018E+03 7.73051E+03 2.79632E+03 1.80760E+02-1.69510E-09-2.53801E-08
 -1        78 1.80764E+03 7.78042E+03 2.81854E+03 3.52567E+02-4.46531E-09 4.58279E-09
 -1        79 1.75085E+03 7.34450E+03 2.67566E+03 5.62368E+02 2.15922E-09 1.24693E-08
 -1        80 1.51515E+03 6.06116E+03 2.23440E+03 7.76611E+02 1.13537E-08 1.73887E-08
 -1        81 1.08077E+03 3.80619E+03 1.44774E+03 8.49284E+02 6.69509E-09 3.02151E-08
 -1        82 4.43215E+02 9.91846E+02 4.25702E+02 6.92510E+02-6.34328E-09 4.31223E-08
 -1        83-1.97632E+02-1.62645E+03-5.52412E+02 4.08478E+02-2.22436E-08 4.18898E-08
 -1        84-7.42412E+02-3.67303E+03-1.33958E+03 1.70267E+02-3.24009E-08-7.54714E-09
 -1        85-1.20592E+03-5.37750E+03-2.00490E+03 6.56665E+01-1.76162E-08-7.07170E-08
 -1        86-1.65618E+03-7.24814E+03-2.72529E+03 1.22934E+02 5.63379E-09-1.04947E-07
 -1        87-2.50580E+03-9.94049E+03-3.83751E+03 2.05658E+02 1.36186E-08-1.00395E-07
 -1        88-2.25294E+03-1.24063E+04-4.56020E+03 8.81241E+02 1.32930E-08-5.76064E-08
 -1        89 5.59311E+01-4.03290E+02-9.42002E+01 9.14166E+02-6.99260E-09-5.34396E-08
 -1        90 7.67841E+01-2.99883E+02-5.29591E+01 9.16188E+02 4.67867E-09-9.83152E-08
 -1        91 9.63022E+01-2.07128E+02-2.67477E+01 6.48950E+02 1.91247E-08-1.08028E-07
 -1        92 9.98202E+01-1.55160E+02-1.34811E+01 5.25775E+02 1.82864E-08-7.22988E-08
 -1        93 1.23307E+02-1.32189E+02-2.32209E+00 5.49534E+02 3.38245E-09-1.17532E-08
 -1        94 1.48790E+02-1.34368E+02 2.87526E+00 6.88696E+02-5.20219E-09 4.12313E-08
 -1        95 1.79505E+02-1.44147E+02 8.96039E+00 7.98623E+02-5.31444E-09 4.08772E-08
 -1        96 1.69349E+02-1.35935E+02 9.77666E+00 7.34727E+02-5.37905E-09 3.55797E-08
 -1        97 9.60761E+01-8.79260E+01 4.79399E+00 4.90264E+02 1.91270E-09 1.99142E-08
 -1        98 3.37162E+01-1.56830E+01 1.07005E+01 2.18717E+02-6.02111E-09-4.50713E-09
 -1        99 1.09726E+01 4.55810E+01 2.38352E+01 4.40534E+01-1.94153E-08-7.30076E-09
 -1       100 8.31600E+00 8.90850E+01 3.60946E+01-5.55200E+01-1.54696E-08-1.87788E-08
 -1       101 5.58723E+00 1.20004E+02 4.32415E+01-1.71335E+02-1.10973E-08-3.71562E-08
 -1       102 3.21916E+00 1.35178E+02 4.55187E+01-3.15606E+02-8.47105E-09-7.46687E-08
 -1       103 2.38599E+01 1.29338E+02 4.86812E+01-3.87417E+02-3.56849E-09-8.79091E-08
 -1       104 5.42552E+01 1.17389E+02 5.29549E+01-3.59157E+02-4.20364E-09-7.63454E-08
 -1       105 4.71912E+01 1.13276E+02 4.86237E+01-3.18273E+02-7.86763E-09-7.86513E-09
 -1       106 4.24151E+01 1.23738E+02 4.99155E+01-2.73062E+02-1.02723E-08 6.73799E-08
 -1       107 5.33962E+01 1.46022E+02 5.97801E+01-1.66679E+02-6.69626E-09 9.52820E-08
 -1       108 5.33962E+01 1.46022E+02 5.97801E+01-1.66679E+02-6.69630E-09 9.52818E-08
 -1       109 4.24151E+01 1.23738E+02 4.99155E+01-2.73062E+02-1.02723E-08 6.73802E-08
 -1       110 4.71912E+01 1.13276E+02 4.86237E+01-3.18273E+02-7.86768E-09-7.86236E-09
 -1       111 5.42552E+01 1.17389E+02 5.29549E+01-3.59157E+02-4.20362E-09-7.63460E-08
 -1       112 2.38599E+01 1.29338E+02 4.86812E+01-3.87417E+02-3.56847E-09-8.79108E-08
 -1       113 3.21916E+00 1.35178E+02 4.55187E+01-3.15606E+02-8.47106E-09-7.46685E-08
 -1       114 5.58723E+00 1.20004E+02 4.32415E+01-1.71335E+02-1.10973E-08-3.71552E-08
 -1       115 8.31599E+00 8.90850E+01 3.60946E+01-5.55200E+01-1.54696E-08-1.87780E-08
 -1       116 1.09726E+01 4.55810E+01 2.38352E+01 4.40534E+01-1.94153E-08-7.29815E-09
 -1       117 3.37162E+01-1.56830E+01 1.07005E+01 2.18717E+02-6.02109E-09-4.50725E-09
 -1       118 9.60761E+01-8.79260E+01 4.79399E+00 4.90264E+02 1.91267E-09 1.99158E-08
 -1       119 1.69349E+02-1.35935E+02 9.77666E+00 7.34727E+02-5.37911E-09 3.55797E-08
 -1       120 1.79505E+02-1.44147E+02 8.96039E+00 7.98623E+02-5.31449E-09 4.08783E-08
 -1       121 1.48790E+02-1.34368E+02 2.87526E+00 6.88696E+02-5.20193E-09 4.12305E-08
 -1       122 1.23307E+02-1.32189E+02-2.32209E+00 5.49534E+02 3.38234E-09-1.17528E-08
 -1       123 9.98202E+01-1.55160E+02-1.34811E+01 5.25775E+02 1.82865E-08-7.22978E-08
 -1       124 9.63022E+01-2.07128E+02-2.67477E+01 6.48950E+02 1.91247E-08-1.08028E-07
 -1       125 7.67841E+01-2.99883E+02-5.29591E+01 9.16188E+02 4.67865E-09-9.83152E-08
 -1       126 5.59311E+01-4.03290E+02-9.42002E+01 9.14166E+02-6.99260E-09-5.34396E-08
 -3
    1PSTEP                       111          28           1          
  100CL  128 2.80000E-01         126                     1   28           1
 -4  TOSTRAIN    6    1
 -5  EXX         1    4    1    1
 -5  EYY         1    4    2    2
 -5  EZZ         1    4    3    3
 -5  EXY         1    4    1    2
 -5  EYZ         1    4    2    3
 -5  EZX         1    4    3    1
 -1         1-7.42517E-05 2.89068E-02-8.68553E-27 1.39063E-02 6.83536E-19-5.19255E-16
 -1         2-7.42517E-05 2.89068E-02-8.68553E-27 1.39063E-02 6.83536E-19-5.19255E-16
 -1         3-1.82590E-05-1.20257E-04 4.95884E-25-1.86909E-04 1.49194E-13 4.83702E-13
 -1         4-1.82590E-05-1.20257E-04 4.95874E-25-1.86909E-04 1.49194E-13 4.83696E-13
 -1         5 1.67410E-06 4.95387E-04 4.74738E-25-3.06815E-04-1.89383E-13 4.59765E-13
 -1         6 1.67410E-06 4.95387E-04 4.74744E-25-3.06815E-04-1.89383E-13 4.59770E-13
 -1         7-7.61933E-05-2.93976E-02-1.20866E-26 1.34568E-02 1.08512E-19 4.45067E-16
 -1         8-7.61933E-05-2.93976E-02-1.20867E-26 1.34568E-02 1.08784E-19 4.45079E-16
 -1         9-8.29247E-06 3.22265E-04 4.45652E-25-3.14179E-04-1.21143E-14 4.82200E-13
 -1        10-8.29247E-06 3.22265E-04 4.45670E-25-3.14179E-04-1.21145E-14 4.82210E-13
 -1        11-7.52225E-05-5.56507E-04-9.96494E-27 1.00882E-02 3.46717E-19-1.15366E-16
 -1        12-7.52225E-05-5.56507E-04-9.96493E-27 1.00882E-02 3.46209E-19-1.15390E-16
 -1        13-7.25020E-03 2.61697E-02 4.44097E-26 4.02219E-03-7.66198E-14-1.44376E-13
 -1        14-4.17884E-03 2.02293E-02 1.49618E-25 2.04895E-03-3.12023E-14-2.76038E-13
 -1        15-3.24983E-03 1.48669E-02 1.99517E-25 1.72580E-03 6.78853E-14-3.10961E-13
 -1        16-2.37812E-03 1.09935E-02 1.41071E-25 1.36264E-03 1.44472E-13-2.32391E-13
 -1        17-1.66051E-03 7.46675E-03 3.36819E-26 1.43674E-03 1.36868E-13-9.01900E-14
 -1        18-8.27055E-04 3.23232E-03 3.88492E-26 1.76315E-03 6.68662E-14 1.46544E-13
 -1        19 3.98705E-04-2.15620E-03 8.78424E-27 2.02069E-03 4.80354E-15 7.60523E-14
 -1        20 1.69195E-03-7.84865E-03 3.17439E-26 1.88050E-03-2.87026E-14 1.25076E-13
 -1        21 2.60527E-03-1.22682E-02 1.45445E-26 1.27613E-03-6.52253E-14 7.58587E-14
 -1        22 3.00315E-03-1.45757E-02 1.65839E-26 5.74046E-04-8.36152E-14-6.18222E-14
 -1        23 3.12040E-03-1.51879E-02 1.42575E-26 1.18566E-04-8.09918E-14-2.40588E-14
 -1        24 3.05403E-03-1.48997E-02 1.84651E-26-1.27456E-04-8.13099E-14-5.63264E-14
 -1        25 2.85816E-03-1.39651E-02 5.35728E-26-4.12881E-04-1.05399E-13-1.32847E-13
 -1        26 2.43071E-03-1.21444E-02 1.27862E-25-7.90361E-04-9.71663E-14-2.37763E-13
 -1        27 1.93158E-03-9.55268E-03 1.41363E-25-9.85965E-04-3.37600E-14-2.66195E-13
 -1        28 1.42351E-03-6.85677E-03 1.29715E-25-9.02950E-04 5.72516E-14-2.60395E-13
 -1        29 8.92995E-04-4.44502E-03 8.50255E-27-7.93138E-04 1.29734E-13-3.24351E-14
 -1        30 3.92986E-04-2.31878E-03 1.07975E-25-6.90172E-04 1.37617E-13 2.15012E-13
 -1        31 7.91442E-05-7.23898E-04 2.37438E-25-4.20209E-04 1.34375E-13 3.28872E-13
 -1        32-7.25020E-03 2.61697E-02 4.44097E-26 4.02219E-03-7.66198E-14-1.44376E-13
 -1        33-4.17884E-03 2.02293E-02 1.49618E-25 2.04895E-03-3.12023E-14-2.76038E-13
 -1        34-3.24983E-03 1.48669E-02 1.99517E-25 1.72580E-03 6.78853E-14-3.10961E-13
 -1        35-2.37812E-03 1.09935E-02 1.41073E-25 1.36264E-03 1.44472E-13-2.32392E-13
 -1        36-1.66051E-03 7.46675E-03 3.36818E-26 1.43674E-03 1.36868E-13-9.01898E-14
 -1        37-8.27055E-04 3.23232E-03 3.88505E-26 1.76315E-03 6.68660E-14 1.46547E-13
 -1        38 3.98705E-04-2.15620E-03 8.78180E-27 2.02069E-03 4.80439E-15 7.60462E-14
 -1        39 1.69195E-03-7.84865E-03 3.17439E-26 1.88050E-03-2.87025E-14 1.25076E-13
 -1        40 2.60527E-03-1.22682E-02 1.45440E-26 1.27613E-03-6.52255E-14 7.58564E-14
 -1        41 3.00315E-03-1.45757E-02 1.65840E-26 5.74046E-04-8.36152E-14-6.18216E-14
 -1        42 3.12040E-03-1.51879E-02 1.42579E-26 1.18566E-04-8.09920E-14-2.40618E-14
 -1        43 3.05403E-03-1.48997E-02 1.84652E-26-1.27456E-04-8.13100E-14-5.63264E-14
 -1        44 2.85816E-03-1.39651E-02 5.35673E-26-4.12881E-04-1.05398E-13-1.32840E-13
 -1        45 2.43071E-03-1.21444E-02 1.27875E-25-7.90361E-04-9.71665E-14-2.37778E-13
 -1        46 1.93158E-03-9.55268E-03 1.41360E-25-9.85965E-04-3.37600E-14-2.66192E-13
 -1        47 1.42351E-03-6.85677E-03 1.29716E-25-9.02950E-04 5.72516E-14-2.60395E-13
 -1        48 8.92995E-04-4.44502E-03 8.50158E-27-7.93138E-04 1.29734E-13-3.24412E-14
 -1        49 3.92986E-04-2.31878E-03 1.07972E-25-6.90172E-04 1.37617E-13 2.15012E-13
 -1        50 7.91442E-05-7.23898E-04 2.37443E-25-4.20209E-04 1.34376E-13 3.28875E-13
 -1        51-1.70252E-04 1.15205E-03 2.20978E-25-4.13911E-04-1.68553E-13 2.97230E-13
 -1        52-5.23000E-04 2.82203E-03 1.29533E-25-6.61294E-04-1.70408E-13 2.08250E-13
 -1        53-9.94729E-04 5.00913E-03 3.21725E-26-7.60868E-04-1.64870E-13-6.62029E-15
 -1        54-1.50971E-03 7.50841E-03 9.15781E-26-8.66389E-04-9.26671E-14-2.06999E-13
 -1        55-2.18791E-03 1.02780E-02 1.38134E-25-9.52836E-04-2.18093E-14-2.62866E-13
 -1        56-2.80567E-03 1.29111E-02 1.13177E-25-7.76061E-04 1.84853E-14-2.40435E-13
 -1        57-3.22222E-03 1.47415E-02 2.22208E-26-4.14000E-04 1.66201E-14-1.12946E-13
 -1        58-3.38576E-03 1.56109E-02 1.11084E-26-1.35765E-04-8.42001E-15-8.19815E-14
 -1        59-3.42203E-03 1.57447E-02-2.12073E-27 1.06301E-04-1.33752E-14 1.56558E-14
 -1        60-3.24231E-03 1.49351E-02 1.90824E-27 5.50739E-04 9.64240E-15 3.99003E-14
 -1        61-2.71319E-03 1.24660E-02 8.18352E-27 1.24325E-03 4.07745E-14 5.30511E-14
 -1        62-1.66268E-03 7.97097E-03 1.86450E-26 1.86121E-03 3.04864E-14 9.54743E-14
 -1        63-3.82213E-04 2.23668E-03 3.92448E-26 2.02112E-03-6.74657E-15 1.41454E-13
 -1        64 8.34358E-04-3.21923E-03 4.20108E-26 1.76281E-03-5.89724E-14 1.42785E-13
 -1        65 1.73360E-03-7.51129E-03 7.62563E-27 1.43939E-03-1.08268E-13-1.44866E-14
 -1        66 2.43298E-03-1.10630E-02 9.71515E-26 1.36333E-03-7.71958E-14-2.24525E-13
 -1        67 3.27297E-03-1.49758E-02 2.29125E-25 1.72691E-03-5.62189E-15-3.42318E-13
 -1        68 4.08459E-03-2.04975E-02 2.13428E-25 2.04355E-03 2.79500E-14-3.29421E-13
 -1        69 7.13137E-03-2.66133E-02 6.32792E-26 4.06780E-03 3.95464E-14-1.89119E-13
 -1        70-1.70252E-04 1.15205E-03 2.20966E-25-4.13911E-04-1.68553E-13 2.97221E-13
 -1        71-5.23000E-04 2.82203E-03 1.29532E-25-6.61294E-04-1.70408E-13 2.08249E-13
 -1        72-9.94729E-04 5.00913E-03 3.21725E-26-7.60868E-04-1.64870E-13-6.62190E-15
 -1        73-1.50971E-03 7.50841E-03 9.15679E-26-8.66389E-04-9.26673E-14-2.06987E-13
 -1        74-2.18791E-03 1.02780E-02 1.38136E-25-9.52836E-04-2.18093E-14-2.62869E-13
 -1        75-2.80567E-03 1.29111E-02 1.13177E-25-7.76061E-04 1.84853E-14-2.40435E-13
 -1        76-3.22222E-03 1.47415E-02 2.22151E-26-4.14000E-04 1.66202E-14-1.12932E-13
 -1        77-3.38576E-03 1.56109E-02 1.11170E-26-1.35765E-04-8.42087E-15-8.20063E-14
 -1        78-3.42203E-03 1.57447E-02-2.12091E-27 1.06301E-04-1.33755E-14 1.56467E-14
 -1        79-3.24231E-03 1.49351E-02 1.90725E-27 5.50739E-04 9.64139E-15 3.98924E-14
 -1        80-2.71319E-03 1.24660E-02 8.18175E-27 1.24325E-03 4.07753E-14 5.30429E-14
 -1        81-1.66268E-03 7.97097E-03 1.86450E-26 1.86121E-03 3.04865E-14 9.54743E-14
 -1        82-3.82213E-04 2.23668E-03 3.92440E-26 2.02112E-03-6.74702E-15 1.41452E-13
 -1        83 8.34358E-04-3.21923E-03 4.20117E-26 1.76281E-03-5.89739E-14 1.42786E-13
 -1        84 1.73360E-03-7.51129E-03 7.62714E-27 1.43939E-03-1.08268E-13-1.44926E-14
 -1        85 2.43298E-03-1.10630E-02 9.71516E-26 1.36333E-03-7.71957E-14-2.24523E-13
 -1        86 3.27297E-03-1.49758E-02 2.29124E-25 1.72691E-03-5.62224E-15-3.42318E-13
 -1        87 4.08459E-03-2.04975E-02 2.13428E-25 2.04355E-03 2.79501E-14-3.29421E-13
 -1        88 7.13137E-03-2.66133E-02 6.32792E-26 4.06780E-03 3.95464E-14-1.89119E-13
 -1        89-5.94167E-05-4.19482E-04 5.10204E-26 3.01167E-03-2.74691E-14-1.72723E-13
 -1        90-4.71259E-05-2.37045E-04 2.00006E-25 3.02785E-03-1.49610E-15-3.19855E-13
 -1        91 1.15682E-05-1.54863E-04 2.51545E-25 2.15793E-03 3.75455E-14-3.54720E-13
 -1        92 2.74283E-05-1.00928E-04 1.04751E-25 1.75407E-03 3.98577E-14-2.39214E-13
 -1        93 3.65473E-05-5.37358E-05-1.41128E-26 1.83183E-03 7.43085E-15-3.90973E-14
 -1        94 3.65171E-06 6.58255E-06 3.03724E-26 2.28486E-03-3.79446E-15 1.35024E-13
 -1        95 8.24611E-06 2.81896E-05 3.55519E-26 2.64796E-03-4.14381E-15 1.33927E-13
 -1        96 1.46339E-05 1.86539E-05 2.65585E-26 2.43806E-03-6.63396E-15 1.16772E-13
 -1        97-5.39589E-05 5.57212E-05 5.71939E-27 1.62087E-03 1.15616E-14 6.39395E-14
 -1        98-1.19583E-04 1.39330E-04-1.83319E-27 7.15354E-04-2.04475E-14-1.31825E-14
 -1        99-1.50814E-04 2.24955E-04 7.86338E-27 1.36773E-04-6.41764E-14-2.03021E-14
 -1       100-1.65866E-04 2.93886E-04 1.11187E-26-1.89339E-04-5.24975E-14-5.91365E-14
 -1       101-1.82031E-04 3.44285E-04 2.73850E-26-5.63918E-04-3.87610E-14-1.19946E-13
 -1       102-1.87477E-04 3.65202E-04 1.15513E-25-1.02827E-03-2.96683E-14-2.42492E-13
 -1       103-1.28163E-04 3.26630E-04 1.63064E-25-1.25714E-03-1.08866E-14-2.85759E-13
 -1       104-4.31012E-05 2.65849E-04 1.13220E-25-1.16367E-03-1.09388E-14-2.48248E-13
 -1       105-5.08669E-05 2.58518E-04-2.27511E-26-1.02923E-03-2.51190E-14-2.60338E-14
 -1       106-6.50074E-05 2.80267E-04 7.86191E-26-8.80525E-04-3.78450E-14 2.18182E-13
 -1       107-4.55538E-05 3.04458E-04 1.78478E-25-5.34047E-04-2.85673E-14 3.09057E-13
 -1       108-4.55538E-05 3.04458E-04 1.78477E-25-5.34047E-04-2.85674E-14 3.09056E-13
 -1       109-6.50074E-05 2.80267E-04 7.86217E-26-8.80525E-04-3.78450E-14 2.18183E-13
 -1       110-5.08669E-05 2.58518E-04-2.27525E-26-1.02923E-03-2.51193E-14-2.60248E-14
 -1       111-4.31012E-05 2.65849E-04 1.13221E-25-1.16367E-03-1.09386E-14-2.48250E-13
 -1       112-1.28163E-04 3.26630E-04 1.63070E-25-1.25714E-03-1.08865E-14-2.85764E-13
 -1       113-1.87477E-04 3.65202E-04 1.15513E-25-1.02827E-03-2.96683E-14-2.42491E-13
 -1       114-1.82031E-04 3.44285E-04 2.73830E-26-5.63918E-04-3.87609E-14-1.19943E-13
 -1       115-1.65866E-04 2.93886E-04 1.11175E-26-1.89339E-04-5.24974E-14-5.91337E-14
 -1       116-1.50814E-04 2.24955E-04 7.86255E-27 1.36773E-04-6.41759E-14-2.02937E-14
 -1       117-1.19583E-04 1.39330E-04-1.83324E-27 7.15354E-04-2.04475E-14-1.31829E-14
 -1       118-5.39589E-05 5.57212E-05 5.72040E-27 1.62087E-03 1.15619E-14 6.39448E-14
 -1       119 1.46339E-05 1.86539E-05 2.65585E-26 2.43806E-03-6.63414E-15 1.16772E-13
 -1       120 8.24611E-06 2.81896E-05 3.55537E-26 2.64796E-03-4.14365E-15 1.33930E-13
 -1       121 3.65171E-06 6.58255E-06 3.03711E-26 2.28486E-03-3.79387E-15 1.35021E-13
 -1       122 3.65473E-05-5.37358E-05-1.41128E-26 1.83183E-03 7.43058E-15-3.90961E-14
 -1       123 2.74283E-05-1.00928E-04 1.04748E-25 1.75407E-03 3.98583E-14-2.39211E-13
 -1       124 1.15682E-05-1.54863E-04 2.51546E-25 2.15793E-03 3.75455E-14-3.54720E-13
 -1       125-4.71259E-05-2.37045E-04 2.00006E-25 3.02785E-03-1.49616E-15-3.19855E-13
 -1       126-5.94167E-05-4.19482E-04 5.10203E-26 3.01167E-03-2.74691E-14-1.72723E-13
 -3
    1PSTEP                       112          28           1          
  100CL  128 2.80000E-01         126                     1   28           1
 -4  ERROR       1    1
 -5  STR(%)      1    1    0    0
 -1         1 6.56877E+01
 -1         2 6.56877E+01
 -1         3 5.31721E+01
 -1         4 5.31721E+01
 -1         5 6.35882E+00
 -1         6 6.35882E+00
 -1         7 6.18089E+01
 -1         8 6.18089E+01
 -1         9 5.31721E+01
 -1        10 5.31721E+01
 -1        11 6.56877E+01
 -1        12 6.56877E+01
 -1        13 6.56877E+01
 -1        14 6.35188E+01
 -1        15 6.35188E+01
 -1        16 6.31786E+01
 -1        17 6.24403E+01
 -1        18 5.38009E+01
 -1        19 4.15051E+01
 -1        20 6.01177E+01
 -1        21 6.18359E+01
 -1        22 6.18359E+01
 -1        23 6.05179E+01
 -1        24 6.14058E+01
 -1        25 6.29300E+01
 -1        26 6.44974E+01
 -1        27 6.46962E+01
 -1        28 6.46962E+01
 -1        29 6.41565E+01
 -1        30 6.08594E+01
 -1        31 5.31721E+01
 -1        32 6.56877E+01
 -1        33 6.35188E+01
 -1        34 6.35188E+01
 -1        35 6.31786E+01
 -1        36 6.24403E+01
 -1        37 5.38009E+01
 -1        38 4.15051E+01
 -1        39 6.01177E+01
 -1        40 6.18359E+01
 -1        41 6.18359E+01
 -1        42 6.05179E+01
 -1        43 6.14058E+01
 -1        44 6.29300E+01
 -1        45 6.44974E+01
 -1        46 6.46962E+01
 -1        47 6.46962E+01
 -1        48 6.41565E+01
 -1        49 6.08594E+01
 -1        50 5.31721E+01
 -1        51 3.64181E+01
 -1        52 5.14526E+01
 -1        53 5.74800E+01
 -1        54 5.87834E+01
 -1        55 5.94808E+01
 -1        56 5.94808E+01
 -1        57 5.93358E+01
 -1        58 5.88000E+01
 -1        59 5.93695E+01
 -1        60 6.12242E+01
 -1        61 6.12242E+01
 -1        62 5.99641E+01
 -1        63 4.15793E+01
 -1        64 5.30012E+01
 -1        65 6.09006E+01
 -1        66 6.13490E+01
 -1        67 6.13490E+01
 -1        68 6.11168E+01
 -1        69 6.18089E+01
 -1        70 3.64181E+01
 -1        71 5.14526E+01
 -1        72 5.74800E+01
 -1        73 5.87834E+01
 -1        74 5.94808E+01
 -1        75 5.94808E+01
 -1        76 5.93358E+01
 -1        77 5.88000E+01
 -1        78 5.93695E+01
 -1        79 6.12242E+01
 -1        80 6.12242E+01
 -1        81 5.99641E+01
 -1        82 4.15793E+01
 -1        83 5.30012E+01
 -1        84 6.09006E+01
 -1        85 6.13490E+01
 -1        86 6.13490E+01
 -1        87 6.11168E+01
 -1        88 6.18089E+01
 -1        89 6.56877E+01
 -1        90 6.35188E+01
 -1        91 6.35188E+01
 -1        92 6.31786E+01
 -1        93 6.24403E+01
 -1        94 5.38009E+01
 -1        95 4.15793E+01
 -1        96 6.01177E+01
 -1        97 6.18359E+01
 -1        98 6.18359E+01
 -1        99 6.05179E+01
 -1       100 6.14058E+01
 -1       101 6.29300E+01
 -1       102 6.44974E+01
 -1       103 6.46962E+01
 -1       104 6.46962E+01
 -1       105 6.41565E+01
 -1       106 6.08594E+01
 -1       107 5.31721E+01
 -1       108 5.31721E+01
 -1       109 6.08594E+01
 -1       110 6.41565E+01
 -1       111 6.46962E+01
 -1       112 6.46962E+01
 -1       113 6.44974E+01
 -1       114 6.29300E+01
 -1       115 6.14058E+01
 -1       116 6.05179E+01
 -1       117 6.18359E+01
 -1       118 6.18359E+01
 -1       119 6.01177E+01
 -1       120 4.15793E+01
 -1       121 5.38009E+01
 -1       122 6.24403E+01
 -1       123 6.31786E+01
 -1       124 6.35188E+01
 -1       125 6.35188E+01
 -1       126 6.56877E+01
 -3
    1PSTEP                       113          29           1          
  100CL  129 2.90000E-01         126                     1   29           1
 -4  DISP        4    1
 -5  D1          1    2    1    0
 -5  D2          1    2    2    0
 -5  D3          1    2    3    0
 -5  ALL         1    2    0    0    1ALL
 -1         1 0.00000E+00 0.00000E+00 0.00000E+00
 -1         2 0.00000E+00 0.00000E+00 0.00000E+00
 -1         3 4.59273E-02-2.84812E-03 0.00000E+00
 -1         4 4.59273E-02-2.84812E-03 0.00000E+00
 -1         5 4.59094E-02-1.28621E-03 0.00000E+00
 -1         6 4.59094E-02-1.28621E-03 0.00000E+00
 -1         7 0.00000E+00 0.00000E+00 0.00000E+00
 -1         8 0.00000E+00 0.00000E+00 0.00000E+00
 -1         9 4.59162E-02-2.05884E-03 0.00000E+00
 -1        10 4.59162E-02-2.05884E-03 0.00000E+00
 -1        11 0.00000E+00 0.00000E+00 0.00000E+00
 -1        12 0.00000E+00 0.00000E+00 0.00000E+00
 -1        13 1.31663E-03 1.38756E-03 0.00000E+00
 -1        14 3.68392E-03 2.52382E-03 0.00000E+00
 -1        15 7.12337E-03 3.33582E-03 0.00000E+00
 -1        16 1.13871E-02 3.89127E-03 0.00000E+00
 -1        17 1.63226E-02 4.18209E-03 0.00000E+00
 -1        18 2.17053E-02 4.16210E-03 0.00000E+00
 -1        19 2.71855E-02 3.80891E-03 0.00000E+00
 -1        20 3.23702E-02 3.18241E-03 0.00000E+00
 -1        21 3.69709E-02 2.40119E-03 0.00000E+00
 -1        22 4.08749E-02 1.56733E-03 0.00000E+00
 -1        23 4.40314E-02 7.29136E-04 0.00000E+00
 -1        24 4.64010E-02-9.17852E-05 0.00000E+00
 -1        25 4.79515E-02-8.47059E-04 0.00000E+00
 -1        26 4.87749E-02-1.47983E-03 0.00000E+00
 -1        27 4.90229E-02-1.97572E-03 0.00000E+00
 -1        28 4.88384E-02-2.35342E-03 0.00000E+00
 -1        29 4.83190E-02-2.62461E-03 0.00000E+00
 -1        30 4.75743E-02-2.78555E-03 0.00000E+00
 -1        31 4.67389E-02-2.84398E-03 0.00000E+00
 -1        32 1.31663E-03 1.38756E-03 0.00000E+00
 -1        33 3.68392E-03 2.52382E-03 0.00000E+00
 -1        34 7.12337E-03 3.33582E-03 0.00000E+00
 -1        35 1.13871E-02 3.89127E-03 0.00000E+00
 -1        36 1.63226E-02 4.18209E-03 0.00000E+00
 -1        37 2.17053E-02 4.16210E-03 0.00000E+00
 -1        38 2.71855E-02 3.80891E-03 0.00000E+00
 -1        39 3.23702E-02 3.18241E-03 0.00000E+00
 -1        40 3.69709E-02 2.40119E-03 0.00000E+00
 -1        41 4.08749E-02 1.56733E-03 0.00000E+00
 -1        42 4.40314E-02 7.29136E-04 0.00000E+00
 -1        43 4.64010E-02-9.17852E-05 0.00000E+00
 -1        44 4.79515E-02-8.47059E-04 0.00000E+00
 -1        45 4.87749E-02-1.47983E-03 0.00000E+00
 -1        46 4.90229E-02-1.97572E-03 0.00000E+00
 -1        47 4.88384E-02-2.35342E-03 0.00000E+00
 -1        48 4.83190E-02-2.62461E-03 0.00000E+00
 -1        49 4.75743E-02-2.78555E-03 0.00000E+00
 -1        50 4.67389E-02-2.84398E-03 0.00000E+00
 -1        51 4.67197E-02-1.29722E-03 0.00000E+00
 -1        52 4.75565E-02-1.36321E-03 0.00000E+00
 -1        53 4.83002E-02-1.53273E-03 0.00000E+00
 -1        54 4.88205E-02-1.81886E-03 0.00000E+00
 -1        55 4.90058E-02-2.22040E-03 0.00000E+00
 -1        56 4.87459E-02-2.74364E-03 0.00000E+00
 -1        57 4.78950E-02-3.38870E-03 0.00000E+00
 -1        58 4.62947E-02-4.11560E-03 0.00000E+00
 -1        59 4.38521E-02-4.84006E-03 0.00000E+00
 -1        60 4.06048E-02-5.49054E-03 0.00000E+00
 -1        61 3.65976E-02-6.02431E-03 0.00000E+00
 -1        62 3.18937E-02-6.38155E-03 0.00000E+00
 -1        63 2.66440E-02-6.47052E-03 0.00000E+00
 -1        64 2.11585E-02-6.22507E-03 0.00000E+00
 -1        65 1.58317E-02-5.66366E-03 0.00000E+00
 -1        66 1.09998E-02-4.87191E-03 0.00000E+00
 -1        67 6.86145E-03-3.92345E-03 0.00000E+00
 -1        68 3.54154E-03-2.82866E-03 0.00000E+00
 -1        69 1.28304E-03-1.50941E-03 0.00000E+00
 -1        70 4.67197E-02-1.29722E-03 0.00000E+00
 -1        71 4.75565E-02-1.36321E-03 0.00000E+00
 -1        72 4.83002E-02-1.53273E-03 0.00000E+00
 -1        73 4.88205E-02-1.81886E-03 0.00000E+00
 -1        74 4.90058E-02-2.22040E-03 0.00000E+00
 -1        75 4.87459E-02-2.74364E-03 0.00000E+00
 -1        76 4.78950E-02-3.38870E-03 0.00000E+00
 -1        77 4.62947E-02-4.11560E-03 0.00000E+00
 -1        78 4.38521E-02-4.84006E-03 0.00000E+00
 -1        79 4.06048E-02-5.49054E-03 0.00000E+00
 -1        80 3.65976E-02-6.02431E-03 0.00000E+00
 -1        81 3.18937E-02-6.38155E-03 0.00000E+00
 -1        82 2.66440E-02-6.47052E-03 0.00000E+00
 -1        83 2.11585E-02-6.22507E-03 0.00000E+00
 -1        84 1.58317E-02-5.66366E-03 0.00000E+00
 -1        85 1.09998E-02-4.87191E-03 0.00000E+00
 -1        86 6.86145E-03-3.92345E-03 0.00000E+00
 -1        87 3.54154E-03-2.82866E-03 0.00000E+00
 -1        88 1.28304E-03-1.50941E-03 0.00000E+00
 -1        89 9.36887E-04-4.93894E-05 0.00000E+00
 -1        90 3.38855E-03-1.38480E-04 0.00000E+00
 -1        91 6.80460E-03-2.78870E-04 0.00000E+00
 -1        92 1.10503E-02-4.76767E-04 0.00000E+00
 -1        93 1.59841E-02-7.30223E-04 0.00000E+00
 -1        94 2.14019E-02-1.02873E-03 0.00000E+00
 -1        95 2.69569E-02-1.33764E-03 0.00000E+00
 -1        96 3.22307E-02-1.61092E-03 0.00000E+00
 -1        97 3.69173E-02-1.82375E-03 0.00000E+00
 -1        98 4.08878E-02-1.97351E-03 0.00000E+00
 -1        99 4.41018E-02-2.06557E-03 0.00000E+00
 -1       100 4.65088E-02-2.11016E-03 0.00000E+00
 -1       101 4.80692E-02-2.12026E-03 0.00000E+00
 -1       102 4.88777E-02-2.11173E-03 0.00000E+00
 -1       103 4.91068E-02-2.09792E-03 0.00000E+00
 -1       104 4.88976E-02-2.08512E-03 0.00000E+00
 -1       105 4.83539E-02-2.07588E-03 0.00000E+00
 -1       106 4.75843E-02-2.07190E-03 0.00000E+00
 -1       107 4.67326E-02-2.06810E-03 0.00000E+00
 -1       108 4.67326E-02-2.06810E-03 0.00000E+00
 -1       109 4.75843E-02-2.07190E-03 0.00000E+00
 -1       110 4.83539E-02-2.07588E-03 0.00000E+00
 -1       111 4.88976E-02-2.08512E-03 0.00000E+00
 -1       112 4.91068E-02-2.09792E-03 0.00000E+00
 -1       113 4.88777E-02-2.11173E-03 0.00000E+00
 -1       114 4.80692E-02-2.12026E-03 0.00000E+00
 -1       115 4.65088E-02-2.11016E-03 0.00000E+00
 -1       116 4.41018E-02-2.06557E-03 0.00000E+00
 -1       117 4.08878E-02-1.97351E-03 0.00000E+00
 -1       118 3.69173E-02-1.82375E-03 0.00000E+00
 -1       119 3.22307E-02-1.61092E-03 0.00000E+00
 -1       120 2.69569E-02-1.33764E-03 0.00000E+00
 -1       121 2.14019E-02-1.02873E-03 0.00000E+00
 -1       122 1.59841E-02-7.30223E-04 0.00000E+00
 -1       123 1.10503E-02-4.76767E-04 0.00000E+00
 -1       124 6.80460E-03-2.78870E-04 0.00000E+00
 -1       125 3.38855E-03-1.38480E-04 0.00000E+00
 -1       126 9.36887E-04-4.93894E-05 0.00000E+00
 -3
    1PSTEP                       114          29           1          
  100CL  129 2.90000E-01         126                     1   29           1
 -4  STRESS      6    1
 -5  SXX         1    4    1    1
 -5  SYY         1    4    2    2
 -5  SZZ         1    4    3    3
 -5  SXY         1    4    1    2
 -5  SYZ         1    4    2    3
 -5  SZX         1    4    3    1
 -1         1 6.58027E+03 1.55861E+04 6.39479E+03 4.41445E+03-3.28894E-10-3.72641E-10
 -1         2 6.58027E+03 1.55861E+04 6.39479E+03 4.41445E+03-3.28894E-10-3.72641E-10
 -1         3-3.86331E+01 1.78659E+00-1.10691E+01-6.90035E+01-8.50977E-08-1.93249E-08
 -1         4-3.86331E+01 1.78659E+00-1.10691E+01-6.90035E+01-8.50977E-08-1.93208E-08
 -1         5 7.56128E+01 1.81833E+02 7.71450E+01-1.16716E+02 6.59165E-08 1.15500E-08
 -1         6 7.56128E+01 1.81833E+02 7.71450E+01-1.16716E+02 6.59165E-08 1.15600E-08
 -1         7-6.82998E+03-1.55246E+04-6.99569E+03 3.57664E+03-4.04934E-10 5.41641E-10
 -1         8-6.82998E+03-1.55246E+04-6.99569E+03 3.57664E+03-4.04930E-10 5.41641E-10
 -1         9 4.63318E+01 1.54973E+02 6.03176E+01-1.09819E+02-4.21659E-09-1.54777E-08
 -1        10 4.63318E+01 1.54973E+02 6.03176E+01-1.09819E+02-4.21658E-09-1.54864E-08
 -1        11-1.11871E+02-6.09976E+02-1.87451E+02 2.87198E+03-2.88324E-10 7.53570E-11
 -1        12-1.11871E+02-6.09976E+02-1.87451E+02 2.87198E+03-2.88331E-10 7.53571E-11
 -1        13 2.24702E+03 1.26981E+04 4.33554E+03 1.46095E+03-3.82304E-08-6.80778E-08
 -1        14 2.58037E+03 1.05926E+04 3.84578E+03 9.90869E+02-3.57712E-08-1.88034E-07
 -1        15 1.94465E+03 8.16536E+03 2.96806E+03 9.82130E+02 1.23592E-08-2.28784E-07
 -1        16 1.50333E+03 6.13509E+03 2.25232E+03 9.36895E+02 5.71176E-08-1.56985E-07
 -1        17 9.75065E+02 3.76679E+03 1.40428E+03 9.12401E+02 6.67816E-08-8.32657E-08
 -1        18 3.04838E+02 8.72663E+02 3.47788E+02 7.76921E+02 3.11515E-08-2.05618E-08
 -1        19-4.21312E+02-2.12110E+03-7.70757E+02 4.83212E+02-1.89959E-08-1.29020E-08
 -1        20-1.08751E+03-4.54477E+03-1.71244E+03 1.35750E+02-3.10582E-08-6.69034E-08
 -1        21-1.51012E+03-6.04390E+03-2.30376E+03-1.09908E+02-8.75445E-09-8.52848E-08
 -1        22-1.77937E+03-6.85268E+03-2.63709E+03-2.12365E+02 1.25923E-08-3.71871E-08
 -1        23-1.86877E+03-7.23955E+03-2.78543E+03-2.45100E+02 2.04368E-08-3.95500E-08
 -1        24-1.85524E+03-7.20410E+03-2.77080E+03-2.82347E+02 1.00766E-08-2.79412E-08
 -1        25-1.69498E+03-6.55457E+03-2.51866E+03-3.20569E+02 5.52149E-10-2.16277E-08
 -1        26-1.43992E+03-5.45444E+03-2.09838E+03-3.14806E+02 1.26717E-08-4.46238E-08
 -1        27-1.10724E+03-4.25948E+03-1.62822E+03-2.76930E+02 3.44174E-08-6.92856E-09
 -1        28-8.40256E+02-3.17616E+03-1.21519E+03-2.47313E+02 4.24421E-08 5.86971E-08
 -1        29-5.63282E+02-2.10077E+03-8.03985E+02-2.45593E+02 2.64809E-08 1.07577E-07
 -1        30-3.07183E+02-1.04725E+03-4.07772E+02-2.28651E+02-1.43163E-08 1.32581E-07
 -1        31-1.11857E+02-2.69651E+02-1.14655E+02-1.44855E+02-6.18523E-08 7.56202E-08
 -1        32 2.24702E+03 1.26981E+04 4.33554E+03 1.46095E+03-3.82304E-08-6.80778E-08
 -1        33 2.58037E+03 1.05926E+04 3.84578E+03 9.90869E+02-3.57712E-08-1.88034E-07
 -1        34 1.94465E+03 8.16536E+03 2.96806E+03 9.82130E+02 1.23592E-08-2.28784E-07
 -1        35 1.50333E+03 6.13509E+03 2.25232E+03 9.36895E+02 5.71176E-08-1.56985E-07
 -1        36 9.75065E+02 3.76679E+03 1.40428E+03 9.12401E+02 6.67817E-08-8.32665E-08
 -1        37 3.04838E+02 8.72663E+02 3.47788E+02 7.76921E+02 3.11519E-08-2.05605E-08
 -1        38-4.21312E+02-2.12110E+03-7.70757E+02 4.83212E+02-1.89960E-08-1.29019E-08
 -1        39-1.08751E+03-4.54477E+03-1.71244E+03 1.35750E+02-3.10582E-08-6.69034E-08
 -1        40-1.51012E+03-6.04390E+03-2.30376E+03-1.09908E+02-8.75442E-09-8.52843E-08
 -1        41-1.77937E+03-6.85268E+03-2.63709E+03-2.12365E+02 1.25923E-08-3.71881E-08
 -1        42-1.86877E+03-7.23955E+03-2.78543E+03-2.45100E+02 2.04368E-08-3.95500E-08
 -1        43-1.85524E+03-7.20410E+03-2.77080E+03-2.82347E+02 1.00766E-08-2.79414E-08
 -1        44-1.69498E+03-6.55457E+03-2.51866E+03-3.20569E+02 5.52151E-10-2.16270E-08
 -1        45-1.43992E+03-5.45444E+03-2.09838E+03-3.14806E+02 1.26717E-08-4.46229E-08
 -1        46-1.10724E+03-4.25948E+03-1.62822E+03-2.76930E+02 3.44174E-08-6.92856E-09
 -1        47-8.40256E+02-3.17616E+03-1.21519E+03-2.47313E+02 4.24421E-08 5.86971E-08
 -1        48-5.63282E+02-2.10077E+03-8.03985E+02-2.45593E+02 2.64809E-08 1.07581E-07
 -1        49-3.07183E+02-1.04725E+03-4.07772E+02-2.28651E+02-1.43165E-08 1.32580E-07
 -1        50-1.11857E+02-2.69651E+02-1.14655E+02-1.44855E+02-6.18519E-08 7.56198E-08
 -1        51 1.39168E+02 4.51218E+02 1.76732E+02-1.64992E+02 5.35273E-08 8.33223E-08
 -1        52 3.34391E+02 1.22784E+03 4.66720E+02-2.58916E+02 1.30942E-08 1.13859E-07
 -1        53 5.30838E+02 2.27263E+03 8.35363E+02-2.85624E+02-3.02513E-08 1.02239E-07
 -1        54 7.76596E+02 3.39686E+03 1.24024E+03-2.77260E+02-5.54655E-08 4.99911E-08
 -1        55 1.05341E+03 4.57999E+03 1.66930E+03-2.63003E+02-4.61360E-08-5.63712E-09
 -1        56 1.33815E+03 5.84353E+03 2.12125E+03-2.12468E+02-2.06818E-08-3.82530E-08
 -1        57 1.54245E+03 6.97276E+03 2.50745E+03-6.62624E+01-5.91140E-09-2.57432E-08
 -1        58 1.69125E+03 7.62077E+03 2.73747E+03 1.69740E+02-1.09122E-08-1.58041E-08
 -1        59 1.72969E+03 7.61891E+03 2.74881E+03 3.87312E+02-1.83419E-08-4.02965E-08
 -1        60 1.69021E+03 7.14999E+03 2.60239E+03 5.42549E+02-1.82152E-08-6.85816E-08
 -1        61 1.48848E+03 6.20193E+03 2.26811E+03 6.89394E+02-7.71333E-09-6.38109E-08
 -1        62 1.13379E+03 4.49871E+03 1.66637E+03 8.09578E+02 1.43303E-08-5.48093E-08
 -1        63 6.00916E+02 1.90250E+03 7.42777E+02 7.98342E+02 5.92703E-09 3.57612E-09
 -1        64-7.40590E+01-1.17852E+03-3.81461E+02 5.89202E+02-3.13016E-08-7.87539E-09
 -1        65-8.39459E+02-4.08645E+03-1.49770E+03 2.83631E+02-5.24421E-08-1.04466E-07
 -1        66-1.47673E+03-6.42604E+03-2.41468E+03 5.16718E+01-3.89002E-08-1.96451E-07
 -1        67-1.96692E+03-8.41049E+03-3.18674E+03 1.45790E+01 1.13466E-08-2.16105E-07
 -1        68-2.72390E+03-1.07612E+04-4.16704E+03 7.20538E+01 6.54721E-08-1.66417E-07
 -1        69-2.32282E+03-1.26944E+04-4.67452E+03 7.52665E+02 6.17380E-08-6.90338E-08
 -1        70 1.39168E+02 4.51218E+02 1.76732E+02-1.64992E+02 5.35274E-08 8.33142E-08
 -1        71 3.34391E+02 1.22784E+03 4.66720E+02-2.58916E+02 1.30943E-08 1.13859E-07
 -1        72 5.30838E+02 2.27263E+03 8.35363E+02-2.85624E+02-3.02514E-08 1.02240E-07
 -1        73 7.76596E+02 3.39686E+03 1.24024E+03-2.77260E+02-5.54654E-08 4.99843E-08
 -1        74 1.05341E+03 4.57999E+03 1.66930E+03-2.63003E+02-4.61360E-08-5.63568E-09
 -1        75 1.33815E+03 5.84353E+03 2.12125E+03-2.12468E+02-2.06818E-08-3.82529E-08
 -1        76 1.54245E+03 6.97276E+03 2.50745E+03-6.62624E+01-5.91143E-09-2.57465E-08
 -1        77 1.69125E+03 7.62077E+03 2.73747E+03 1.69740E+02-1.09124E-08-1.58075E-08
 -1        78 1.72969E+03 7.61891E+03 2.74881E+03 3.87312E+02-1.83413E-08-4.02955E-08
 -1        79 1.69021E+03 7.14999E+03 2.60239E+03 5.42549E+02-1.82156E-08-6.85851E-08
 -1        80 1.48848E+03 6.20193E+03 2.26811E+03 6.89394E+02-7.71364E-09-6.38102E-08
 -1        81 1.13379E+03 4.49871E+03 1.66637E+03 8.09578E+02 1.43302E-08-5.48093E-08
 -1        82 6.00916E+02 1.90250E+03 7.42777E+02 7.98342E+02 5.92714E-09 3.57578E-09
 -1        83-7.40590E+01-1.17852E+03-3.81461E+02 5.89202E+02-3.13022E-08-7.87561E-09
 -1        84-8.39459E+02-4.08645E+03-1.49770E+03 2.83631E+02-5.24408E-08-1.04466E-07
 -1        85-1.47673E+03-6.42604E+03-2.41468E+03 5.16718E+01-3.88996E-08-1.96451E-07
 -1        86-1.96692E+03-8.41049E+03-3.18674E+03 1.45790E+01 1.13466E-08-2.16105E-07
 -1        87-2.72390E+03-1.07612E+04-4.16704E+03 7.20538E+01 6.54721E-08-1.66416E-07
 -1        88-2.32282E+03-1.26944E+04-4.67452E+03 7.52665E+02 6.17380E-08-6.90338E-08
 -1        89 2.42983E+01-5.52850E+02-1.47196E+02 7.44215E+02 1.71429E-08-5.91026E-08
 -1        90 8.58906E+00-4.65876E+02-1.21075E+02 7.76342E+02 1.84823E-08-1.80861E-07
 -1        91 3.56897E+01-3.66680E+02-9.12955E+01 6.02677E+02 5.60775E-09-2.34221E-07
 -1        92 5.84447E+01-2.97642E+02-6.84475E+01 6.24616E+02 6.94808E-09-1.87936E-07
 -1        93 1.10954E+02-2.52583E+02-4.29993E+01 7.62389E+02 1.36853E-08-8.79774E-08
 -1        94 1.58358E+02-2.22410E+02-2.15147E+01 8.85307E+02 2.44855E-09-3.84909E-09
 -1        95 1.36142E+02-1.72785E+02-1.28259E+01 8.33078E+02-1.01621E-08-1.38728E-09
 -1        96 6.55287E+01-1.07825E+02-1.22657E+01 6.03025E+02-8.92240E-09-6.03113E-08
 -1        97 1.92072E+01-5.12549E+01-6.12757E+00 3.52613E+02-1.20671E-08-7.96883E-08
 -1        98-1.93599E+01-1.34598E+01-3.93727E+00 1.93586E+02-5.41652E-09-5.74109E-08
 -1        99-4.12405E+01 2.02370E+01 2.93793E-01 7.98077E+01 6.02715E-09-3.82856E-08
 -1       100-5.48979E+01 4.90793E+01 4.13045E+00-8.60316E+01-6.83664E-10-1.87441E-08
 -1       101-5.62693E+01 7.51385E+01 1.06672E+01-2.64871E+02-4.14679E-09-2.39176E-08
 -1       102-4.08754E+01 9.07768E+01 1.88675E+01-3.47711E+02-4.05736E-09-4.45768E-08
 -1       103-2.00421E+01 9.43077E+01 2.46321E+01-3.45983E+02-7.17612E-09-9.78882E-09
 -1       104-2.10532E+01 8.58371E+01 2.05395E+01-3.36225E+02-6.89144E-09 5.57774E-08
 -1       105-7.88622E+00 7.74466E+01 2.11484E+01-3.41216E+02-4.93253E-09 1.15660E-07
 -1       106 1.70903E+01 8.51564E+01 3.06333E+01-3.06869E+02 2.28609E-09 1.31863E-07
 -1       107 2.91940E+01 1.22524E+02 4.54056E+01-1.87483E+02 4.51868E-09 8.82042E-08
 -1       108 2.91940E+01 1.22524E+02 4.54056E+01-1.87483E+02 4.51863E-09 8.82094E-08
 -1       109 1.70903E+01 8.51564E+01 3.06333E+01-3.06869E+02 2.28611E-09 1.31862E-07
 -1       110-7.88622E+00 7.74466E+01 2.11484E+01-3.41216E+02-4.93250E-09 1.15657E-07
 -1       111-2.10532E+01 8.58371E+01 2.05395E+01-3.36225E+02-6.89145E-09 5.57786E-08
 -1       112-2.00421E+01 9.43077E+01 2.46321E+01-3.45983E+02-7.17616E-09-9.78981E-09
 -1       113-4.08754E+01 9.07768E+01 1.88675E+01-3.47711E+02-4.05736E-09-4.45773E-08
 -1       114-5.62693E+01 7.51385E+01 1.06672E+01-2.64871E+02-4.14676E-09-2.39188E-08
 -1       115-5.48979E+01 4.90793E+01 4.13045E+00-8.60316E+01-6.83634E-10-1.87431E-08
 -1       116-4.12405E+01 2.02370E+01 2.93793E-01 7.98077E+01 6.02700E-09-3.82859E-08
 -1       117-1.93599E+01-1.34598E+01-3.93727E+00 1.93586E+02-5.41644E-09-5.74086E-08
 -1       118 1.92072E+01-5.12549E+01-6.12757E+00 3.52613E+02-1.20671E-08-7.96889E-08
 -1       119 6.55287E+01-1.07825E+02-1.22657E+01 6.03025E+02-8.92239E-09-6.03114E-08
 -1       120 1.36142E+02-1.72785E+02-1.28259E+01 8.33078E+02-1.01621E-08-1.38688E-09
 -1       121 1.58358E+02-2.22410E+02-2.15147E+01 8.85307E+02 2.44863E-09-3.84826E-09
 -1       122 1.10954E+02-2.52583E+02-4.29993E+01 7.62389E+02 1.36851E-08-8.79757E-08
 -1       123 5.84447E+01-2.97642E+02-6.84475E+01 6.24616E+02 6.94800E-09-1.87936E-07
 -1       124 3.56897E+01-3.66680E+02-9.12955E+01 6.02677E+02 5.60774E-09-2.34221E-07
 -1       125 8.58906E+00-4.65876E+02-1.21075E+02 7.76342E+02 1.84823E-08-1.80861E-07
 -1       126 2.42983E+01-5.52850E+02-1.47196E+02 7.44215E+02 1.71429E-08-5.91026E-08
 -3
    1PSTEP                       115          29           1          
  100CL  129 2.90000E-01         126                     1   29           1
 -4  TOSTRAIN    6    1
 -5  EXX         1    4    1    1
 -5  EYY         1    4    2    2
 -5  EZZ         1    4    3    3
 -5  EXY         1    4    1    2
 -5  EYZ         1    4    2    3
 -5  EZX         1    4    3    1
 -1         1-7.35102E-05 2.84086E-02-1.90217E-26 1.31660E-02 3.14934E-19-8.30779E-16
 -1         2-7.35102E-05 2.84086E-02-1.90217E-26 1.31660E-02 3.14934E-19-8.30779E-16
 -1         3-9.68440E-05 4.88669E-05 1.04340E-25-2.22085E-04-2.75530E-13-6.72915E-14
 -1         4-9.68440E-05 4.88669E-05 1.04342E-25-2.22085E-04-2.75531E-13-6.72782E-14
 -1         5-1.71661E-05 3.51570E-04 5.68076E-26-3.73360E-04 2.13513E-13 4.09945E-14
 -1         6-1.71661E-05 3.51570E-04 5.68231E-26-3.73360E-04 2.13513E-13 4.10270E-14
 -1         7-7.51707E-05-2.94776E-02-3.08376E-26 1.28302E-02-1.94466E-18 1.31157E-15
 -1         8-7.51707E-05-2.94776E-02-3.08376E-26 1.28302E-02-1.93217E-18 1.31157E-15
 -1         9-5.70051E-05 3.18443E-04-5.36649E-26-3.50855E-04-1.29095E-14-5.05164E-14
 -1        10-5.70051E-05 3.18443E-04-5.36697E-26-3.50855E-04-1.29090E-14-5.05448E-14
 -1        11-7.43405E-05-8.86061E-04-1.18151E-26 9.36867E-03-7.39739E-19 2.64127E-16
 -1        12-7.43405E-05-8.86061E-04-1.18151E-26 9.36867E-03-7.63044E-19 2.64127E-16
 -1        13-7.21472E-03 2.62311E-02 7.92603E-26 3.54745E-03-1.26087E-13-2.16046E-13
 -1        14-4.51250E-03 2.13803E-02 7.27954E-25 1.72041E-03-1.44562E-13-6.00951E-13
 -1        15-3.76642E-03 1.67472E-02 1.09383E-24 1.62910E-03-1.35809E-14-7.42150E-13
 -1        16-2.91096E-03 1.27412E-02 5.57537E-25 1.63607E-03 1.37855E-13-5.23669E-13
 -1        17-1.92720E-03 8.04377E-03 2.12170E-25 1.98565E-03 1.87315E-13-2.91020E-13
 -1        18-6.63150E-04 2.17991E-03 1.26405E-26 2.27054E-03 9.34193E-14-7.73876E-14
 -1        19 7.31948E-04-4.05620E-03 1.02317E-27 2.11872E-03-6.61812E-14-3.51075E-14
 -1        20 1.80332E-03-9.17967E-03 1.06922E-25 1.53201E-03-1.22867E-13-2.06774E-13
 -1        21 2.48393E-03-1.23925E-02 1.49039E-25 9.11270E-04-5.25447E-14-2.74300E-13
 -1        22 2.74665E-03-1.40772E-02 2.54164E-26 4.94932E-04 3.28841E-14-1.23877E-13
 -1        23 2.95192E-03-1.49148E-02 4.11384E-26 1.85663E-04 6.02948E-14-1.32421E-13
 -1        24 2.95387E-03-1.48546E-02 1.74124E-26-2.22648E-04 2.96427E-14-9.22536E-14
 -1        25 2.66507E-03-1.34910E-02 8.44621E-27-6.57799E-04-1.03447E-16-7.04927E-14
 -1        26 2.12810E-03-1.11589E-02 4.00976E-26-8.79962E-04 3.98421E-14-1.45788E-13
 -1        27 1.67602E-03-8.69417E-03 9.75207E-27-8.93444E-04 1.13130E-13-2.26438E-14
 -1        28 1.19602E-03-6.44066E-03 9.12309E-26-8.57639E-04 1.38120E-13 1.91989E-13
 -1        29 7.56476E-04-4.23055E-03 2.48322E-25-8.61269E-04 8.27087E-14 3.51031E-13
 -1        30 3.02160E-04-2.06603E-03 3.62256E-25-7.81355E-04-5.27878E-14 4.30343E-13
 -1        31-6.59024E-06-4.89856E-04 1.59671E-25-4.79688E-04-2.04944E-13 2.42488E-13
 -1        32-7.21472E-03 2.62311E-02 7.92603E-26 3.54745E-03-1.26087E-13-2.16046E-13
 -1        33-4.51250E-03 2.13803E-02 7.27954E-25 1.72041E-03-1.44562E-13-6.00951E-13
 -1        34-3.76642E-03 1.67472E-02 1.09384E-24 1.62910E-03-1.35809E-14-7.42150E-13
 -1        35-2.91096E-03 1.27412E-02 5.57537E-25 1.63607E-03 1.37855E-13-5.23670E-13
 -1        36-1.92720E-03 8.04377E-03 2.12173E-25 1.98565E-03 1.87314E-13-2.91023E-13
 -1        37-6.63150E-04 2.17991E-03 1.26395E-26 2.27054E-03 9.34212E-14-7.73836E-14
 -1        38 7.31948E-04-4.05620E-03 1.02314E-27 2.11872E-03-6.61816E-14-3.51072E-14
 -1        39 1.80332E-03-9.17967E-03 1.06922E-25 1.53201E-03-1.22867E-13-2.06774E-13
 -1        40 2.48393E-03-1.23925E-02 1.49037E-25 9.11270E-04-5.25445E-14-2.74298E-13
 -1        41 2.74665E-03-1.40772E-02 2.54189E-26 4.94932E-04 3.28838E-14-1.23880E-13
 -1        42 2.95192E-03-1.49148E-02 4.11384E-26 1.85663E-04 6.02947E-14-1.32421E-13
 -1        43 2.95387E-03-1.48546E-02 1.74126E-26-2.22648E-04 2.96427E-14-9.22545E-14
 -1        44 2.66507E-03-1.34910E-02 8.44571E-27-6.57799E-04-1.03365E-16-7.04905E-14
 -1        45 2.12810E-03-1.11589E-02 4.00961E-26-8.79962E-04 3.98421E-14-1.45785E-13
 -1        46 1.67602E-03-8.69417E-03 9.75207E-27-8.93444E-04 1.13130E-13-2.26438E-14
 -1        47 1.19602E-03-6.44066E-03 9.12309E-26-8.57639E-04 1.38120E-13 1.91989E-13
 -1        48 7.56476E-04-4.23055E-03 2.48339E-25-8.61269E-04 8.27085E-14 3.51042E-13
 -1        49 3.02160E-04-2.06603E-03 3.62251E-25-7.81355E-04-5.27883E-14 4.30340E-13
 -1        50-6.59024E-06-4.89856E-04 1.59669E-25-4.79688E-04-2.04943E-13 2.42487E-13
 -1        51-1.39471E-04 9.06067E-04 1.85907E-25-5.18430E-04 1.69565E-13 2.73554E-13
 -1        52-4.56603E-04 2.48311E-03 2.68977E-25-7.94639E-04 3.71989E-14 3.70448E-13
 -1        53-1.01726E-03 4.64804E-03 2.27763E-25-8.56969E-04-1.01272E-13 3.30730E-13
 -1        54-1.53072E-03 6.92759E-03 9.60849E-26-8.41827E-04-1.79479E-13 1.61006E-13
 -1        55-2.02081E-03 9.29440E-03 3.03934E-26-8.64134E-04-1.48167E-13-1.81587E-14
 -1        56-2.56394E-03 1.18197E-02 3.52395E-26-8.53109E-04-6.77883E-14-1.23280E-13
 -1        57-3.17390E-03 1.41264E-02 1.39661E-26-6.44659E-04-2.10296E-14-8.29751E-14
 -1        58-3.48775E-03 1.54523E-02 5.97580E-27-2.17819E-04-3.67893E-14-4.97584E-14
 -1        59-3.46116E-03 1.54758E-02 3.64482E-26 1.80750E-04-6.55114E-14-1.27061E-13
 -1        60-3.18617E-03 1.45562E-02 1.03486E-25 4.80329E-04-7.33773E-14-2.17529E-13
 -1        61-2.85676E-03 1.27563E-02 8.53563E-26 8.97226E-04-4.17050E-14-2.03936E-13
 -1        62-2.17430E-03 9.43650E-03 5.90453E-26 1.51345E-03 2.89884E-14-1.81541E-13
 -1        63-9.70744E-04 4.20454E-03-8.04621E-27 2.09116E-03 2.01745E-14 9.50565E-15
 -1        64 5.43799E-04-2.18596E-03-6.80109E-28 2.25411E-03-1.04244E-13-1.44517E-14
 -1        65 1.81866E-03-8.27124E-03 2.40720E-25 1.97213E-03-2.05387E-13-3.20711E-13
 -1        66 2.83827E-03-1.32164E-02 8.19016E-25 1.61916E-03-1.85195E-13-6.25666E-13
 -1        67 3.76917E-03-1.74324E-02 9.70559E-25 1.63244E-03-1.44666E-14-7.05093E-13
 -1        68 4.47061E-03-2.22749E-02 6.48950E-25 1.72489E-03 1.89682E-13-5.54250E-13
 -1        69 7.30981E-03-2.72727E-02 1.53173E-25 3.64297E-03 2.02141E-13-2.31948E-13
 -1        70-1.39471E-04 9.06067E-04 1.85884E-25-5.18430E-04 1.69566E-13 2.73528E-13
 -1        71-4.56603E-04 2.48311E-03 2.68979E-25-7.94639E-04 3.71993E-14 3.70449E-13
 -1        72-1.01726E-03 4.64804E-03 2.27770E-25-8.56969E-04-1.01273E-13 3.30735E-13
 -1        73-1.53072E-03 6.92759E-03 9.60730E-26-8.41827E-04-1.79479E-13 1.60983E-13
 -1        74-2.02081E-03 9.29440E-03 3.03962E-26-8.64134E-04-1.48167E-13-1.81540E-14
 -1        75-2.56394E-03 1.18197E-02 3.52392E-26-8.53109E-04-6.77883E-14-1.23280E-13
 -1        76-3.17390E-03 1.41264E-02 1.39694E-26-6.44659E-04-2.10300E-14-8.29858E-14
 -1        77-3.48775E-03 1.54523E-02 5.97876E-27-2.17819E-04-3.67904E-14-4.97694E-14
 -1        78-3.46116E-03 1.54758E-02 3.64470E-26 1.80750E-04-6.55093E-14-1.27058E-13
 -1        79-3.18617E-03 1.45562E-02 1.03496E-25 4.80329E-04-7.33793E-14-2.17540E-13
 -1        80-2.85676E-03 1.27563E-02 8.53546E-26 8.97226E-04-4.17059E-14-2.03933E-13
 -1        81-2.17430E-03 9.43650E-03 5.90451E-26 1.51345E-03 2.89883E-14-1.81541E-13
 -1        82-9.70744E-04 4.20454E-03-8.04619E-27 2.09116E-03 2.01747E-14 9.50452E-15
 -1        83 5.43799E-04-2.18596E-03-6.79475E-28 2.25411E-03-1.04246E-13-1.44523E-14
 -1        84 1.81866E-03-8.27124E-03 2.40720E-25 1.97213E-03-2.05383E-13-3.20712E-13
 -1        85 2.83827E-03-1.32164E-02 8.19010E-25 1.61916E-03-1.85193E-13-6.25664E-13
 -1        86 3.76917E-03-1.74324E-02 9.70560E-25 1.63244E-03-1.44667E-14-7.05093E-13
 -1        87 4.47061E-03-2.22749E-02 6.48950E-25 1.72489E-03 1.89682E-13-5.54250E-13
 -1        88 7.30981E-03-2.72727E-02 1.53173E-25 3.64297E-03 2.02141E-13-2.31948E-13
 -1        89 4.75430E-05-7.57560E-04 3.89852E-26 2.47215E-03 5.03492E-14-1.93843E-13
 -1        90-2.09430E-05-5.64741E-04 6.58915E-25 2.59567E-03 2.87117E-14-5.90471E-13
 -1        91 1.37862E-06-4.32150E-04 1.15076E-24 2.03498E-03-3.70160E-14-7.60515E-13
 -1        92-3.63448E-05-2.80891E-04 7.16467E-25 2.10130E-03-3.09989E-14-6.10321E-13
 -1        93-5.42661E-05-1.41061E-04 1.24680E-25 2.54658E-03 1.60964E-14-2.89019E-13
 -1        94-5.96753E-05-3.60558E-05-1.56265E-26 2.94349E-03 6.54594E-15-1.33119E-14
 -1        95-1.19398E-04 5.98686E-05-4.42410E-27 2.75299E-03-3.33829E-14-8.99740E-16
 -1        96-1.85491E-04 1.20963E-04 6.96893E-26 1.97741E-03-4.76061E-14-1.92173E-13
 -1        97-1.86416E-04 1.40384E-04 1.35234E-25 1.14870E-03-6.08560E-14-2.54623E-13
 -1        98-2.19764E-04 1.77280E-04 6.70286E-26 6.21610E-04-3.07610E-14-1.84927E-13
 -1        99-2.54619E-04 2.27687E-04 2.88676E-26 2.46736E-04 1.25418E-14-1.25353E-13
 -1       100-2.66941E-04 2.56932E-04 6.15760E-27-2.91989E-04-4.73356E-15-6.07660E-14
 -1       101-2.54412E-04 2.77186E-04 1.17147E-26-8.69820E-04-1.55718E-14-7.74117E-14
 -1       102-2.17922E-04 2.82875E-04 3.87065E-26-1.13422E-03-1.51412E-14-1.44742E-13
 -1       103-1.72395E-04 2.68807E-04-1.21028E-26-1.12450E-03-2.34515E-14-3.18114E-14
 -1       104-1.67352E-04 2.50536E-04 4.45164E-26-1.09014E-03-2.33956E-14 1.81114E-13
 -1       105-1.30393E-04 2.19293E-04 2.73640E-25-1.10507E-03-2.01265E-14 3.75679E-13
 -1       106-7.72216E-05 2.09059E-04 3.63511E-25-9.93122E-04 1.35799E-15 4.28618E-13
 -1       107-7.30307E-05 2.69692E-04 1.30979E-25-6.03870E-04 1.02599E-14 2.86861E-13
 -1       108-7.30307E-05 2.69692E-04 1.30995E-25-6.03870E-04 1.02595E-14 2.86878E-13
 -1       109-7.72216E-05 2.09059E-04 3.63505E-25-9.93122E-04 1.35811E-15 4.28614E-13
 -1       110-1.30393E-04 2.19293E-04 2.73625E-25-1.10507E-03-2.01263E-14 3.75669E-13
 -1       111-1.67352E-04 2.50536E-04 4.45188E-26-1.09014E-03-2.33956E-14 1.81118E-13
 -1       112-1.72395E-04 2.68807E-04-1.21029E-26-1.12450E-03-2.34517E-14-3.18146E-14
 -1       113-2.17922E-04 2.82875E-04 3.87073E-26-1.13422E-03-1.51413E-14-1.44743E-13
 -1       114-2.54412E-04 2.77186E-04 1.17157E-26-8.69820E-04-1.55718E-14-7.74154E-14
 -1       115-2.66941E-04 2.56932E-04 6.15672E-27-2.91989E-04-4.73335E-15-6.07629E-14
 -1       116-2.54619E-04 2.27687E-04 2.88679E-26 2.46736E-04 1.25413E-14-1.25353E-13
 -1       117-2.19764E-04 1.77280E-04 6.70226E-26 6.21610E-04-3.07602E-14-1.84919E-13
 -1       118-1.86416E-04 1.40384E-04 1.35236E-25 1.14870E-03-6.08562E-14-2.54625E-13
 -1       119-1.85491E-04 1.20963E-04 6.96896E-26 1.97741E-03-4.76061E-14-1.92174E-13
 -1       120-1.19398E-04 5.98686E-05-4.42404E-27 2.75299E-03-3.33828E-14-8.98430E-16
 -1       121-5.96753E-05-3.60558E-05-1.56260E-26 2.94349E-03 6.54647E-15-1.33092E-14
 -1       122-5.42661E-05-1.41061E-04 1.24674E-25 2.54658E-03 1.60960E-14-2.89014E-13
 -1       123-3.63448E-05-2.80891E-04 7.16465E-25 2.10130E-03-3.09990E-14-6.10320E-13
 -1       124 1.37862E-06-4.32150E-04 1.15076E-24 2.03498E-03-3.70159E-14-7.60514E-13
 -1       125-2.09430E-05-5.64741E-04 6.58916E-25 2.59567E-03 2.87117E-14-5.90471E-13
 -1       126 4.75430E-05-7.57560E-04 3.89852E-26 2.47215E-03 5.03493E-14-1.93843E-13
 -3
    1PSTEP                       116          29           1          
  100CL  129 2.90000E-01         126                     1   29           1
 -4  ERROR       1    1
 -5  STR(%)      1    1    0    0
 -1         1 6.63787E+01
 -1         2 6.63787E+01
 -1         3 3.82694E+01
 -1         4 3.82694E+01
 -1         5 2.62191E+00
 -1         6 2.62191E+00
 -1         7 6.08133E+01
 -1         8 6.08133E+01
 -1         9 3.82694E+01
 -1        10 3.82694E+01
 -1        11 6.63787E+01
 -1        12 6.63787E+01
 -1        13 6.63787E+01
 -1        14 6.52471E+01
 -1        15 6.52471E+01
 -1        16 6.49827E+01
 -1        17 6.25254E+01
 -1        18 4.49757E+01
 -1        19 5.27162E+01
 -1        20 6.20314E+01
 -1        21 6.20314E+01
 -1        22 6.14469E+01
 -1        23 6.07092E+01
 -1        24 6.15298E+01
 -1        25 6.29526E+01
 -1        26 6.38274E+01
 -1        27 6.40425E+01
 -1        28 6.40425E+01
 -1        29 6.32297E+01
 -1        30 5.58172E+01
 -1        31 3.91165E+01
 -1        32 6.63787E+01
 -1        33 6.52471E+01
 -1        34 6.52471E+01
 -1        35 6.49827E+01
 -1        36 6.25254E+01
 -1        37 4.49757E+01
 -1        38 5.27162E+01
 -1        39 6.20314E+01
 -1        40 6.20314E+01
 -1        41 6.14469E+01
 -1        42 6.07092E+01
 -1        43 6.15298E+01
 -1        44 6.29526E+01
 -1        45 6.38274E+01
 -1        46 6.40425E+01
 -1        47 6.40425E+01
 -1        48 6.32297E+01
 -1        49 5.58172E+01
 -1        50 3.91165E+01
 -1        51 3.08033E+01
 -1        52 4.97988E+01
 -1        53 5.75510E+01
 -1        54 5.95704E+01
 -1        55 6.01006E+01
 -1        56 6.02860E+01
 -1        57 6.02860E+01
 -1        58 5.99719E+01
 -1        59 5.97596E+01
 -1        60 6.08473E+01
 -1        61 6.13483E+01
 -1        62 6.13483E+01
 -1        63 5.23410E+01
 -1        64 4.21346E+01
 -1        65 5.85974E+01
 -1        66 5.97850E+01
 -1        67 5.97877E+01
 -1        68 5.97877E+01
 -1        69 6.08133E+01
 -1        70 3.08033E+01
 -1        71 4.97988E+01
 -1        72 5.75510E+01
 -1        73 5.95704E+01
 -1        74 6.01006E+01
 -1        75 6.02860E+01
 -1        76 6.02860E+01
 -1        77 5.99719E+01
 -1        78 5.97596E+01
 -1        79 6.08473E+01
 -1        80 6.13483E+01
 -1        81 6.13483E+01
 -1        82 5.23410E+01
 -1        83 4.21346E+01
 -1        84 5.85974E+01
 -1        85 5.97850E+01
 -1        86 5.97877E+01
 -1        87 5.97877E+01
 -1        88 6.08133E+01
 -1        89 6.63787E+01
 -1        90 6.52471E+01
 -1        91 6.52471E+01
 -1        92 6.49827E+01
 -1        93 6.25254E+01
 -1        94 4.49757E+01
 -1        95 5.27162E+01
 -1        96 6.20314E+01
 -1        97 6.20314E+01
 -1        98 6.14469E+01
 -1        99 6.07092E+01
 -1       100 6.15298E+01
 -1       101 6.29526E+01
 -1       102 6.38274E+01
 -1       103 6.40425E+01
 -1       104 6.40425E+01
 -1       105 6.32297E+01
 -1       106 5.58172E+01
 -1       107 3.91165E+01
 -1       108 3.91165E+01
 -1       109 5.58172E+01
 -1       110 6.32297E+01
 -1       111 6.40425E+01
 -1       112 6.40425E+01
 -1       113 6.38274E+01
 -1       114 6.29526E+01
 -1       115 6.15298E+01
 -1       116 6.07092E+01
 -1       117 6.14469E+01
 -1       118 6.20314E+01
 -1       119 6.20314E+01
 -1       120 5.27162E+01
 -1       121 4.49757E+01
 -1       122 6.25254E+01
 -1       123 6.49827E+01
 -1       124 6.52471E+01
 -1       125 6.52471E+01
 -1       126 6.63787E+01
 -3
    1PSTEP                       117          30           1          
  100CL  130 3.00000E-01         126                     1   30           1
 -4  DISP        4    1
 -5  D1          1    2    1    0
 -5  D2          1    2    2    0
 -5  D3          1    2    3    0
 -5  ALL         1    2    0    0    1ALL
 -1         1 0.00000E+00 0.00000E+00 0.00000E+00
 -1         2 0.00000E+00 0.00000E+00 0.00000E+00
 -1         3 4.98005E-02-2.75204E-03 0.00000E+00
 -1         4 4.98005E-02-2.75204E-03 0.00000E+00
 -1         5 4.97962E-02-1.82307E-03 0.00000E+00
 -1         6 4.97962E-02-1.82307E-03 0.00000E+00
 -1         7 0.00000E+00 0.00000E+00 0.00000E+00
 -1         8 0.00000E+00 0.00000E+00 0.00000E+00
 -1         9 4.97982E-02-2.27903E-03 0.00000E+00
 -1        10 4.97982E-02-2.27903E-03 0.00000E+00
 -1        11 0.00000E+00 0.00000E+00 0.00000E+00
 -1        12 0.00000E+00 0.00000E+00 0.00000E+00
 -1        13 1.17349E-03 1.36983E-03 0.00000E+00
 -1        14 3.50132E-03 2.58517E-03 0.00000E+00
 -1        15 7.08862E-03 3.51116E-03 0.00000E+00
 -1        16 1.16832E-02 4.13240E-03 0.00000E+00
 -1        17 1.70289E-02 4.38542E-03 0.00000E+00
 -1        18 2.27365E-02 4.24833E-03 0.00000E+00
 -1        19 2.83691E-02 3.78275E-03 0.00000E+00
 -1        20 3.36122E-02 3.10878E-03 0.00000E+00
 -1        21 3.82955E-02 2.33240E-03 0.00000E+00
 -1        22 4.23258E-02 1.50356E-03 0.00000E+00
 -1        23 4.56067E-02 6.52988E-04 0.00000E+00
 -1        24 4.80777E-02-1.64964E-04 0.00000E+00
 -1        25 4.97721E-02-8.88973E-04 0.00000E+00
 -1        26 5.08072E-02-1.48833E-03 0.00000E+00
 -1        27 5.13174E-02-1.96536E-03 0.00000E+00
 -1        28 5.14025E-02-2.32585E-03 0.00000E+00
 -1        29 5.11693E-02-2.56547E-03 0.00000E+00
 -1        30 5.07629E-02-2.69460E-03 0.00000E+00
 -1        31 5.02849E-02-2.74526E-03 0.00000E+00
 -1        32 1.17349E-03 1.36983E-03 0.00000E+00
 -1        33 3.50132E-03 2.58517E-03 0.00000E+00
 -1        34 7.08862E-03 3.51116E-03 0.00000E+00
 -1        35 1.16832E-02 4.13240E-03 0.00000E+00
 -1        36 1.70289E-02 4.38542E-03 0.00000E+00
 -1        37 2.27365E-02 4.24833E-03 0.00000E+00
 -1        38 2.83691E-02 3.78275E-03 0.00000E+00
 -1        39 3.36122E-02 3.10878E-03 0.00000E+00
 -1        40 3.82955E-02 2.33240E-03 0.00000E+00
 -1        41 4.23258E-02 1.50356E-03 0.00000E+00
 -1        42 4.56067E-02 6.52988E-04 0.00000E+00
 -1        43 4.80777E-02-1.64964E-04 0.00000E+00
 -1        44 4.97721E-02-8.88973E-04 0.00000E+00
 -1        45 5.08072E-02-1.48833E-03 0.00000E+00
 -1        46 5.13174E-02-1.96536E-03 0.00000E+00
 -1        47 5.14025E-02-2.32585E-03 0.00000E+00
 -1        48 5.11693E-02-2.56547E-03 0.00000E+00
 -1        49 5.07629E-02-2.69460E-03 0.00000E+00
 -1        50 5.02849E-02-2.74526E-03 0.00000E+00
 -1        51 5.02765E-02-1.84574E-03 0.00000E+00
 -1        52 5.07540E-02-1.92173E-03 0.00000E+00
 -1        53 5.11613E-02-2.07959E-03 0.00000E+00
 -1        54 5.13937E-02-2.34824E-03 0.00000E+00
 -1        55 5.13069E-02-2.73163E-03 0.00000E+00
 -1        56 5.07890E-02-3.21884E-03 0.00000E+00
 -1        57 4.97233E-02-3.80740E-03 0.00000E+00
 -1        58 4.79760E-02-4.47939E-03 0.00000E+00
 -1        59 4.54282E-02-5.17621E-03 0.00000E+00
 -1        60 4.20468E-02-5.81276E-03 0.00000E+00
 -1        61 3.79073E-02-6.32068E-03 0.00000E+00
 -1        62 3.31263E-02-6.66171E-03 0.00000E+00
 -1        63 2.78076E-02-6.78552E-03 0.00000E+00
 -1        64 2.21454E-02-6.61385E-03 0.00000E+00
 -1        65 1.64840E-02-6.09325E-03 0.00000E+00
 -1        66 1.12520E-02-5.25076E-03 0.00000E+00
 -1        67 6.80536E-03-4.16890E-03 0.00000E+00
 -1        68 3.36394E-03-2.92292E-03 0.00000E+00
 -1        69 1.15459E-03-1.50549E-03 0.00000E+00
 -1        70 5.02765E-02-1.84574E-03 0.00000E+00
 -1        71 5.07540E-02-1.92173E-03 0.00000E+00
 -1        72 5.11613E-02-2.07959E-03 0.00000E+00
 -1        73 5.13937E-02-2.34824E-03 0.00000E+00
 -1        74 5.13069E-02-2.73163E-03 0.00000E+00
 -1        75 5.07890E-02-3.21884E-03 0.00000E+00
 -1        76 4.97233E-02-3.80740E-03 0.00000E+00
 -1        77 4.79760E-02-4.47939E-03 0.00000E+00
 -1        78 4.54282E-02-5.17621E-03 0.00000E+00
 -1        79 4.20468E-02-5.81276E-03 0.00000E+00
 -1        80 3.79073E-02-6.32068E-03 0.00000E+00
 -1        81 3.31263E-02-6.66171E-03 0.00000E+00
 -1        82 2.78076E-02-6.78552E-03 0.00000E+00
 -1        83 2.21454E-02-6.61385E-03 0.00000E+00
 -1        84 1.64840E-02-6.09325E-03 0.00000E+00
 -1        85 1.12520E-02-5.25076E-03 0.00000E+00
 -1        86 6.80536E-03-4.16890E-03 0.00000E+00
 -1        87 3.36394E-03-2.92292E-03 0.00000E+00
 -1        88 1.15459E-03-1.50549E-03 0.00000E+00
 -1        89 7.94936E-04-5.53591E-05 0.00000E+00
 -1        90 3.18174E-03-1.53474E-04 0.00000E+00
 -1        91 6.73127E-03-3.10914E-04 0.00000E+00
 -1        92 1.13116E-02-5.43569E-04 0.00000E+00
 -1        93 1.66719E-02-8.45210E-04 0.00000E+00
 -1        94 2.24319E-02-1.18246E-03 0.00000E+00
 -1        95 2.81455E-02-1.50905E-03 0.00000E+00
 -1        96 3.34695E-02-1.78868E-03 0.00000E+00
 -1        97 3.82293E-02-2.00647E-03 0.00000E+00
 -1        98 4.23330E-02-2.16517E-03 0.00000E+00
 -1        99 4.56763E-02-2.27048E-03 0.00000E+00
 -1       100 4.81807E-02-2.32780E-03 0.00000E+00
 -1       101 4.98826E-02-2.35052E-03 0.00000E+00
 -1       102 5.09075E-02-2.35484E-03 0.00000E+00
 -1       103 5.13998E-02-2.34855E-03 0.00000E+00
 -1       104 5.14617E-02-2.33543E-03 0.00000E+00
 -1       105 5.12035E-02-2.32118E-03 0.00000E+00
 -1       106 5.07750E-02-2.30725E-03 0.00000E+00
 -1       107 5.02853E-02-2.29331E-03 0.00000E+00
 -1       108 5.02853E-02-2.29331E-03 0.00000E+00
 -1       109 5.07750E-02-2.30725E-03 0.00000E+00
 -1       110 5.12035E-02-2.32118E-03 0.00000E+00
 -1       111 5.14617E-02-2.33543E-03 0.00000E+00
 -1       112 5.13998E-02-2.34855E-03 0.00000E+00
 -1       113 5.09075E-02-2.35484E-03 0.00000E+00
 -1       114 4.98826E-02-2.35052E-03 0.00000E+00
 -1       115 4.81807E-02-2.32780E-03 0.00000E+00
 -1       116 4.56763E-02-2.27048E-03 0.00000E+00
 -1       117 4.23330E-02-2.16517E-03 0.00000E+00
 -1       118 3.82293E-02-2.00647E-03 0.00000E+00
 -1       119 3.34695E-02-1.78868E-03 0.00000E+00
 -1       120 2.81455E-02-1.50905E-03 0.00000E+00
 -1       121 2.24319E-02-1.18246E-03 0.00000E+00
 -1       122 1.66719E-02-8.45210E-04 0.00000E+00
 -1       123 1.13116E-02-5.43569E-04 0.00000E+00
 -1       124 6.73127E-03-3.10914E-04 0.00000E+00
 -1       125 3.18174E-03-1.53474E-04 0.00000E+00
 -1       126 7.94936E-04-5.53591E-05 0.00000E+00
 -3
    1PSTEP                       118          30           1          
  100CL  130 3.00000E-01         126                     1   30           1
 -4  STRESS      6    1
 -5  SXX         1    4    1    1
 -5  SYY         1    4    2    2
 -5  SZZ         1    4    3    3
 -5  SXY         1    4    1    2
 -5  SYZ         1    4    2    3
 -5  SZX         1    4    3    1
 -1         1 6.44026E+03 1.53427E+04 6.29917E+03 3.92538E+03-3.88093E-10-3.82816E-10
 -1         2 6.44026E+03 1.53427E+04 6.29917E+03 3.92538E+03-3.88093E-10-3.82816E-10
 -1         3-2.09312E+01-4.89374E+01-2.09555E+01-3.48087E+01-9.70188E-08-8.69542E-08
 -1         4-2.09312E+01-4.89374E+01-2.09555E+01-3.48087E+01-9.70188E-08-8.69566E-08
 -1         5 1.18481E+02 2.68528E+02 1.16004E+02-7.54355E+01 9.32927E-08-7.09179E-08
 -1         6 1.18481E+02 2.68528E+02 1.16004E+02-7.54355E+01 9.32924E-08-7.09106E-08
 -1         7-6.86450E+03-1.55168E+04-6.99197E+03 3.22371E+03-3.06693E-10 3.47543E-10
 -1         8-6.86450E+03-1.55168E+04-6.99197E+03 3.22371E+03-3.06689E-10 3.47543E-10
 -1         9 7.85687E+01 1.78315E+02 7.70158E+01-7.02093E+01 1.86265E-09-8.62930E-08
 -1        10 7.85687E+01 1.78315E+02 7.70158E+01-7.02093E+01 1.86269E-09-8.62895E-08
 -1        11-1.81082E+02-6.97962E+02-2.26379E+02 2.43611E+03-2.82137E-10-7.83900E-12
 -1        12-1.81082E+02-6.97962E+02-2.26379E+02 2.43611E+03-2.82144E-10-7.83896E-12
 -1        13 2.36793E+03 1.30334E+04 4.46739E+03 1.20627E+03-3.15887E-08-8.20056E-08
 -1        14 2.83228E+03 1.16438E+04 4.21556E+03 9.49411E+02-3.25386E-08-1.09701E-07
 -1        15 2.23172E+03 9.26346E+03 3.36421E+03 1.13103E+03-1.54491E-08-1.63484E-07
 -1        16 1.70872E+03 6.60738E+03 2.44728E+03 1.16353E+03 5.95865E-09-1.73175E-07
 -1        17 9.90488E+02 3.37281E+03 1.29157E+03 1.05438E+03 1.55153E-08-1.33030E-07
 -1        18 1.68215E+02 3.28270E+01 5.54982E+01 7.35134E+02 1.67178E-08-1.02497E-07
 -1        19-5.39109E+02-2.72948E+03-9.90661E+02 3.31430E+02 1.16943E-08-8.33833E-08
 -1        20-1.09916E+03-4.64529E+03-1.74609E+03 2.49918E+01 6.55004E-09-9.18305E-08
 -1        21-1.48198E+03-5.90746E+03-2.25226E+03-1.38855E+02 1.34562E-08-1.00340E-07
 -1        22-1.71567E+03-6.77734E+03-2.59466E+03-2.25471E+02 2.06662E-08-7.54685E-08
 -1        23-1.79340E+03-7.18287E+03-2.74587E+03-2.99863E+02 2.15469E-08-4.06194E-08
 -1        24-1.74733E+03-6.96215E+03-2.66269E+03-3.52677E+02 2.71091E-08-3.03823E-08
 -1        25-1.55282E+03-6.17678E+03-2.35789E+03-3.57883E+02 4.15136E-08-6.03180E-09
 -1        26-1.29810E+03-5.14154E+03-1.95864E+03-3.15663E+02 5.08234E-08 3.29669E-08
 -1        27-1.02488E+03-4.05828E+03-1.54166E+03-2.70283E+02 4.55867E-08 8.29728E-08
 -1        28-7.43766E+02-2.93066E+03-1.11126E+03-2.54453E+02 1.92043E-08 1.44042E-07
 -1        29-4.67903E+02-1.80612E+03-6.85700E+02-2.27040E+02-2.54281E-08 1.46578E-07
 -1        30-2.56782E+02-8.84634E+02-3.43329E+02-1.65610E+02-6.06677E-08 7.57860E-08
 -1        31-9.37791E+01-2.74407E+02-1.10569E+02-8.91030E+01-8.51434E-08 8.58038E-09
 -1        32 2.36793E+03 1.30334E+04 4.46739E+03 1.20627E+03-3.15887E-08-8.20056E-08
 -1        33 2.83228E+03 1.16438E+04 4.21556E+03 9.49411E+02-3.25386E-08-1.09701E-07
 -1        34 2.23172E+03 9.26346E+03 3.36421E+03 1.13103E+03-1.54491E-08-1.63484E-07
 -1        35 1.70872E+03 6.60738E+03 2.44728E+03 1.16353E+03 5.95864E-09-1.73175E-07
 -1        36 9.90488E+02 3.37281E+03 1.29157E+03 1.05438E+03 1.55153E-08-1.33031E-07
 -1        37 1.68215E+02 3.28270E+01 5.54982E+01 7.35134E+02 1.67177E-08-1.02497E-07
 -1        38-5.39109E+02-2.72948E+03-9.90661E+02 3.31430E+02 1.16943E-08-8.33832E-08
 -1        39-1.09916E+03-4.64529E+03-1.74609E+03 2.49918E+01 6.55002E-09-9.18305E-08
 -1        40-1.48198E+03-5.90746E+03-2.25226E+03-1.38855E+02 1.34562E-08-1.00340E-07
 -1        41-1.71567E+03-6.77734E+03-2.59466E+03-2.25471E+02 2.06662E-08-7.54676E-08
 -1        42-1.79340E+03-7.18287E+03-2.74587E+03-2.99863E+02 2.15469E-08-4.06194E-08
 -1        43-1.74733E+03-6.96215E+03-2.66269E+03-3.52677E+02 2.71091E-08-3.03823E-08
 -1        44-1.55282E+03-6.17678E+03-2.35789E+03-3.57883E+02 4.15136E-08-6.03295E-09
 -1        45-1.29810E+03-5.14154E+03-1.95864E+03-3.15663E+02 5.08234E-08 3.29672E-08
 -1        46-1.02488E+03-4.05828E+03-1.54166E+03-2.70283E+02 4.55867E-08 8.29735E-08
 -1        47-7.43766E+02-2.93066E+03-1.11126E+03-2.54453E+02 1.92043E-08 1.44043E-07
 -1        48-4.67903E+02-1.80612E+03-6.85700E+02-2.27040E+02-2.54281E-08 1.46579E-07
 -1        49-2.56782E+02-8.84634E+02-3.43329E+02-1.65610E+02-6.06676E-08 7.57849E-08
 -1        50-9.37791E+01-2.74407E+02-1.10569E+02-8.91030E+01-8.51435E-08 8.58179E-09
 -1        51 1.66463E+02 5.23611E+02 2.06641E+02-9.81800E+01 8.87942E-08 4.50474E-09
 -1        52 3.40613E+02 1.19159E+03 4.58016E+02-1.79467E+02 6.18663E-08 8.41606E-08
 -1        53 5.43739E+02 2.12713E+03 7.96394E+02-2.47186E+02 2.39850E-08 1.35087E-07
 -1        54 7.76478E+02 3.23055E+03 1.19138E+03-2.66894E+02-1.59492E-08 1.31734E-07
 -1        55 1.03083E+03 4.33663E+03 1.59171E+03-2.40431E+02-4.13432E-08 9.69110E-08
 -1        56 1.31593E+03 5.44277E+03 1.99906E+03-1.91810E+02-4.14274E-08 4.02559E-08
 -1        57 1.51733E+03 6.49655E+03 2.36370E+03-8.67678E+01-2.59654E-08-8.67356E-09
 -1        58 1.68322E+03 7.29145E+03 2.64139E+03 1.07989E+02-1.26215E-08-4.27084E-08
 -1        59 1.76147E+03 7.50863E+03 2.72666E+03 3.54048E+02-1.24755E-08-5.15376E-08
 -1        60 1.71210E+03 7.06196E+03 2.58365E+03 5.53618E+02-1.16000E-08-9.14564E-08
 -1        61 1.50653E+03 6.10485E+03 2.24622E+03 6.61646E+02-7.38940E-09-9.71271E-08
 -1        62 1.23239E+03 4.71121E+03 1.75908E+03 7.27598E+02-1.14475E-08-9.32644E-08
 -1        63 7.96302E+02 2.59864E+03 1.00794E+03 7.64025E+02-1.99555E-08-9.91413E-08
 -1        64 1.45838E+02-3.65949E+02-7.10738E+01 6.83672E+02-2.35261E-08-1.14676E-07
 -1        65-6.79452E+02-3.77978E+03-1.35704E+03 4.42337E+02-1.85090E-08-1.33981E-07
 -1        66-1.50341E+03-6.96175E+03-2.59319E+03 1.39355E+02 7.41459E-10-1.46360E-07
 -1        67-2.17173E+03-9.53320E+03-3.60837E+03-3.04808E+01 2.42413E-08-1.48003E-07
 -1        68-2.92766E+03-1.18233E+04-4.57406E+03-8.42833E+01 3.77977E-08-1.23530E-07
 -1        69-2.42461E+03-1.31186E+04-4.84320E+03 5.18952E+02 3.24867E-08-5.51530E-08
 -1        70 1.66463E+02 5.23611E+02 2.06641E+02-9.81800E+01 8.87945E-08 4.50570E-09
 -1        71 3.40613E+02 1.19159E+03 4.58016E+02-1.79467E+02 6.18660E-08 8.41591E-08
 -1        72 5.43739E+02 2.12713E+03 7.96394E+02-2.47186E+02 2.39850E-08 1.35087E-07
 -1        73 7.76478E+02 3.23055E+03 1.19138E+03-2.66894E+02-1.59493E-08 1.31731E-07
 -1        74 1.03083E+03 4.33663E+03 1.59171E+03-2.40431E+02-4.13434E-08 9.69086E-08
 -1        75 1.31593E+03 5.44277E+03 1.99906E+03-1.91810E+02-4.14274E-08 4.02556E-08
 -1        76 1.51733E+03 6.49655E+03 2.36370E+03-8.67678E+01-2.59653E-08-8.67310E-09
 -1        77 1.68322E+03 7.29145E+03 2.64139E+03 1.07989E+02-1.26219E-08-4.27128E-08
 -1        78 1.76147E+03 7.50863E+03 2.72666E+03 3.54048E+02-1.24753E-08-5.15362E-08
 -1        79 1.71210E+03 7.06196E+03 2.58365E+03 5.53618E+02-1.15995E-08-9.14565E-08
 -1        80 1.50653E+03 6.10485E+03 2.24622E+03 6.61646E+02-7.38951E-09-9.71273E-08
 -1        81 1.23239E+03 4.71121E+03 1.75908E+03 7.27598E+02-1.14474E-08-9.32644E-08
 -1        82 7.96302E+02 2.59864E+03 1.00794E+03 7.64025E+02-1.99556E-08-9.91408E-08
 -1        83 1.45838E+02-3.65949E+02-7.10738E+01 6.83672E+02-2.35265E-08-1.14678E-07
 -1        84-6.79452E+02-3.77978E+03-1.35704E+03 4.42337E+02-1.85089E-08-1.33981E-07
 -1        85-1.50341E+03-6.96175E+03-2.59319E+03 1.39355E+02 7.41021E-10-1.46361E-07
 -1        86-2.17173E+03-9.53320E+03-3.60837E+03-3.04808E+01 2.42413E-08-1.48002E-07
 -1        87-2.92766E+03-1.18233E+04-4.57406E+03-8.42833E+01 3.77977E-08-1.23530E-07
 -1        88-2.42461E+03-1.31186E+04-4.84320E+03 5.18952E+02 3.24867E-08-5.51530E-08
 -1        89 3.91536E+01-6.22348E+02-1.62438E+02 4.58409E+02-1.01592E-09-5.88262E-08
 -1        90 3.50841E+01-5.50131E+02-1.36459E+02 6.38385E+02 3.66151E-09-1.17810E-07
 -1        91 9.13267E+01-4.46410E+02-9.78803E+01 6.68523E+02 1.15992E-08-1.60982E-07
 -1        92 1.62568E+02-3.73073E+02-6.05396E+01 8.32782E+02 2.32631E-09-1.60993E-07
 -1        93 2.13816E+02-3.03438E+02-2.83273E+01 9.63737E+02-6.77357E-09-1.34595E-07
 -1        94 2.10122E+02-2.23892E+02-6.70232E+00 9.21907E+02-5.20543E-09-1.09269E-07
 -1        95 1.68664E+02-1.33786E+02 9.17297E+00 7.09424E+02 1.17425E-10-8.64890E-08
 -1        96 9.97153E+01-5.64482E+01 1.43931E+01 4.75441E+02 1.02843E-09-9.34018E-08
 -1        97 4.57393E+01-1.46350E+01 1.33813E+01 3.20560E+02-5.67869E-10-1.00032E-07
 -1        98 2.84738E+01-7.67592E+00 1.18479E+01 1.98381E+02 1.65306E-09-8.05518E-08
 -1        99 9.55296E+00-5.44125E+00 7.09949E+00 2.63053E+01 5.95946E-09-4.92786E-08
 -1       100-1.10493E+01 1.29686E+01 6.17322E+00-1.67259E+02 1.08434E-08-3.19314E-08
 -1       101-5.12706E+00 3.45432E+01 1.35551E+01-2.95095E+02 1.08287E-08-1.65947E-08
 -1       102 1.66035E+01 5.96138E+01 2.63964E+01-3.28312E+02 5.04591E-09 3.72457E-08
 -1       103 1.24905E+01 8.98651E+01 3.27260E+01-3.26266E+02-2.25545E-09 9.24060E-08
 -1       104 2.26162E+01 1.22777E+02 4.45153E+01-3.36621E+02-1.98956E-09 1.48925E-07
 -1       105 3.92049E+01 1.42955E+02 5.49888E+01-3.09416E+02 5.38895E-09 1.44532E-07
 -1       106 4.59068E+01 1.54584E+02 6.02030E+01-2.24289E+02 4.73549E-09 8.87998E-08
 -1       107 5.48938E+01 1.65339E+02 6.60417E+01-1.19620E+02 2.66254E-09 1.37379E-08
 -1       108 5.48938E+01 1.65339E+02 6.60417E+01-1.19620E+02 2.66242E-09 1.37312E-08
 -1       109 4.59068E+01 1.54584E+02 6.02030E+01-2.24289E+02 4.73555E-09 8.88012E-08
 -1       110 3.92049E+01 1.42955E+02 5.49888E+01-3.09416E+02 5.38905E-09 1.44533E-07
 -1       111 2.26162E+01 1.22777E+02 4.45153E+01-3.36621E+02-1.98958E-09 1.48924E-07
 -1       112 1.24905E+01 8.98651E+01 3.27260E+01-3.26266E+02-2.25538E-09 9.24049E-08
 -1       113 1.66035E+01 5.96138E+01 2.63964E+01-3.28312E+02 5.04593E-09 3.72458E-08
 -1       114-5.12706E+00 3.45432E+01 1.35551E+01-2.95095E+02 1.08286E-08-1.65934E-08
 -1       115-1.10493E+01 1.29686E+01 6.17322E+00-1.67259E+02 1.08435E-08-3.19307E-08
 -1       116 9.55296E+00-5.44125E+00 7.09949E+00 2.63053E+01 5.95934E-09-4.92796E-08
 -1       117 2.84738E+01-7.67592E+00 1.18479E+01 1.98381E+02 1.65301E-09-8.05533E-08
 -1       118 4.57393E+01-1.46350E+01 1.33813E+01 3.20560E+02-5.67862E-10-1.00031E-07
 -1       119 9.97153E+01-5.64482E+01 1.43931E+01 4.75441E+02 1.02848E-09-9.34019E-08
 -1       120 1.68664E+02-1.33786E+02 9.17297E+00 7.09424E+02 1.17368E-10-8.64899E-08
 -1       121 2.10122E+02-2.23892E+02-6.70232E+00 9.21907E+02-5.20528E-09-1.09268E-07
 -1       122 2.13816E+02-3.03438E+02-2.83273E+01 9.63737E+02-6.77371E-09-1.34594E-07
 -1       123 1.62568E+02-3.73073E+02-6.05396E+01 8.32782E+02 2.32649E-09-1.60994E-07
 -1       124 9.13267E+01-4.46410E+02-9.78803E+01 6.68523E+02 1.15992E-08-1.60982E-07
 -1       125 3.50841E+01-5.50131E+02-1.36459E+02 6.38385E+02 3.66149E-09-1.17810E-07
 -1       126 3.91536E+01-6.22348E+02-1.62438E+02 4.58409E+02-1.01590E-09-5.88262E-08
 -3
    1PSTEP                       119          30           1          
  100CL  130 3.00000E-01         126                     1   30           1
 -4  TOSTRAIN    6    1
 -5  EXX         1    4    1    1
 -5  EYY         1    4    2    2
 -5  EZZ         1    4    3    3
 -5  EXY         1    4    1    2
 -5  EYZ         1    4    2    3
 -5  EZX         1    4    3    1
 -1         1-7.23588E-05 2.79742E-02-2.58707E-26 1.17347E-02 8.27207E-19-7.83747E-16
 -1         2-7.23588E-05 2.79742E-02-2.58707E-26 1.17347E-02 8.27207E-19-7.83747E-16
 -1         3-2.12022E-06-8.87088E-05 2.91844E-25-1.14017E-04-3.12653E-13-2.85655E-13
 -1         4-2.12022E-06-8.87088E-05 2.91850E-25-1.14017E-04-3.12653E-13-2.85662E-13
 -1         5 3.39934E-06 4.99528E-04 2.39427E-25-2.40243E-04 3.05067E-13-2.27505E-13
 -1         6 3.39934E-06 4.99528E-04 2.39410E-25-2.40243E-04 3.05066E-13-2.27481E-13
 -1         7-7.45342E-05-2.94637E-02-1.42172E-26 1.15458E-02-6.63307E-19 7.66711E-16
 -1         8-7.45342E-05-2.94637E-02-1.42172E-26 1.15458E-02-6.50819E-19 7.66711E-16
 -1         9 6.39560E-07 3.33188E-04 9.00182E-26-2.24866E-04 8.66155E-15-2.80334E-13
 -1        10 6.39561E-07 3.33188E-04 9.00107E-26-2.24866E-04 8.66155E-15-2.80323E-13
 -1        11-7.34465E-05-1.05359E-03-1.14153E-26 7.94923E-03 4.67414E-20-1.71908E-17
 -1        12-7.34465E-05-1.05359E-03-1.14153E-26 7.94923E-03 2.34383E-20-1.71903E-17
 -1        13-7.20100E-03 2.68010E-02 1.41242E-25 2.75364E-03-1.06347E-13-2.61985E-13
 -1        14-4.91946E-03 2.34265E-02 2.61714E-25 1.41367E-03-1.21541E-13-3.48020E-13
 -1        15-4.23137E-03 1.89624E-02 5.59583E-25 1.80460E-03-8.86508E-14-5.23707E-13
 -1        16-3.04786E-03 1.37387E-02 6.30457E-25 2.16350E-03-3.29660E-14-5.60614E-13
 -1        17-1.64850E-03 7.27698E-03 3.73148E-25 2.50524E-03 4.76602E-15-4.34714E-13
 -1        18-1.76522E-04 4.25989E-04 2.24028E-25 2.37459E-03 1.78055E-14-3.37133E-13
 -1        19 1.13549E-03-5.40992E-03 1.48484E-25 1.81981E-03 9.16552E-15-2.73790E-13
 -1        20 1.94072E-03-9.46323E-03 1.78473E-25 1.22632E-03-8.18085E-15-2.99599E-13
 -1        21 2.42921E-03-1.21181E-02 2.14382E-25 8.18285E-04 1.55354E-14-3.29425E-13
 -1        22 2.81897E-03-1.39689E-02 1.24897E-25 4.89944E-04 5.00434E-14-2.50217E-13
 -1        23 3.08300E-03-1.48776E-02 4.16034E-26 5.24042E-05 6.35400E-14-1.36249E-13
 -1        24 2.98003E-03-1.44201E-02 3.32452E-26-4.24778E-04 8.54462E-14-1.02636E-13
 -1        25 2.62500E-03-1.27649E-02 3.12102E-26-7.44258E-04 1.36646E-13-2.34133E-14
 -1        26 2.14798E-03-1.05816E-02 6.54218E-26-8.29818E-04 1.69396E-13 1.04763E-13
 -1        27 1.67170E-03-8.31869E-03 1.70753E-25-8.18570E-04 1.51929E-13 2.69203E-13
 -1        28 1.18192E-03-5.97951E-03 4.34425E-25-8.36665E-04 6.30659E-14 4.68781E-13
 -1        29 6.95394E-04-3.65955E-03 4.50381E-25-7.65789E-04-8.53500E-14 4.76208E-13
 -1        30 2.71196E-04-1.75696E-03 1.64034E-25-5.56622E-04-1.99536E-13 2.44677E-13
 -1        31 4.89528E-05-5.27819E-04 1.02579E-25-2.95412E-04-2.77142E-13 2.52280E-14
 -1        32-7.20100E-03 2.68010E-02 1.41242E-25 2.75364E-03-1.06347E-13-2.61985E-13
 -1        33-4.91946E-03 2.34265E-02 2.61714E-25 1.41367E-03-1.21541E-13-3.48020E-13
 -1        34-4.23137E-03 1.89624E-02 5.59582E-25 1.80460E-03-8.86508E-14-5.23707E-13
 -1        35-3.04786E-03 1.37387E-02 6.30455E-25 2.16350E-03-3.29659E-14-5.60613E-13
 -1        36-1.64850E-03 7.27698E-03 3.73151E-25 2.50524E-03 4.76612E-15-4.34716E-13
 -1        37-1.76522E-04 4.25989E-04 2.24029E-25 2.37459E-03 1.78053E-14-3.37134E-13
 -1        38 1.13549E-03-5.40992E-03 1.48483E-25 1.81981E-03 9.16560E-15-2.73790E-13
 -1        39 1.94072E-03-9.46323E-03 1.78473E-25 1.22632E-03-8.18094E-15-2.99599E-13
 -1        40 2.42921E-03-1.21181E-02 2.14383E-25 8.18285E-04 1.55354E-14-3.29425E-13
 -1        41 2.81897E-03-1.39689E-02 1.24894E-25 4.89944E-04 5.00437E-14-2.50214E-13
 -1        42 3.08300E-03-1.48776E-02 4.16034E-26 5.24042E-05 6.35400E-14-1.36249E-13
 -1        43 2.98003E-03-1.44201E-02 3.32452E-26-4.24778E-04 8.54462E-14-1.02636E-13
 -1        44 2.62500E-03-1.27649E-02 3.12104E-26-7.44258E-04 1.36646E-13-2.34170E-14
 -1        45 2.14798E-03-1.05816E-02 6.54217E-26-8.29818E-04 1.69396E-13 1.04764E-13
 -1        46 1.67170E-03-8.31869E-03 1.70756E-25-8.18570E-04 1.51929E-13 2.69206E-13
 -1        47 1.18192E-03-5.97951E-03 4.34429E-25-8.36665E-04 6.30659E-14 4.68783E-13
 -1        48 6.95394E-04-3.65955E-03 4.50385E-25-7.65789E-04-8.53501E-14 4.76211E-13
 -1        49 2.71196E-04-1.75696E-03 1.64030E-25-5.56622E-04-1.99536E-13 2.44673E-13
 -1        50 4.89528E-05-5.27819E-04 1.02579E-25-2.95412E-04-2.77143E-13 2.52326E-14
 -1        51-1.36531E-04 1.03292E-03 1.17902E-25-3.07524E-04 2.88033E-13 1.73902E-14
 -1        52-3.91981E-04 2.38048E-03 1.99874E-25-5.58085E-04 1.98314E-13 2.75110E-13
 -1        53-8.34040E-04 4.29530E-03 3.87361E-25-7.70027E-04 7.54015E-14 4.39105E-13
 -1        54-1.36115E-03 6.54496E-03 3.64662E-25-8.56157E-04-5.12588E-14 4.27486E-13
 -1        55-1.83188E-03 8.76560E-03 2.19020E-25-8.45997E-04-1.30420E-13 3.15236E-13
 -1        56-2.22724E-03 1.09464E-02 5.11497E-26-8.33569E-04-1.30481E-13 1.32645E-13
 -1        57-2.76958E-03 1.30900E-02 3.56542E-27-7.32207E-04-8.37612E-14-2.57275E-14
 -1        58-3.17666E-03 1.47183E-02 3.72017E-26-4.22730E-04-4.61553E-14-1.36587E-13
 -1        59-3.27912E-03 1.51962E-02 5.50859E-26 5.42221E-05-4.92459E-14-1.64361E-13
 -1        60-3.06307E-03 1.43511E-02 1.75336E-25 4.95776E-04-5.81864E-14-2.92832E-13
 -1        61-2.70942E-03 1.25134E-02 1.99842E-25 8.07106E-04-5.04330E-14-3.11564E-13
 -1        62-2.10069E-03 9.76811E-03 1.85161E-25 1.19516E-03-6.58510E-14-2.97309E-13
 -1        63-1.17038E-03 5.55742E-03 2.12285E-25 1.79386E-03-9.78628E-14-3.12880E-13
 -1        64 1.84466E-04-4.82656E-04 2.85474E-25 2.35527E-03-1.16562E-13-3.61628E-13
 -1        65 1.75191E-03-7.59603E-03 3.82845E-25 2.49698E-03-1.06546E-13-4.26683E-13
 -1        66 3.22263E-03-1.43580E-02 4.48271E-25 2.16952E-03-4.31207E-14-4.74652E-13
 -1        67 4.42729E-03-1.98763E-02 4.70900E-25 1.81677E-03 4.27641E-14-4.87219E-13
 -1        68 5.13509E-03-2.46543E-02 3.40737E-25 1.39987E-03 1.04225E-13-4.09422E-13
 -1        69 7.57266E-03-2.82463E-02 6.99792E-26 2.86311E-03 1.04770E-13-1.83224E-13
 -1        70-1.36531E-04 1.03292E-03 1.17909E-25-3.07524E-04 2.88034E-13 1.73933E-14
 -1        71-3.91981E-04 2.38048E-03 1.99871E-25-5.58085E-04 1.98313E-13 2.75105E-13
 -1        72-8.34040E-04 4.29530E-03 3.87360E-25-7.70027E-04 7.54014E-14 4.39104E-13
 -1        73-1.36115E-03 6.54496E-03 3.64646E-25-8.56157E-04-5.12592E-14 4.27477E-13
 -1        74-1.83188E-03 8.76560E-03 2.19011E-25-8.45997E-04-1.30421E-13 3.15228E-13
 -1        75-2.22724E-03 1.09464E-02 5.11494E-26-8.33569E-04-1.30481E-13 1.32644E-13
 -1        76-2.76958E-03 1.30900E-02 3.56514E-27-7.32207E-04-8.37610E-14-2.57260E-14
 -1        77-3.17666E-03 1.47183E-02 3.72095E-26-4.22730E-04-4.61574E-14-1.36601E-13
 -1        78-3.27912E-03 1.51962E-02 5.50832E-26 5.42221E-05-4.92451E-14-1.64357E-13
 -1        79-3.06307E-03 1.43511E-02 1.75336E-25 4.95776E-04-5.81850E-14-2.92832E-13
 -1        80-2.70942E-03 1.25134E-02 1.99843E-25 8.07106E-04-5.04334E-14-3.11564E-13
 -1        81-2.10069E-03 9.76811E-03 1.85161E-25 1.19516E-03-6.58509E-14-2.97309E-13
 -1        82-1.17038E-03 5.55742E-03 2.12283E-25 1.79386E-03-9.78630E-14-3.12878E-13
 -1        83 1.84466E-04-4.82656E-04 2.85484E-25 2.35527E-03-1.16564E-13-3.61634E-13
 -1        84 1.75191E-03-7.59603E-03 3.82840E-25 2.49698E-03-1.06546E-13-4.26680E-13
 -1        85 3.22263E-03-1.43580E-02 4.48276E-25 2.16952E-03-4.31224E-14-4.74655E-13
 -1        86 4.42729E-03-1.98763E-02 4.70897E-25 1.81677E-03 4.27644E-14-4.87217E-13
 -1        87 5.13509E-03-2.46543E-02 3.40736E-25 1.39987E-03 1.04225E-13-4.09422E-13
 -1        88 7.57266E-03-2.82463E-02 6.99792E-26 2.86311E-03 1.04770E-13-1.83224E-13
 -1        89 1.85829E-04-9.66454E-04 5.67783E-26 1.55102E-03-8.65530E-15-1.91054E-13
 -1        90 1.07813E-04-7.71418E-04 2.79539E-25 2.17074E-03-9.21487E-15-3.82873E-13
 -1        91 9.79604E-05-5.67195E-04 5.45164E-25 2.28354E-03-2.65540E-15-5.24555E-13
 -1        92 8.73809E-05-3.74571E-04 5.44651E-25 2.82366E-03-4.16476E-14-5.21428E-13
 -1        93 5.17072E-05-1.83263E-04 3.78587E-25 3.23983E-03-6.77469E-14-4.32277E-13
 -1        94 3.97177E-06-3.52897E-05 2.48251E-25 3.07825E-03-5.53951E-14-3.50842E-13
 -1        95-1.74429E-05 5.22355E-05 1.55541E-25 2.35717E-03-2.93958E-14-2.79413E-13
 -1        96-7.99869E-05 1.30523E-04 1.83746E-25 1.56473E-03-2.64340E-14-3.02347E-13
 -1        97-1.40106E-04 1.79183E-04 2.10177E-25 1.04271E-03-3.00186E-14-3.23674E-13
 -1        98-1.22049E-04 1.48520E-04 1.33557E-25 6.45840E-04-1.37920E-14-2.61502E-13
 -1        99-9.80606E-05 1.01253E-04 4.85792E-26 8.76051E-05 9.98030E-15-1.61032E-13
 -1       100-9.83152E-05 9.90937E-05 2.14601E-26-5.44669E-04 3.06145E-14-1.05192E-13
 -1       101-7.22891E-05 1.10241E-04-1.54295E-27-9.60797E-04 3.34743E-14-5.48750E-14
 -1       102-3.96279E-05 1.39258E-04 1.17505E-26-1.06811E-03 1.84022E-14 1.20792E-13
 -1       103-8.00912E-05 2.12599E-04 1.62763E-25-1.06132E-03-5.07055E-15 3.00369E-13
 -1       104-8.96139E-05 2.77362E-04 4.62022E-25-1.09313E-03-6.33742E-15 4.83974E-13
 -1       105-6.93228E-05 3.05373E-04 4.35009E-25-1.00291E-03 1.52550E-14 4.69808E-13
 -1       106-6.03924E-05 3.20609E-04 1.38737E-25-7.25363E-04 1.31869E-14 2.88710E-13
 -1       107-4.37890E-05 3.29912E-04-4.98738E-26-3.85058E-04 8.26876E-15 4.47250E-14
 -1       108-4.37890E-05 3.29912E-04-4.98786E-26-3.85058E-04 8.26858E-15 4.47032E-14
 -1       109-6.03924E-05 3.20609E-04 1.38738E-25-7.25363E-04 1.31870E-14 2.88715E-13
 -1       110-6.93228E-05 3.05373E-04 4.35010E-25-1.00291E-03 1.52554E-14 4.69809E-13
 -1       111-8.96139E-05 2.77362E-04 4.62020E-25-1.09313E-03-6.33749E-15 4.83973E-13
 -1       112-8.00912E-05 2.12599E-04 1.62759E-25-1.06132E-03-5.07035E-15 3.00365E-13
 -1       113-3.96279E-05 1.39258E-04 1.17510E-26-1.06811E-03 1.84022E-14 1.20792E-13
 -1       114-7.22891E-05 1.10241E-04-1.54326E-27-9.60797E-04 3.34740E-14-5.48708E-14
 -1       115-9.83152E-05 9.90937E-05 2.14589E-26-5.44669E-04 3.06149E-14-1.05190E-13
 -1       116-9.80606E-05 1.01253E-04 4.85813E-26 8.76051E-05 9.97972E-15-1.61035E-13
 -1       117-1.22049E-04 1.48520E-04 1.33563E-25 6.45840E-04-1.37926E-14-2.61507E-13
 -1       118-1.40106E-04 1.79183E-04 2.10174E-25 1.04271E-03-3.00184E-14-3.23671E-13
 -1       119-7.99869E-05 1.30523E-04 1.83747E-25 1.56473E-03-2.64339E-14-3.02347E-13
 -1       120-1.74429E-05 5.22355E-05 1.55544E-25 2.35717E-03-2.93963E-14-2.79416E-13
 -1       121 3.97177E-06-3.52897E-05 2.48249E-25 3.07825E-03-5.53945E-14-3.50840E-13
 -1       122 5.17072E-05-1.83263E-04 3.78581E-25 3.23983E-03-6.77471E-14-4.32274E-13
 -1       123 8.73809E-05-3.74571E-04 5.44655E-25 2.82366E-03-4.16473E-14-5.21431E-13
 -1       124 9.79604E-05-5.67195E-04 5.45166E-25 2.28354E-03-2.65552E-15-5.24556E-13
 -1       125 1.07813E-04-7.71418E-04 2.79539E-25 2.17074E-03-9.21496E-15-3.82873E-13
 -1       126 1.85829E-04-9.66454E-04 5.67783E-26 1.55102E-03-8.65521E-15-1.91054E-13
 -3
    1PSTEP                       120          30           1          
  100CL  130 3.00000E-01         126                     1   30           1
 -4  ERROR       1    1
 -5  STR(%)      1    1    0    0
 -1         1 6.58242E+01
 -1         2 6.58242E+01
 -1         3 5.46052E+01
 -1         4 5.46052E+01
 -1         5 6.10301E+00
 -1         6 6.10301E+00
 -1         7 5.96694E+01
 -1         8 5.96694E+01
 -1         9 5.46052E+01
 -1        10 5.46052E+01
 -1        11 6.58242E+01
 -1        12 6.58242E+01
 -1        13 6.58242E+01
 -1        14 6.53234E+01
 -1        15 6.53234E+01
 -1        16 6.46952E+01
 -1        17 5.87637E+01
 -1        18 2.79048E+01
 -1        19 5.90730E+01
 -1        20 6.28644E+01
 -1        21 6.28644E+01
 -1        22 6.20178E+01
 -1        23 6.03804E+01
 -1        24 6.15713E+01
 -1        25 6.23460E+01
 -1        26 6.31118E+01
 -1        27 6.43933E+01
 -1        28 6.43933E+01
 -1        29 6.37767E+01
 -1        30 6.10892E+01
 -1        31 5.97107E+01
 -1        32 6.58242E+01
 -1        33 6.53234E+01
 -1        34 6.53234E+01
 -1        35 6.46952E+01
 -1        36 5.87637E+01
 -1        37 2.79048E+01
 -1        38 5.90730E+01
 -1        39 6.28644E+01
 -1        40 6.28644E+01
 -1        41 6.20178E+01
 -1        42 6.03804E+01
 -1        43 6.15713E+01
 -1        44 6.23460E+01
 -1        45 6.31118E+01
 -1        46 6.43933E+01
 -1        47 6.43933E+01
 -1        48 6.37767E+01
 -1        49 6.10892E+01
 -1        50 5.97107E+01
 -1        51 3.53849E+01
 -1        52 4.78352E+01
 -1        53 5.50890E+01
 -1        54 5.89378E+01
 -1        55 6.06354E+01
 -1        56 6.10136E+01
 -1        57 6.10136E+01
 -1        58 6.08331E+01
 -1        59 5.99625E+01
 -1        60 6.05778E+01
 -1        61 6.07271E+01
 -1        62 6.07271E+01
 -1        63 5.76817E+01
 -1        64 2.61344E+01
 -1        65 5.48786E+01
 -1        66 5.94468E+01
 -1        67 5.94468E+01
 -1        68 5.93545E+01
 -1        69 5.96694E+01
 -1        70 3.53849E+01
 -1        71 4.78352E+01
 -1        72 5.50890E+01
 -1        73 5.89378E+01
 -1        74 6.06354E+01
 -1        75 6.10136E+01
 -1        76 6.10136E+01
 -1        77 6.08331E+01
 -1        78 5.99625E+01
 -1        79 6.05778E+01
 -1        80 6.07271E+01
 -1        81 6.07271E+01
 -1        82 5.76817E+01
 -1        83 2.61344E+01
 -1        84 5.48786E+01
 -1        85 5.94468E+01
 -1        86 5.94468E+01
 -1        87 5.93545E+01
 -1        88 5.96694E+01
 -1        89 6.58242E+01
 -1        90 6.53234E+01
 -1        91 6.53234E+01
 -1        92 6.46952E+01
 -1        93 5.87637E+01
 -1        94 2.79048E+01
 -1        95 5.90730E+01
 -1        96 6.28644E+01
 -1        97 6.28644E+01
 -1        98 6.20178E+01
 -1        99 6.03804E+01
 -1       100 6.15713E+01
 -1       101 6.23460E+01
 -1       102 6.31118E+01
 -1       103 6.43933E+01
 -1       104 6.43933E+01
 -1       105 6.37767E+01
 -1       106 6.10892E+01
 -1       107 5.97107E+01
 -1       108 5.97107E+01
 -1       109 6.10892E+01
 -1       110 6.37767E+01
 -1       111 6.43933E+01
 -1       112 6.43933E+01
 -1       113 6.31118E+01
 -1       114 6.23460E+01
 -1       115 6.15713E+01
 -1       116 6.03804E+01
 -1       117 6.20178E+01
 -1       118 6.28644E+01
 -1       119 6.28644E+01
 -1       120 5.90730E+01
 -1       121 2.79048E+01
 -1       122 5.87637E+01
 -1       123 6.46952E+01
 -1       124 6.53234E+01
 -1       125 6.53234E+01
 -1       126 6.58242E+01
 -3
    1PSTEP                       121          31           1          
  100CL  131 3.10000E-01         126                     1   31           1
 -4  DISP        4    1
 -5  D1          1    2    1    0
 -5  D2          1    2    2    0
 -5  D3          1    2    3    0
 -5  ALL         1    2    0    0    1ALL
 -1         1 0.00000E+00 0.00000E+00 0.00000E+00
 -1         2 0.00000E+00 0.00000E+00 0.00000E+00
 -1         3 5.38339E-02-2.62152E-03 0.00000E+00
 -1         4 5.38339E-02-2.62152E-03 0.00000E+00
 -1         5 5.38291E-02-2.40226E-03 0.00000E+00
 -1         6 5.38291E-02-2.40226E-03 0.00000E+00
 -1         7 0.00000E+00 0.00000E+00 0.00000E+00
 -1         8 0.00000E+00 0.00000E+00 0.00000E+00
 -1         9 5.38312E-02-2.50340E-03 0.00000E+00
 -1        10 5.38312E-02-2.50340E-03 0.00000E+00
 -1        11 0.00000E+00 0.00000E+00 0.00000E+00
 -1        12 0.00000E+00 0.00000E+00 0.00000E+00
 -1        13 1.06098E-03 1.39160E-03 0.00000E+00
 -1        14 3.40993E-03 2.70886E-03 0.00000E+00
 -1        15 7.22210E-03 3.73042E-03 0.00000E+00
 -1        16 1.21749E-02 4.35577E-03 0.00000E+00
 -1        17 1.78335E-02 4.52358E-03 0.00000E+00
 -1        18 2.37126E-02 4.28608E-03 0.00000E+00
 -1        19 2.94253E-02 3.76977E-03 0.00000E+00
 -1        20 3.47619E-02 3.08377E-03 0.00000E+00
 -1        21 3.95783E-02 2.28817E-03 0.00000E+00
 -1        22 4.37301E-02 1.43035E-03 0.00000E+00
 -1        23 4.70990E-02 5.76279E-04 0.00000E+00
 -1        24 4.96929E-02-2.08707E-04 0.00000E+00
 -1        25 5.16001E-02-8.93279E-04 0.00000E+00
 -1        26 5.29061E-02-1.47386E-03 0.00000E+00
 -1        27 5.36692E-02-1.93793E-03 0.00000E+00
 -1        28 5.40252E-02-2.26912E-03 0.00000E+00
 -1        29 5.41245E-02-2.47420E-03 0.00000E+00
 -1        30 5.40781E-02-2.58100E-03 0.00000E+00
 -1        31 5.39612E-02-2.62025E-03 0.00000E+00
 -1        32 1.06098E-03 1.39160E-03 0.00000E+00
 -1        33 3.40993E-03 2.70886E-03 0.00000E+00
 -1        34 7.22210E-03 3.73042E-03 0.00000E+00
 -1        35 1.21749E-02 4.35577E-03 0.00000E+00
 -1        36 1.78335E-02 4.52358E-03 0.00000E+00
 -1        37 2.37126E-02 4.28608E-03 0.00000E+00
 -1        38 2.94253E-02 3.76977E-03 0.00000E+00
 -1        39 3.47619E-02 3.08377E-03 0.00000E+00
 -1        40 3.95783E-02 2.28817E-03 0.00000E+00
 -1        41 4.37301E-02 1.43035E-03 0.00000E+00
 -1        42 4.70990E-02 5.76279E-04 0.00000E+00
 -1        43 4.96929E-02-2.08707E-04 0.00000E+00
 -1        44 5.16001E-02-8.93279E-04 0.00000E+00
 -1        45 5.29061E-02-1.47386E-03 0.00000E+00
 -1        46 5.36692E-02-1.93793E-03 0.00000E+00
 -1        47 5.40252E-02-2.26912E-03 0.00000E+00
 -1        48 5.41245E-02-2.47420E-03 0.00000E+00
 -1        49 5.40781E-02-2.58100E-03 0.00000E+00
 -1        50 5.39612E-02-2.62025E-03 0.00000E+00
 -1        51 5.39503E-02-2.42745E-03 0.00000E+00
 -1        52 5.40625E-02-2.50159E-03 0.00000E+00
 -1        53 5.41097E-02-2.64580E-03 0.00000E+00
 -1        54 5.40146E-02-2.88375E-03 0.00000E+00
 -1        55 5.36531E-02-3.23731E-03 0.00000E+00
 -1        56 5.28729E-02-3.70390E-03 0.00000E+00
 -1        57 5.15402E-02-4.25374E-03 0.00000E+00
 -1        58 4.95821E-02-4.86107E-03 0.00000E+00
 -1        59 4.69081E-02-5.50099E-03 0.00000E+00
 -1        60 4.34376E-02-6.11337E-03 0.00000E+00
 -1        61 3.91778E-02-6.61081E-03 0.00000E+00
 -1        62 3.42566E-02-6.92786E-03 0.00000E+00
 -1        63 2.88374E-02-7.03110E-03 0.00000E+00
 -1        64 2.30890E-02-6.88262E-03 0.00000E+00
 -1        65 1.72416E-02-6.41700E-03 0.00000E+00
 -1        66 1.16882E-02-5.59011E-03 0.00000E+00
 -1        67 6.89799E-03-4.43451E-03 0.00000E+00
 -1        68 3.25156E-03-3.05071E-03 0.00000E+00
 -1        69 1.03260E-03-1.51928E-03 0.00000E+00
 -1        70 5.39503E-02-2.42745E-03 0.00000E+00
 -1        71 5.40625E-02-2.50159E-03 0.00000E+00
 -1        72 5.41097E-02-2.64580E-03 0.00000E+00
 -1        73 5.40146E-02-2.88375E-03 0.00000E+00
 -1        74 5.36531E-02-3.23731E-03 0.00000E+00
 -1        75 5.28729E-02-3.70390E-03 0.00000E+00
 -1        76 5.15402E-02-4.25374E-03 0.00000E+00
 -1        77 4.95821E-02-4.86107E-03 0.00000E+00
 -1        78 4.69081E-02-5.50099E-03 0.00000E+00
 -1        79 4.34376E-02-6.11337E-03 0.00000E+00
 -1        80 3.91778E-02-6.61081E-03 0.00000E+00
 -1        81 3.42566E-02-6.92786E-03 0.00000E+00
 -1        82 2.88374E-02-7.03110E-03 0.00000E+00
 -1        83 2.30890E-02-6.88262E-03 0.00000E+00
 -1        84 1.72416E-02-6.41700E-03 0.00000E+00
 -1        85 1.16882E-02-5.59011E-03 0.00000E+00
 -1        86 6.89799E-03-4.43451E-03 0.00000E+00
 -1        87 3.25156E-03-3.05071E-03 0.00000E+00
 -1        88 1.03260E-03-1.51928E-03 0.00000E+00
 -1        89 6.65475E-04-5.21574E-05 0.00000E+00
 -1        90 3.05400E-03-1.50758E-04 0.00000E+00
 -1        91 6.82804E-03-3.28078E-04 0.00000E+00
 -1        92 1.17796E-02-5.98302E-04 0.00000E+00
 -1        93 1.74712E-02-9.38625E-04 0.00000E+00
 -1        94 2.34067E-02-1.30052E-03 0.00000E+00
 -1        95 2.91925E-02-1.63868E-03 0.00000E+00
 -1        96 3.46093E-02-1.93305E-03 0.00000E+00
 -1        97 3.95089E-02-2.17443E-03 0.00000E+00
 -1        98 4.37326E-02-2.35364E-03 0.00000E+00
 -1        99 4.71577E-02-2.47111E-03 0.00000E+00
 -1       100 4.97809E-02-2.54093E-03 0.00000E+00
 -1       101 5.16974E-02-2.57822E-03 0.00000E+00
 -1       102 5.29960E-02-2.59141E-03 0.00000E+00
 -1       103 5.37455E-02-2.58886E-03 0.00000E+00
 -1       104 5.40771E-02-2.57864E-03 0.00000E+00
 -1       105 5.41507E-02-2.56211E-03 0.00000E+00
 -1       106 5.40854E-02-2.54151E-03 0.00000E+00
 -1       107 5.39603E-02-2.52164E-03 0.00000E+00
 -1       108 5.39603E-02-2.52164E-03 0.00000E+00
 -1       109 5.40854E-02-2.54151E-03 0.00000E+00
 -1       110 5.41507E-02-2.56211E-03 0.00000E+00
 -1       111 5.40771E-02-2.57864E-03 0.00000E+00
 -1       112 5.37455E-02-2.58886E-03 0.00000E+00
 -1       113 5.29960E-02-2.59141E-03 0.00000E+00
 -1       114 5.16974E-02-2.57822E-03 0.00000E+00
 -1       115 4.97809E-02-2.54093E-03 0.00000E+00
 -1       116 4.71577E-02-2.47111E-03 0.00000E+00
 -1       117 4.37326E-02-2.35364E-03 0.00000E+00
 -1       118 3.95089E-02-2.17443E-03 0.00000E+00
 -1       119 3.46093E-02-1.93305E-03 0.00000E+00
 -1       120 2.91925E-02-1.63868E-03 0.00000E+00
 -1       121 2.34067E-02-1.30052E-03 0.00000E+00
 -1       122 1.74712E-02-9.38625E-04 0.00000E+00
 -1       123 1.17796E-02-5.98302E-04 0.00000E+00
 -1       124 6.82804E-03-3.28078E-04 0.00000E+00
 -1       125 3.05400E-03-1.50758E-04 0.00000E+00
 -1       126 6.65475E-04-5.21574E-05 0.00000E+00
 -3
    1PSTEP                       122          31           1          
  100CL  131 3.10000E-01         126                     1   31           1
 -4  STRESS      6    1
 -5  SXX         1    4    1    1
 -5  SYY         1    4    2    2
 -5  SZZ         1    4    3    3
 -5  SXY         1    4    1    2
 -5  SYZ         1    4    2    3
 -5  SZX         1    4    3    1
 -1         1 6.49367E+03 1.55644E+04 6.38564E+03 3.54775E+03-2.41201E-11-2.64810E-11
 -1         2 6.49367E+03 1.55644E+04 6.38564E+03 3.54775E+03-2.41201E-11-2.64810E-11
 -1         3-3.27344E+01-2.39768E+01-1.70071E+01-2.80921E+01-1.16228E-08-7.57359E-08
 -1         4-3.27344E+01-2.39768E+01-1.70071E+01-2.80921E+01-1.16229E-08-7.57377E-08
 -1         5 9.51049E+01 2.63326E+02 1.07440E+02-6.20087E+01 2.17780E-08-7.67818E-08
 -1         6 9.51049E+01 2.63326E+02 1.07440E+02-6.20087E+01 2.17787E-08-7.67884E-08
 -1         7-6.97603E+03-1.56839E+04-7.07028E+03 2.88489E+03-5.17841E-12-9.69486E-11
 -1         8-6.97603E+03-1.56839E+04-7.07028E+03 2.88489E+03-5.17841E-12-9.69486E-11
 -1         9 6.03099E+01 1.87367E+02 7.42537E+01-6.01504E+01 7.74028E-09-7.83660E-08
 -1        10 6.03099E+01 1.87367E+02 7.42537E+01-6.01504E+01 7.74035E-09-7.83614E-08
 -1        11-1.99566E+02-6.88258E+02-2.20324E+02 2.03907E+03-3.32264E-11-6.79337E-11
 -1        12-1.99566E+02-6.88258E+02-2.20324E+02 2.03907E+03-3.32264E-11-6.79337E-11
 -1        13 2.46751E+03 1.36705E+04 4.67375E+03 1.00927E+03-2.58650E-09-5.12406E-09
 -1        14 3.02928E+03 1.27268E+04 4.57358E+03 9.93629E+02-8.56352E-09 3.49197E-08
 -1        15 2.43026E+03 9.98856E+03 3.62511E+03 1.34745E+03-3.21202E-08 3.05541E-08
 -1        16 1.76043E+03 6.50723E+03 2.43158E+03 1.35274E+03-5.18720E-08-4.35663E-08
 -1        17 9.13629E+02 2.73415E+03 1.08041E+03 1.06216E+03-4.85501E-08-1.10529E-07
 -1        18 4.25060E+01-5.31477E+02-1.50819E+02 6.16534E+02-1.48639E-08-1.51519E-07
 -1        19-6.21913E+02-2.92690E+03-1.07501E+03 2.30440E+02 2.82000E-08-1.34635E-07
 -1        20-1.10211E+03-4.67694E+03-1.75658E+03 7.12424E-01 4.12300E-08-6.95611E-08
 -1        21-1.45442E+03-6.00427E+03-2.27475E+03-1.39137E+02 2.46176E-08-4.52763E-08
 -1        22-1.71403E+03-6.83827E+03-2.61406E+03-2.65424E+02 1.46271E-08-5.54175E-08
 -1        23-1.74237E+03-6.97396E+03-2.66506E+03-3.57537E+02 2.31739E-08-4.41419E-08
 -1        24-1.63253E+03-6.54409E+03-2.49672E+03-3.59516E+02 4.03858E-08-2.19562E-08
 -1        25-1.45322E+03-5.82851E+03-2.21897E+03-3.08988E+02 5.16685E-08 3.11849E-08
 -1        26-1.26166E+03-4.94793E+03-1.88796E+03-2.91524E+02 4.24280E-08 8.60779E-08
 -1        27-9.55951E+02-3.82345E+03-1.44892E+03-2.95606E+02 8.02992E-09 1.33830E-07
 -1        28-6.66612E+02-2.61373E+03-9.91182E+02-2.55086E+02-2.96946E-08 1.03680E-07
 -1        29-4.36736E+02-1.55027E+03-5.98604E+02-1.88723E+02-4.75887E-08 6.12203E-08
 -1        30-2.57056E+02-7.50402E+02-3.02853E+02-1.29135E+02-4.72368E-08 6.99855E-09
 -1        31-1.00676E+02-2.20246E+02-9.63441E+01-7.19380E+01-2.78293E-08-5.14476E-08
 -1        32 2.46751E+03 1.36705E+04 4.67375E+03 1.00927E+03-2.58650E-09-5.12406E-09
 -1        33 3.02928E+03 1.27268E+04 4.57358E+03 9.93629E+02-8.56350E-09 3.49197E-08
 -1        34 2.43026E+03 9.98856E+03 3.62511E+03 1.34745E+03-3.21202E-08 3.05541E-08
 -1        35 1.76043E+03 6.50723E+03 2.43158E+03 1.35274E+03-5.18721E-08-4.35656E-08
 -1        36 9.13629E+02 2.73415E+03 1.08041E+03 1.06216E+03-4.85501E-08-1.10529E-07
 -1        37 4.25060E+01-5.31477E+02-1.50819E+02 6.16534E+02-1.48639E-08-1.51519E-07
 -1        38-6.21913E+02-2.92690E+03-1.07501E+03 2.30440E+02 2.82000E-08-1.34633E-07
 -1        39-1.10211E+03-4.67694E+03-1.75658E+03 7.12424E-01 4.12300E-08-6.95602E-08
 -1        40-1.45442E+03-6.00427E+03-2.27475E+03-1.39137E+02 2.46176E-08-4.52763E-08
 -1        41-1.71403E+03-6.83827E+03-2.61406E+03-2.65424E+02 1.46271E-08-5.54175E-08
 -1        42-1.74237E+03-6.97396E+03-2.66506E+03-3.57537E+02 2.31739E-08-4.41412E-08
 -1        43-1.63253E+03-6.54409E+03-2.49672E+03-3.59516E+02 4.03858E-08-2.19573E-08
 -1        44-1.45322E+03-5.82851E+03-2.21897E+03-3.08988E+02 5.16686E-08 3.11848E-08
 -1        45-1.26166E+03-4.94793E+03-1.88796E+03-2.91524E+02 4.24280E-08 8.60763E-08
 -1        46-9.55951E+02-3.82345E+03-1.44892E+03-2.95606E+02 8.02992E-09 1.33830E-07
 -1        47-6.66612E+02-2.61373E+03-9.91182E+02-2.55086E+02-2.96946E-08 1.03679E-07
 -1        48-4.36736E+02-1.55027E+03-5.98604E+02-1.88723E+02-4.75886E-08 6.12219E-08
 -1        49-2.57056E+02-7.50402E+02-3.02853E+02-1.29135E+02-4.72371E-08 6.99855E-09
 -1        50-1.00676E+02-2.20246E+02-9.63441E+01-7.19380E+01-2.78291E-08-5.14480E-08
 -1        51 1.22712E+02 4.90943E+02 1.83766E+02-6.98186E+01 3.70468E-08-6.58839E-08
 -1        52 2.57549E+02 1.07429E+03 3.98221E+02-1.23467E+02 6.03907E-08-1.18737E-08
 -1        53 4.41168E+02 1.88086E+03 6.92832E+02-1.84215E+02 6.44977E-08 7.06850E-08
 -1        54 7.03056E+02 2.93575E+03 1.08282E+03-2.32500E+02 4.46547E-08 1.21089E-07
 -1        55 9.56948E+02 4.10177E+03 1.50085E+03-2.22548E+02 8.17875E-09 1.35327E-07
 -1        56 1.20554E+03 5.16979E+03 1.88658E+03-1.32032E+02-2.59486E-08 8.85132E-08
 -1        57 1.40896E+03 6.03844E+03 2.19952E+03-1.74620E+01-3.68306E-08 3.85495E-08
 -1        58 1.57695E+03 6.75506E+03 2.45627E+03 1.07404E+02-2.59004E-08-3.53500E-08
 -1        59 1.65948E+03 7.15818E+03 2.59606E+03 3.01348E+02-1.20764E-08-3.39456E-08
 -1        60 1.66443E+03 6.95737E+03 2.53916E+03 5.33885E+02-3.30665E-09-4.51986E-08
 -1        61 1.50640E+03 6.04415E+03 2.22853E+03 6.89905E+02-8.93277E-09-5.12911E-08
 -1        62 1.21498E+03 4.60990E+03 1.72488E+03 7.23084E+02-2.15419E-08-9.16566E-08
 -1        63 7.85840E+02 2.71361E+03 1.03977E+03 7.03195E+02-1.39229E-08-1.49296E-07
 -1        64 2.37410E+02 1.58492E+02 1.14619E+02 6.63027E+02 1.48464E-08-1.50851E-07
 -1        65-5.48684E+02-3.20719E+03-1.14237E+03 5.31206E+02 4.12843E-08-9.65538E-08
 -1        66-1.49331E+03-6.96087E+03-2.59164E+03 2.67489E+02 4.18059E-08-1.41441E-08
 -1        67-2.36011E+03-1.03093E+04-3.91672E+03 4.50472E+00 1.69037E-08 1.73120E-08
 -1        68-3.22547E+03-1.29011E+04-5.01783E+03-1.85514E+02-1.53569E-08 1.80497E-08
 -1        69-2.65028E+03-1.37207E+04-5.10877E+03 2.97508E+02-2.09207E-08-5.21593E-09
 -1        70 1.22712E+02 4.90943E+02 1.83766E+02-6.98186E+01 3.70465E-08-6.58834E-08
 -1        71 2.57549E+02 1.07429E+03 3.98221E+02-1.23467E+02 6.03908E-08-1.18742E-08
 -1        72 4.41168E+02 1.88086E+03 6.92832E+02-1.84215E+02 6.44977E-08 7.06834E-08
 -1        73 7.03056E+02 2.93575E+03 1.08282E+03-2.32500E+02 4.46548E-08 1.21085E-07
 -1        74 9.56948E+02 4.10177E+03 1.50085E+03-2.22548E+02 8.17853E-09 1.35329E-07
 -1        75 1.20554E+03 5.16979E+03 1.88658E+03-1.32032E+02-2.59486E-08 8.85134E-08
 -1        76 1.40896E+03 6.03844E+03 2.19952E+03-1.74620E+01-3.68306E-08 3.85487E-08
 -1        77 1.57695E+03 6.75506E+03 2.45627E+03 1.07404E+02-2.59000E-08-3.53439E-08
 -1        78 1.65948E+03 7.15818E+03 2.59606E+03 3.01348E+02-1.20766E-08-3.39467E-08
 -1        79 1.66443E+03 6.95737E+03 2.53916E+03 5.33885E+02-3.30624E-09-4.51986E-08
 -1        80 1.50640E+03 6.04415E+03 2.22853E+03 6.89905E+02-8.93271E-09-5.12910E-08
 -1        81 1.21498E+03 4.60990E+03 1.72488E+03 7.23084E+02-2.15419E-08-9.16562E-08
 -1        82 7.85840E+02 2.71361E+03 1.03977E+03 7.03195E+02-1.39228E-08-1.49299E-07
 -1        83 2.37410E+02 1.58492E+02 1.14619E+02 6.63027E+02 1.48465E-08-1.50851E-07
 -1        84-5.48684E+02-3.20719E+03-1.14237E+03 5.31206E+02 4.12843E-08-9.65556E-08
 -1        85-1.49331E+03-6.96087E+03-2.59164E+03 2.67489E+02 4.18059E-08-1.41439E-08
 -1        86-2.36011E+03-1.03093E+04-3.91672E+03 4.50472E+00 1.69033E-08 1.73125E-08
 -1        87-3.22547E+03-1.29011E+04-5.01783E+03-1.85514E+02-1.53569E-08 1.80497E-08
 -1        88-2.65028E+03-1.37207E+04-5.10877E+03 2.97508E+02-2.09207E-08-5.21593E-09
 -1        89-6.60748E+00-6.37451E+02-1.80307E+02 2.07437E+02-1.39789E-08-7.41211E-09
 -1        90 6.91276E+00-6.08555E+02-1.61528E+02 5.96557E+02-1.46604E-08 2.77091E-08
 -1        91 1.14829E+02-5.29083E+02-1.15987E+02 8.32731E+02-3.95391E-09 3.10402E-08
 -1        92 2.04007E+02-4.48617E+02-7.14449E+01 1.04136E+03-1.96003E-09-2.88028E-08
 -1        93 2.37850E+02-3.48969E+02-3.51121E+01 1.02854E+03-6.00807E-09-1.09544E-07
 -1        94 1.86211E+02-2.43725E+02-1.95730E+01 8.30659E+02-2.24318E-09-1.60986E-07
 -1        95 1.21836E+02-1.60624E+02-1.21962E+01 6.05568E+02 3.06973E-09-1.49595E-07
 -1        96 8.83137E+01-1.24400E+02-8.95861E+00 4.59122E+02 1.02277E-08-7.72357E-08
 -1        97 5.50405E+01-1.09074E+02-1.24262E+01 3.37220E+02 1.56720E-08-4.17751E-08
 -1        98 4.83119E+00-8.61961E+01-1.94298E+01 1.56621E+02 1.10907E-08-5.21660E-08
 -1        99-1.83523E+01-5.77941E+01-1.73609E+01-4.76366E+01 2.84405E-09-4.48885E-08
 -1       100-1.56832E+01-3.67000E+01-1.02704E+01-1.75284E+02 5.95830E-09-2.90744E-08
 -1       101-1.26965E+01-7.07610E+00-1.52785E+00-2.24327E+02 1.09265E-08 3.08363E-08
 -1       102-1.89706E+01 3.44753E+01 7.52677E+00-2.79771E+02 1.17556E-08 9.68677E-08
 -1       103 2.27561E+00 8.19125E+01 2.69140E+01-3.35694E+02 1.33752E-08 1.42955E-07
 -1       104 1.70994E+01 1.27195E+02 4.41444E+01-3.22132E+02 9.39353E-09 1.20416E-07
 -1       105 7.63295E+00 1.64926E+02 5.20706E+01-2.51328E+02 7.39063E-10 6.89886E-08
 -1       106 1.07919E+01 1.82155E+02 5.79335E+01-1.71007E+02-1.02092E-09-4.52279E-09
 -1       107 3.13942E+01 1.81828E+02 6.39385E+01-9.47018E+01 4.33146E-09-6.73777E-08
 -1       108 3.13942E+01 1.81828E+02 6.39385E+01-9.47018E+01 4.33169E-09-6.73789E-08
 -1       109 1.07919E+01 1.82155E+02 5.79335E+01-1.71007E+02-1.02092E-09-4.52150E-09
 -1       110 7.63295E+00 1.64926E+02 5.20706E+01-2.51328E+02 7.39045E-10 6.89884E-08
 -1       111 1.70994E+01 1.27195E+02 4.41444E+01-3.22132E+02 9.39352E-09 1.20419E-07
 -1       112 2.27561E+00 8.19125E+01 2.69140E+01-3.35694E+02 1.33752E-08 1.42954E-07
 -1       113-1.89706E+01 3.44753E+01 7.52677E+00-2.79771E+02 1.17556E-08 9.68692E-08
 -1       114-1.26965E+01-7.07609E+00-1.52785E+00-2.24327E+02 1.09265E-08 3.08357E-08
 -1       115-1.56832E+01-3.67000E+01-1.02704E+01-1.75284E+02 5.95822E-09-2.90733E-08
 -1       116-1.83523E+01-5.77941E+01-1.73609E+01-4.76366E+01 2.84416E-09-4.48893E-08
 -1       117 4.83119E+00-8.61961E+01-1.94298E+01 1.56621E+02 1.10907E-08-5.21660E-08
 -1       118 5.50405E+01-1.09074E+02-1.24262E+01 3.37220E+02 1.56718E-08-4.17752E-08
 -1       119 8.83137E+01-1.24400E+02-8.95861E+00 4.59122E+02 1.02277E-08-7.72375E-08
 -1       120 1.21836E+02-1.60624E+02-1.21962E+01 6.05568E+02 3.06977E-09-1.49595E-07
 -1       121 1.86211E+02-2.43725E+02-1.95730E+01 8.30659E+02-2.24335E-09-1.60984E-07
 -1       122 2.37850E+02-3.48969E+02-3.51121E+01 1.02854E+03-6.00810E-09-1.09543E-07
 -1       123 2.04007E+02-4.48617E+02-7.14449E+01 1.04136E+03-1.95983E-09-2.88038E-08
 -1       124 1.14829E+02-5.29083E+02-1.15987E+02 8.32731E+02-3.95386E-09 3.10401E-08
 -1       125 6.91276E+00-6.08555E+02-1.61528E+02 5.96557E+02-1.46604E-08 2.77091E-08
 -1       126-6.60748E+00-6.37451E+02-1.80307E+02 2.07437E+02-1.39789E-08-7.41211E-09
 -3
    1PSTEP                       123          31           1          
  100CL  131 3.10000E-01         126                     1   31           1
 -4  TOSTRAIN    6    1
 -5  EXX         1    4    1    1
 -5  EYY         1    4    2    2
 -5  EZZ         1    4    3    3
 -5  EXY         1    4    1    2
 -5  EYZ         1    4    2    3
 -5  EZX         1    4    3    1
 -1         1-7.45666E-05 2.83691E-02-2.80409E-29 1.06097E-02 4.55503E-19-5.80184E-17
 -1         2-7.45666E-05 2.83691E-02-2.80409E-29 1.06097E-02 4.55503E-19-5.80184E-17
 -1         3-5.15846E-05-2.21331E-05 1.19928E-25-9.12535E-05-3.71940E-14-2.46259E-13
 -1         4-5.15846E-05-2.21331E-05 1.19934E-25-9.12535E-05-3.71942E-14-2.46265E-13
 -1         5-4.10412E-05 5.06824E-04 1.32719E-25-2.00065E-04 7.12307E-14-2.49321E-13
 -1         6-4.10412E-05 5.06824E-04 1.32741E-25-2.00065E-04 7.12329E-14-2.49342E-13
 -1         7-7.63701E-05-2.97863E-02-1.82266E-27 1.03259E-02 9.16247E-19-3.36176E-16
 -1         8-7.63701E-05-2.97863E-02-1.82266E-27 1.03259E-02 9.16247E-19-3.36176E-16
 -1         9-4.63129E-05 3.68166E-04 1.29680E-25-1.94341E-04 2.57031E-14-2.54595E-13
 -1        10-4.63129E-05 3.68166E-04 1.29666E-25-1.94341E-04 2.57033E-14-2.54580E-13
 -1        11-7.54683E-05-1.02947E-03-8.12076E-28 6.65467E-03 7.65406E-19-2.20753E-16
 -1        12-7.54683E-05-1.02947E-03-8.12076E-28 6.65467E-03 7.65406E-19-2.20753E-16
 -1        13-7.53254E-03 2.80487E-02-2.72727E-27 2.08605E-03-8.56783E-15-1.62353E-14
 -1        14-5.51496E-03 2.56131E-02 2.35775E-26 1.32126E-03-2.06813E-14 1.14414E-13
 -1        15-4.59307E-03 2.04810E-02 2.72740E-26 2.22587E-03-9.34463E-14 1.07460E-13
 -1        16-2.98395E-03 1.36105E-02 6.54119E-26 2.70364E-03-1.78554E-13-1.22940E-13
 -1        17-1.25653E-03 5.96515E-03 2.84544E-25 2.68648E-03-1.94540E-13-3.38400E-13
 -1        18 1.40556E-04-7.86769E-04 4.79187E-25 2.15955E-03-1.03073E-13-4.83607E-13
 -1        19 1.20235E-03-5.84111E-03 3.85984E-25 1.55488E-03 4.42457E-14-4.45524E-13
 -1        20 1.97874E-03-9.54569E-03 1.26793E-25 1.18527E-03 1.12172E-13-2.39022E-13
 -1        21 2.58226E-03-1.23666E-02 5.46989E-26 8.90317E-04 6.77333E-14-1.54117E-13
 -1        22 2.89799E-03-1.41302E-02 6.88153E-26 4.13027E-04 3.44757E-14-1.83651E-13
 -1        23 3.01548E-03-1.44655E-02 4.97581E-26-1.25194E-04 6.77303E-14-1.48116E-13
 -1        24 2.83341E-03-1.35657E-02 3.53507E-26-4.34146E-04 1.30172E-13-7.74738E-14
 -1        25 2.50190E-03-1.20487E-02 6.35313E-26-5.38762E-04 1.74155E-13 9.60333E-14
 -1        26 2.04023E-03-1.01712E-02 1.81769E-25-6.94616E-04 1.46246E-13 2.77357E-13
 -1        27 1.60592E-03-7.85460E-03 3.69657E-25-8.53775E-04 3.22221E-14 4.35269E-13
 -1        28 1.05589E-03-5.33655E-03 2.31606E-25-7.99652E-04-9.50546E-14 3.37784E-13
 -1        29 5.24842E-04-3.11331E-03 1.10063E-25-6.11627E-04-1.54948E-13 1.99212E-13
 -1        30 1.47071E-04-1.45793E-03 2.87330E-26-4.22521E-04-1.53850E-13 2.25051E-14
 -1        31-1.52292E-05-4.02075E-04 5.98296E-26-2.34891E-04-9.01716E-14-1.67463E-13
 -1        32-7.53254E-03 2.80487E-02-2.72727E-27 2.08605E-03-8.56783E-15-1.62353E-14
 -1        33-5.51496E-03 2.56131E-02 2.35775E-26 1.32126E-03-2.06812E-14 1.14414E-13
 -1        34-4.59307E-03 2.04810E-02 2.72741E-26 2.22587E-03-9.34463E-14 1.07460E-13
 -1        35-2.98395E-03 1.36105E-02 6.54105E-26 2.70364E-03-1.78554E-13-1.22938E-13
 -1        36-1.25653E-03 5.96515E-03 2.84546E-25 2.68648E-03-1.94541E-13-3.38401E-13
 -1        37 1.40556E-04-7.86769E-04 4.79190E-25 2.15955E-03-1.03073E-13-4.83609E-13
 -1        38 1.20235E-03-5.84111E-03 3.85971E-25 1.55488E-03 4.42466E-14-4.45517E-13
 -1        39 1.97874E-03-9.54569E-03 1.26790E-25 1.18527E-03 1.12173E-13-2.39019E-13
 -1        40 2.58226E-03-1.23666E-02 5.46989E-26 8.90317E-04 6.77333E-14-1.54117E-13
 -1        41 2.89799E-03-1.41302E-02 6.88153E-26 4.13027E-04 3.44757E-14-1.83651E-13
 -1        42 3.01548E-03-1.44655E-02 4.97569E-26-1.25194E-04 6.77304E-14-1.48113E-13
 -1        43 2.83341E-03-1.35657E-02 3.53516E-26-4.34146E-04 1.30172E-13-7.74774E-14
 -1        44 2.50190E-03-1.20487E-02 6.35312E-26-5.38762E-04 1.74155E-13 9.60328E-14
 -1        45 2.04023E-03-1.01712E-02 1.81764E-25-6.94616E-04 1.46246E-13 2.77352E-13
 -1        46 1.60592E-03-7.85460E-03 3.69659E-25-8.53775E-04 3.22221E-14 4.35270E-13
 -1        47 1.05589E-03-5.33655E-03 2.31600E-25-7.99652E-04-9.50546E-14 3.37780E-13
 -1        48 5.24842E-04-3.11331E-03 1.10068E-25-6.11627E-04-1.54947E-13 1.99217E-13
 -1        49 1.47071E-04-1.45793E-03 2.87335E-26-4.22521E-04-1.53851E-13 2.25051E-14
 -1        50-1.52292E-05-4.02075E-04 5.98302E-26-2.34891E-04-9.01711E-14-1.67465E-13
 -1        51-1.99458E-04 9.96544E-04 1.10381E-25-2.23929E-04 1.20636E-13-2.13801E-13
 -1        52-4.58843E-04 2.18731E-03 4.80673E-26-3.96834E-04 1.95722E-13-3.82726E-14
 -1        53-8.19378E-04 3.82937E-03 1.61480E-25-6.00756E-04 2.08954E-13 2.29459E-13
 -1        54-1.23428E-03 5.94426E-03 3.40384E-25-7.88761E-04 1.46395E-13 3.92419E-13
 -1        55-1.76773E-03 8.30386E-03 3.80789E-25-8.39905E-04 3.19759E-14 4.38774E-13
 -1        56-2.22072E-03 1.04456E-02 1.64025E-25-6.99327E-04-7.68421E-14 2.88769E-13
 -1        57-2.58944E-03 1.21873E-02 3.65443E-26-5.46678E-04-1.13574E-13 1.28844E-13
 -1        58-2.90669E-03 1.36331E-02 2.64335E-26-4.22331E-04-8.78803E-14-1.10638E-13
 -1        59-3.16225E-03 1.45032E-02 2.55705E-26-1.09376E-04-4.51068E-14-1.07397E-13
 -1        60-3.07183E-03 1.41626E-02 4.21020E-26 4.08830E-04-2.14713E-14-1.45220E-13
 -1        61-2.67732E-03 1.24029E-02 5.15151E-26 8.75839E-04-4.31319E-14-1.63017E-13
 -1        62-2.04740E-03 9.56452E-03 1.72984E-25 1.17890E-03-9.82049E-14-2.88665E-13
 -1        63-1.26474E-03 5.78871E-03 4.65739E-25 1.54136E-03-9.65649E-14-4.76699E-13
 -1        64-1.01192E-04 6.05481E-04 4.76578E-25 2.13224E-03-6.72942E-15-4.92461E-13
 -1        65 1.41676E-03-6.33619E-03 2.07916E-25 2.66684E-03 9.99577E-14-3.27416E-13
 -1        66 3.13889E-03-1.42617E-02 2.13694E-26 2.69508E-03 1.33177E-13-6.01074E-14
 -1        67 4.73417E-03-2.14823E-02 6.12797E-27 2.22036E-03 6.10395E-14 5.15592E-14
 -1        68 5.58131E-03-2.69628E-02 9.31471E-27 1.28862E-03-4.84732E-14 6.18705E-14
 -1        69 7.72696E-03-2.95148E-02 9.08125E-27 2.15340E-03-7.14294E-14-1.47512E-14
 -1        70-1.99458E-04 9.96544E-04 1.10380E-25-2.23929E-04 1.20635E-13-2.13799E-13
 -1        71-4.58843E-04 2.18731E-03 4.80682E-26-3.96834E-04 1.95722E-13-3.82742E-14
 -1        72-8.19378E-04 3.82937E-03 1.61476E-25-6.00756E-04 2.08954E-13 2.29454E-13
 -1        73-1.23428E-03 5.94426E-03 3.40363E-25-7.88761E-04 1.46395E-13 3.92407E-13
 -1        74-1.76773E-03 8.30386E-03 3.80800E-25-8.39905E-04 3.19752E-14 4.38781E-13
 -1        75-2.22072E-03 1.04456E-02 1.64025E-25-6.99327E-04-7.68421E-14 2.88769E-13
 -1        76-2.58944E-03 1.21873E-02 3.65447E-26-5.46678E-04-1.13574E-13 1.28842E-13
 -1        77-2.90669E-03 1.36331E-02 2.64260E-26-4.22331E-04-8.78779E-14-1.10618E-13
 -1        78-3.16225E-03 1.45032E-02 2.55723E-26-1.09376E-04-4.51076E-14-1.07400E-13
 -1        79-3.07183E-03 1.41626E-02 4.21020E-26 4.08830E-04-2.14700E-14-1.45220E-13
 -1        80-2.67732E-03 1.24029E-02 5.15150E-26 8.75839E-04-4.31317E-14-1.63017E-13
 -1        81-2.04740E-03 9.56452E-03 1.72981E-25 1.17890E-03-9.82049E-14-2.88664E-13
 -1        82-1.26474E-03 5.78871E-03 4.65758E-25 1.54136E-03-9.65658E-14-4.76709E-13
 -1        83-1.01192E-04 6.05481E-04 4.76578E-25 2.13224E-03-6.72933E-15-4.92462E-13
 -1        84 1.41676E-03-6.33619E-03 2.07922E-25 2.66684E-03 9.99571E-14-3.27421E-13
 -1        85 3.13889E-03-1.42617E-02 2.13680E-26 2.69508E-03 1.33177E-13-6.01067E-14
 -1        86 4.73417E-03-2.14823E-02 6.12786E-27 2.22036E-03 6.10383E-14 5.15608E-14
 -1        87 5.58131E-03-2.69628E-02 9.31473E-27 1.28862E-03-4.84732E-14 6.18705E-14
 -1        88 7.72696E-03-2.95148E-02 9.08125E-27 2.15340E-03-7.14294E-14-1.47512E-14
 -1        89 9.72106E-05-9.63314E-04 2.33051E-27 7.33144E-04-4.61561E-14-2.26949E-14
 -1        90 3.31743E-05-8.18537E-04 1.84813E-26 2.04558E-03-4.26239E-14 9.28925E-14
 -1        91 7.05512E-05-6.26539E-04 1.22956E-26 2.84441E-03-4.70933E-15 1.01680E-13
 -1        92 7.74722E-05-4.13044E-04-8.28376E-27 3.53094E-03-1.56927E-14-9.24281E-14
 -1        93 8.01180E-05-2.39659E-04 2.29884E-25 3.47235E-03-5.83514E-14-3.51330E-13
 -1        94 1.96825E-05-1.06332E-04 5.40659E-25 2.78847E-03-6.56368E-14-5.18754E-13
 -1        95-3.11977E-05-2.66668E-05 4.61249E-25 2.02115E-03-4.25360E-14-4.84272E-13
 -1        96-3.43286E-05-1.61765E-05 1.12953E-25 1.53117E-03 7.94888E-15-2.53131E-13
 -1        97-4.75300E-05-2.52528E-05 3.84222E-26 1.12596E-03 3.85478E-14-1.39855E-13
 -1        98-8.69198E-05-2.17831E-05 5.93178E-26 5.25607E-04 2.30484E-14-1.71787E-13
 -1        99-7.33819E-05-2.72888E-05 4.08789E-26-1.45896E-04 2.46418E-16-1.46162E-13
 -1       100-3.66422E-05-3.05410E-05 7.83873E-27-5.63959E-04 1.48458E-14-9.52955E-14
 -1       101-4.37685E-05 1.90210E-05 1.63435E-27-7.27674E-04 3.88325E-14 9.90401E-14
 -1       102-9.02441E-05 1.09495E-04 1.85867E-25-9.11648E-04 4.52417E-14 3.13988E-13
 -1       103-8.09049E-05 1.89223E-04 4.31744E-25-1.09313E-03 4.95642E-14 4.64109E-13
 -1       104-8.91960E-05 2.76252E-04 2.97961E-25-1.04794E-03 3.29882E-14 3.91234E-13
 -1       105-1.47268E-04 3.71220E-04 7.51773E-26-8.16742E-04 2.83135E-15 2.24227E-13
 -1       106-1.55886E-04 4.06438E-04-2.65293E-26-5.54669E-04-3.29452E-15-1.47095E-14
 -1       107-1.07343E-04 3.84376E-04 8.51807E-26-3.06467E-04 1.44903E-14-2.18936E-13
 -1       108-1.07343E-04 3.84376E-04 8.51844E-26-3.06467E-04 1.44911E-14-2.18940E-13
 -1       109-1.55886E-04 4.06438E-04-2.65302E-26-5.54669E-04-3.29452E-15-1.47053E-14
 -1       110-1.47268E-04 3.71220E-04 7.51759E-26-8.16742E-04 2.83129E-15 2.24226E-13
 -1       111-8.91960E-05 2.76252E-04 2.97976E-25-1.04794E-03 3.29883E-14 3.91244E-13
 -1       112-8.09049E-05 1.89223E-04 4.31737E-25-1.09313E-03 4.95643E-14 4.64105E-13
 -1       113-9.02441E-05 1.09495E-04 1.85872E-25-9.11648E-04 4.52419E-14 3.13993E-13
 -1       114-4.37685E-05 1.90210E-05 1.63350E-27-7.27674E-04 3.88325E-14 9.90380E-14
 -1       115-3.66422E-05-3.05410E-05 7.83822E-27-5.63959E-04 1.48457E-14-9.52918E-14
 -1       116-7.33819E-05-2.72888E-05 4.08802E-26-1.45896E-04 2.46608E-16-1.46164E-13
 -1       117-8.69198E-05-2.17831E-05 5.93178E-26 5.25607E-04 2.30482E-14-1.71787E-13
 -1       118-4.75300E-05-2.52528E-05 3.84223E-26 1.12596E-03 3.85474E-14-1.39855E-13
 -1       119-3.43286E-05-1.61765E-05 1.12960E-25 1.53117E-03 7.94831E-15-2.53137E-13
 -1       120-3.11977E-05-2.66668E-05 4.61251E-25 2.02115E-03-4.25359E-14-4.84272E-13
 -1       121 1.96825E-05-1.06332E-04 5.40647E-25 2.78847E-03-6.56367E-14-5.18748E-13
 -1       122 8.01180E-05-2.39659E-04 2.29881E-25 3.47235E-03-5.83511E-14-3.51327E-13
 -1       123 7.74722E-05-4.13044E-04-8.28132E-27 3.53094E-03-1.56923E-14-9.24316E-14
 -1       124 7.05512E-05-6.26539E-04 1.22955E-26 2.84441E-03-4.70917E-15 1.01680E-13
 -1       125 3.31743E-05-8.18537E-04 1.84813E-26 2.04558E-03-4.26238E-14 9.28925E-14
 -1       126 9.72106E-05-9.63314E-04 2.33051E-27 7.33144E-04-4.61561E-14-2.26949E-14
 -3
    1PSTEP                       124          31           1          
  100CL  131 3.10000E-01         126                     1   31           1
 -4  ERROR       1    1
 -5  STR(%)      1    1    0    0
 -1         1 6.42949E+01
 -1         2 6.42949E+01
 -1         3 5.43961E+01
 -1         4 5.43961E+01
 -1         5 6.44207E+00
 -1         6 6.44207E+00
 -1         7 5.83363E+01
 -1         8 5.83363E+01
 -1         9 5.43961E+01
 -1        10 5.43961E+01
 -1        11 6.42949E+01
 -1        12 6.42949E+01
 -1        13 6.46543E+01
 -1        14 6.53105E+01
 -1        15 6.53105E+01
 -1        16 6.35933E+01
 -1        17 5.35844E+01
 -1        18 3.56709E+01
 -1        19 5.92837E+01
 -1        20 6.14452E+01
 -1        21 6.14452E+01
 -1        22 6.09176E+01
 -1        23 5.99975E+01
 -1        24 6.06787E+01
 -1        25 6.13761E+01
 -1        26 6.30806E+01
 -1        27 6.36470E+01
 -1        28 6.44022E+01
 -1        29 6.55492E+01
 -1        30 6.57300E+01
 -1        31 6.57300E+01
 -1        32 6.46543E+01
 -1        33 6.53105E+01
 -1        34 6.53105E+01
 -1        35 6.35933E+01
 -1        36 5.35844E+01
 -1        37 3.56709E+01
 -1        38 5.92837E+01
 -1        39 6.14452E+01
 -1        40 6.14452E+01
 -1        41 6.09176E+01
 -1        42 5.99975E+01
 -1        43 6.06787E+01
 -1        44 6.13761E+01
 -1        45 6.30806E+01
 -1        46 6.36470E+01
 -1        47 6.44022E+01
 -1        48 6.55492E+01
 -1        49 6.57300E+01
 -1        50 6.57300E+01
 -1        51 3.40034E+01
 -1        52 4.70545E+01
 -1        53 5.47606E+01
 -1        54 5.88367E+01
 -1        55 6.07219E+01
 -1        56 6.11852E+01
 -1        57 6.15223E+01
 -1        58 6.15223E+01
 -1        59 6.09587E+01
 -1        60 6.18526E+01
 -1        61 6.23485E+01
 -1        62 6.23485E+01
 -1        63 5.99474E+01
 -1        64 3.57981E+01
 -1        65 4.98517E+01
 -1        66 5.83142E+01
 -1        67 5.90801E+01
 -1        68 5.90801E+01
 -1        69 5.83363E+01
 -1        70 3.40034E+01
 -1        71 4.70545E+01
 -1        72 5.47606E+01
 -1        73 5.88367E+01
 -1        74 6.07219E+01
 -1        75 6.11852E+01
 -1        76 6.15223E+01
 -1        77 6.15223E+01
 -1        78 6.09587E+01
 -1        79 6.18526E+01
 -1        80 6.23485E+01
 -1        81 6.23485E+01
 -1        82 5.99474E+01
 -1        83 3.57981E+01
 -1        84 4.98517E+01
 -1        85 5.83142E+01
 -1        86 5.90801E+01
 -1        87 5.90801E+01
 -1        88 5.83363E+01
 -1        89 6.46543E+01
 -1        90 6.53105E+01
 -1        91 6.53105E+01
 -1        92 6.35933E+01
 -1        93 5.35844E+01
 -1        94 3.57981E+01
 -1        95 5.99474E+01
 -1        96 6.23485E+01
 -1        97 6.23485E+01
 -1        98 6.18526E+01
 -1        99 6.09587E+01
 -1       100 6.15223E+01
 -1       101 6.15223E+01
 -1       102 6.30806E+01
 -1       103 6.36470E+01
 -1       104 6.44022E+01
 -1       105 6.55492E+01
 -1       106 6.57300E+01
 -1       107 6.57300E+01
 -1       108 6.57300E+01
 -1       109 6.57300E+01
 -1       110 6.55492E+01
 -1       111 6.44022E+01
 -1       112 6.36470E+01
 -1       113 6.30806E+01
 -1       114 6.15223E+01
 -1       115 6.15223E+01
 -1       116 6.09587E+01
 -1       117 6.18526E+01
 -1       118 6.23485E+01
 -1       119 6.23485E+01
 -1       120 5.99474E+01
 -1       121 3.57981E+01
 -1       122 5.35844E+01
 -1       123 6.35933E+01
 -1       124 6.53105E+01
 -1       125 6.53105E+01
 -1       126 6.46543E+01
 -3
    1PSTEP                       125          32           1          
  100CL  132 3.20000E-01         126                     1   32           1
 -4  DISP        4    1
 -5  D1          1    2    1    0
 -5  D2          1    2    2    0
 -5  D3          1    2    3    0
 -5  ALL         1    2    0    0    1ALL
 -1         1 0.00000E+00 0.00000E+00 0.00000E+00
 -1         2 0.00000E+00 0.00000E+00 0.00000E+00
 -1         3 5.80081E-02-2.46423E-03 0.00000E+00
 -1         4 5.80081E-02-2.46423E-03 0.00000E+00
 -1         5 5.80007E-02-3.03904E-03 0.00000E+00
 -1         6 5.80007E-02-3.03904E-03 0.00000E+00
 -1         7 0.00000E+00 0.00000E+00 0.00000E+00
 -1         8 0.00000E+00 0.00000E+00 0.00000E+00
 -1         9 5.80025E-02-2.74296E-03 0.00000E+00
 -1        10 5.80025E-02-2.74296E-03 0.00000E+00
 -1        11 0.00000E+00 0.00000E+00 0.00000E+00
 -1        12 0.00000E+00 0.00000E+00 0.00000E+00
 -1        13 1.09256E-03 1.47040E-03 0.00000E+00
 -1        14 3.57743E-03 2.86273E-03 0.00000E+00
 -1        15 7.62227E-03 3.90356E-03 0.00000E+00
 -1        16 1.27988E-02 4.48477E-03 0.00000E+00
 -1        17 1.85978E-02 4.59221E-03 0.00000E+00
 -1        18 2.45625E-02 4.32493E-03 0.00000E+00
 -1        19 3.03915E-02 3.79516E-03 0.00000E+00
 -1        20 3.58743E-02 3.08045E-03 0.00000E+00
 -1        21 4.08066E-02 2.24616E-03 0.00000E+00
 -1        22 4.50382E-02 1.37346E-03 0.00000E+00
 -1        23 4.85219E-02 5.43320E-04 0.00000E+00
 -1        24 5.13134E-02-2.05950E-04 0.00000E+00
 -1        25 5.34609E-02-8.65484E-04 0.00000E+00
 -1        26 5.50163E-02-1.42245E-03 0.00000E+00
 -1        27 5.60645E-02-1.85657E-03 0.00000E+00
 -1        28 5.67435E-02-2.15914E-03 0.00000E+00
 -1        29 5.71877E-02-2.34621E-03 0.00000E+00
 -1        30 5.74957E-02-2.44284E-03 0.00000E+00
 -1        31 5.77442E-02-2.47025E-03 0.00000E+00
 -1        32 1.09256E-03 1.47040E-03 0.00000E+00
 -1        33 3.57743E-03 2.86273E-03 0.00000E+00
 -1        34 7.62227E-03 3.90356E-03 0.00000E+00
 -1        35 1.27988E-02 4.48477E-03 0.00000E+00
 -1        36 1.85978E-02 4.59221E-03 0.00000E+00
 -1        37 2.45625E-02 4.32493E-03 0.00000E+00
 -1        38 3.03915E-02 3.79516E-03 0.00000E+00
 -1        39 3.58743E-02 3.08045E-03 0.00000E+00
 -1        40 4.08066E-02 2.24616E-03 0.00000E+00
 -1        41 4.50382E-02 1.37346E-03 0.00000E+00
 -1        42 4.85219E-02 5.43320E-04 0.00000E+00
 -1        43 5.13134E-02-2.05950E-04 0.00000E+00
 -1        44 5.34609E-02-8.65484E-04 0.00000E+00
 -1        45 5.50163E-02-1.42245E-03 0.00000E+00
 -1        46 5.60645E-02-1.85657E-03 0.00000E+00
 -1        47 5.67435E-02-2.15914E-03 0.00000E+00
 -1        48 5.71877E-02-2.34621E-03 0.00000E+00
 -1        49 5.74957E-02-2.44284E-03 0.00000E+00
 -1        50 5.77442E-02-2.47025E-03 0.00000E+00
 -1        51 5.77332E-02-3.05472E-03 0.00000E+00
 -1        52 5.74828E-02-3.11111E-03 0.00000E+00
 -1        53 5.71696E-02-3.23509E-03 0.00000E+00
 -1        54 5.67189E-02-3.44545E-03 0.00000E+00
 -1        55 5.60328E-02-3.76191E-03 0.00000E+00
 -1        56 5.49665E-02-4.19130E-03 0.00000E+00
 -1        57 5.33755E-02-4.70801E-03 0.00000E+00
 -1        58 5.11767E-02-5.27105E-03 0.00000E+00
 -1        59 4.83136E-02-5.84727E-03 0.00000E+00
 -1        60 4.47350E-02-6.40419E-03 0.00000E+00
 -1        61 4.03907E-02-6.87789E-03 0.00000E+00
 -1        62 3.53469E-02-7.18272E-03 0.00000E+00
 -1        63 2.97819E-02-7.25882E-03 0.00000E+00
 -1        64 2.39139E-02-7.07880E-03 0.00000E+00
 -1        65 1.79730E-02-6.60939E-03 0.00000E+00
 -1        66 1.22748E-02-5.80249E-03 0.00000E+00
 -1        67 7.26063E-03-4.64252E-03 0.00000E+00
 -1        68 3.39090E-03-3.20431E-03 0.00000E+00
 -1        69 1.05170E-03-1.58947E-03 0.00000E+00
 -1        70 5.77332E-02-3.05472E-03 0.00000E+00
 -1        71 5.74828E-02-3.11111E-03 0.00000E+00
 -1        72 5.71696E-02-3.23509E-03 0.00000E+00
 -1        73 5.67189E-02-3.44545E-03 0.00000E+00
 -1        74 5.60328E-02-3.76191E-03 0.00000E+00
 -1        75 5.49665E-02-4.19130E-03 0.00000E+00
 -1        76 5.33755E-02-4.70801E-03 0.00000E+00
 -1        77 5.11767E-02-5.27105E-03 0.00000E+00
 -1        78 4.83136E-02-5.84727E-03 0.00000E+00
 -1        79 4.47350E-02-6.40419E-03 0.00000E+00
 -1        80 4.03907E-02-6.87789E-03 0.00000E+00
 -1        81 3.53469E-02-7.18272E-03 0.00000E+00
 -1        82 2.97819E-02-7.25882E-03 0.00000E+00
 -1        83 2.39139E-02-7.07880E-03 0.00000E+00
 -1        84 1.79730E-02-6.60939E-03 0.00000E+00
 -1        85 1.22748E-02-5.80249E-03 0.00000E+00
 -1        86 7.26063E-03-4.64252E-03 0.00000E+00
 -1        87 3.39090E-03-3.20431E-03 0.00000E+00
 -1        88 1.05170E-03-1.58947E-03 0.00000E+00
 -1        89 6.68100E-04-4.95544E-05 0.00000E+00
 -1        90 3.19183E-03-1.50316E-04 0.00000E+00
 -1        91 7.20572E-03-3.44476E-04 0.00000E+00
 -1        92 1.23912E-02-6.40789E-04 0.00000E+00
 -1        93 1.82234E-02-1.00058E-03 0.00000E+00
 -1        94 2.42416E-02-1.37738E-03 0.00000E+00
 -1        95 3.01442E-02-1.73943E-03 0.00000E+00
 -1        96 3.57109E-02-2.06269E-03 0.00000E+00
 -1        97 4.07296E-02-2.32857E-03 0.00000E+00
 -1        98 4.50285E-02-2.52727E-03 0.00000E+00
 -1        99 4.85592E-02-2.66203E-03 0.00000E+00
 -1       100 5.13776E-02-2.74585E-03 0.00000E+00
 -1       101 5.35375E-02-2.79118E-03 0.00000E+00
 -1       102 5.50898E-02-2.80954E-03 0.00000E+00
 -1       103 5.61239E-02-2.81090E-03 0.00000E+00
 -1       104 5.67810E-02-2.80195E-03 0.00000E+00
 -1       105 5.72073E-02-2.78873E-03 0.00000E+00
 -1       106 5.74999E-02-2.77488E-03 0.00000E+00
 -1       107 5.77398E-02-2.75969E-03 0.00000E+00
 -1       108 5.77398E-02-2.75969E-03 0.00000E+00
 -1       109 5.74999E-02-2.77488E-03 0.00000E+00
 -1       110 5.72073E-02-2.78873E-03 0.00000E+00
 -1       111 5.67810E-02-2.80195E-03 0.00000E+00
 -1       112 5.61239E-02-2.81090E-03 0.00000E+00
 -1       113 5.50898E-02-2.80954E-03 0.00000E+00
 -1       114 5.35375E-02-2.79118E-03 0.00000E+00
 -1       115 5.13776E-02-2.74585E-03 0.00000E+00
 -1       116 4.85592E-02-2.66203E-03 0.00000E+00
 -1       117 4.50285E-02-2.52727E-03 0.00000E+00
 -1       118 4.07296E-02-2.32857E-03 0.00000E+00
 -1       119 3.57109E-02-2.06269E-03 0.00000E+00
 -1       120 3.01442E-02-1.73943E-03 0.00000E+00
 -1       121 2.42416E-02-1.37738E-03 0.00000E+00
 -1       122 1.82234E-02-1.00058E-03 0.00000E+00
 -1       123 1.23912E-02-6.40789E-04 0.00000E+00
 -1       124 7.20572E-03-3.44476E-04 0.00000E+00
 -1       125 3.19183E-03-1.50316E-04 0.00000E+00
 -1       126 6.68100E-04-4.95544E-05 0.00000E+00
 -3
    1PSTEP                       126          32           1          
  100CL  132 3.20000E-01         126                     1   32           1
 -4  STRESS      6    1
 -5  SXX         1    4    1    1
 -5  SYY         1    4    2    2
 -5  SZZ         1    4    3    3
 -5  SXY         1    4    1    2
 -5  SYZ         1    4    2    3
 -5  SZX         1    4    3    1
 -1         1 6.85487E+03 1.64750E+04 6.74223E+03 3.66841E+03 4.18975E-10 4.23841E-10
 -1         2 6.85487E+03 1.64750E+04 6.74223E+03 3.66841E+03 4.18975E-10 4.23841E-10
 -1         3-2.14610E+01 5.06235E+01 8.73850E+00-4.54720E+01 1.83566E-08-6.29623E-08
 -1         4-2.14610E+01 5.06235E+01 8.73850E+00-4.54720E+01 1.83566E-08-6.29623E-08
 -1         5 6.56426E+01 1.73852E+02 7.17854E+01-8.77198E+01-3.75512E-09-6.83304E-08
 -1         6 6.56426E+01 1.73852E+02 7.17854E+01-8.77198E+01-3.75512E-09-6.83233E-08
 -1         7-7.30717E+03-1.63835E+04-7.40267E+03 2.92597E+03 5.45788E-10-4.85498E-10
 -1         8-7.30717E+03-1.63835E+04-7.40267E+03 2.92597E+03 5.45788E-10-4.85498E-10
 -1         9 4.90378E+01 1.75493E+02 6.73002E+01-7.59689E+01 6.05732E-09-6.82185E-08
 -1        10 4.90378E+01 1.75493E+02 6.73002E+01-7.59689E+01 6.05726E-09-6.82198E-08
 -1        11-1.90706E+02-6.78365E+02-2.08135E+02 2.04670E+03 4.38129E-10 2.68378E-11
 -1        12-1.90706E+02-6.78365E+02-2.08135E+02 2.04670E+03 4.38129E-10 2.68378E-11
 -1        13 2.56600E+03 1.44731E+04 4.92329E+03 1.05469E+03 3.18977E-08 8.33238E-08
 -1        14 3.10821E+03 1.32970E+04 4.75238E+03 1.12363E+03 8.89538E-09 1.35748E-07
 -1        15 2.42600E+03 1.00193E+04 3.63055E+03 1.48758E+03-3.51621E-08 1.34966E-07
 -1        16 1.67713E+03 6.15267E+03 2.30434E+03 1.38055E+03-6.83956E-08 1.23396E-07
 -1        17 7.84468E+02 2.40499E+03 9.45475E+02 9.97729E+02-6.06619E-08 8.42685E-09
 -1        18-2.97267E+01-6.36652E+02-2.03614E+02 5.67281E+02-2.43786E-08-8.57337E-08
 -1        19-6.53582E+02-3.00062E+03-1.10717E+03 2.40391E+02 8.01524E-09-8.61475E-08
 -1        20-1.16645E+03-4.87826E+03-1.83878E+03 3.47056E+00 2.79654E-08-5.94767E-08
 -1        21-1.51438E+03-6.16713E+03-2.34424E+03-1.91974E+02 3.04203E-08-1.33185E-08
 -1        22-1.70471E+03-6.71892E+03-2.57394E+03-3.25887E+02 2.20182E-08 2.66468E-08
 -1        23-1.69204E+03-6.61808E+03-2.53782E+03-3.61759E+02 2.36270E-08 1.68661E-09
 -1        24-1.59274E+03-6.18520E+03-2.37222E+03-3.28379E+02 2.81203E-08 1.36981E-08
 -1        25-1.43180E+03-5.53908E+03-2.12244E+03-3.02718E+02 2.10533E-08 6.30193E-08
 -1        26-1.21751E+03-4.64298E+03-1.78021E+03-3.05146E+02 1.33880E-09 9.62845E-08
 -1        27-9.34943E+02-3.52118E+03-1.34959E+03-2.99754E+02-2.11126E-08 6.11631E-08
 -1        28-6.71908E+02-2.38691E+03-9.23532E+02-2.58233E+02-3.11846E-08 1.72855E-08
 -1        29-4.19702E+02-1.40378E+03-5.49173E+02-2.07409E+02-2.30631E-08-5.19740E-08
 -1        30-2.27447E+02-6.31700E+02-2.58290E+02-1.66397E+02-2.51494E-10-6.76102E-08
 -1        31-8.50684E+01-1.23015E+02-6.24949E+01-1.02299E+02 1.54640E-08-6.82784E-08
 -1        32 2.56600E+03 1.44731E+04 4.92329E+03 1.05469E+03 3.18977E-08 8.33238E-08
 -1        33 3.10821E+03 1.32970E+04 4.75238E+03 1.12363E+03 8.89540E-09 1.35748E-07
 -1        34 2.42600E+03 1.00193E+04 3.63055E+03 1.48758E+03-3.51621E-08 1.34966E-07
 -1        35 1.67713E+03 6.15267E+03 2.30434E+03 1.38055E+03-6.83955E-08 1.23396E-07
 -1        36 7.84468E+02 2.40499E+03 9.45475E+02 9.97729E+02-6.06619E-08 8.42651E-09
 -1        37-2.97267E+01-6.36652E+02-2.03614E+02 5.67281E+02-2.43787E-08-8.57323E-08
 -1        38-6.53582E+02-3.00062E+03-1.10717E+03 2.40391E+02 8.01530E-09-8.61477E-08
 -1        39-1.16645E+03-4.87826E+03-1.83878E+03 3.47056E+00 2.79654E-08-5.94768E-08
 -1        40-1.51438E+03-6.16713E+03-2.34424E+03-1.91974E+02 3.04203E-08-1.33190E-08
 -1        41-1.70471E+03-6.71892E+03-2.57394E+03-3.25887E+02 2.20181E-08 2.66487E-08
 -1        42-1.69204E+03-6.61808E+03-2.53782E+03-3.61759E+02 2.36270E-08 1.68661E-09
 -1        43-1.59274E+03-6.18520E+03-2.37222E+03-3.28379E+02 2.81203E-08 1.36981E-08
 -1        44-1.43180E+03-5.53908E+03-2.12244E+03-3.02718E+02 2.10533E-08 6.30197E-08
 -1        45-1.21751E+03-4.64298E+03-1.78021E+03-3.05146E+02 1.33885E-09 9.62844E-08
 -1        46-9.34943E+02-3.52118E+03-1.34959E+03-2.99754E+02-2.11125E-08 6.11631E-08
 -1        47-6.71908E+02-2.38691E+03-9.23532E+02-2.58233E+02-3.11846E-08 1.72855E-08
 -1        48-4.19702E+02-1.40378E+03-5.49173E+02-2.07409E+02-2.30633E-08-5.19784E-08
 -1        49-2.27447E+02-6.31700E+02-2.58290E+02-1.66397E+02-2.51327E-10-6.76092E-08
 -1        50-8.50684E+01-1.23015E+02-6.24949E+01-1.02299E+02 1.54637E-08-6.82775E-08
 -1        51 1.06646E+02 3.70768E+02 1.42990E+02-1.10478E+02-3.10785E-09-6.43841E-08
 -1        52 2.45920E+02 9.11015E+02 3.46040E+02-1.66032E+02 9.14917E-09-6.58004E-08
 -1        53 3.91719E+02 1.66388E+03 6.13643E+02-1.94060E+02 3.25846E-08-5.80348E-08
 -1        54 6.01919E+02 2.63138E+03 9.62818E+02-2.20761E+02 4.62938E-08 9.92254E-09
 -1        55 8.69018E+02 3.77254E+03 1.37817E+03-2.06146E+02 3.68242E-08 6.87833E-08
 -1        56 1.14122E+03 4.88360E+03 1.78407E+03-1.14837E+02 1.00041E-08 8.44221E-08
 -1        57 1.31305E+03 5.72268E+03 2.07927E+03 1.54152E+01-1.44418E-08 5.56369E-08
 -1        58 1.46112E+03 6.30088E+03 2.29088E+03 1.40443E+02-2.07955E-08 2.90285E-08
 -1        59 1.56919E+03 6.65966E+03 2.42655E+03 2.75342E+02-7.47236E-09-5.26026E-09
 -1        60 1.61797E+03 6.65452E+03 2.43885E+03 4.63866E+02-4.80283E-09 8.82900E-09
 -1        61 1.49218E+03 5.96512E+03 2.20150E+03 6.61894E+02-1.79895E-08-3.54852E-09
 -1        62 1.21435E+03 4.54589E+03 1.70585E+03 7.52224E+02-1.27072E-08-5.29064E-08
 -1        63 7.98930E+02 2.58131E+03 1.00480E+03 7.15781E+02 2.00594E-08-9.07768E-08
 -1        64 2.44349E+02 1.24018E+02 1.06999E+02 6.21643E+02 5.75407E-08-6.28984E-08
 -1        65-5.21520E+02-3.00222E+03-1.07067E+03 5.03203E+02 7.04903E-08 4.43887E-09
 -1        66-1.44120E+03-6.72558E+03-2.50196E+03 3.10462E+02 4.17293E-08 1.04598E-07
 -1        67-2.37336E+03-1.04178E+04-3.95656E+03 7.96611E+01-4.61078E-09 1.61840E-07
 -1        68-3.36269E+03-1.34339E+04-5.23580E+03-1.60686E+02-2.84502E-08 1.54917E-07
 -1        69-2.78303E+03-1.43696E+04-5.36364E+03 2.70975E+02-2.73411E-08 9.75050E-08
 -1        70 1.06646E+02 3.70768E+02 1.42990E+02-1.10478E+02-3.10791E-09-6.43856E-08
 -1        71 2.45920E+02 9.11015E+02 3.46040E+02-1.66032E+02 9.14940E-09-6.58003E-08
 -1        72 3.91719E+02 1.66388E+03 6.13643E+02-1.94060E+02 3.25846E-08-5.80350E-08
 -1        73 6.01919E+02 2.63138E+03 9.62818E+02-2.20761E+02 4.62938E-08 9.92248E-09
 -1        74 8.69018E+02 3.77254E+03 1.37817E+03-2.06146E+02 3.68242E-08 6.87840E-08
 -1        75 1.14122E+03 4.88360E+03 1.78407E+03-1.14837E+02 1.00040E-08 8.44217E-08
 -1        76 1.31305E+03 5.72268E+03 2.07927E+03 1.54152E+01-1.44420E-08 5.56382E-08
 -1        77 1.46112E+03 6.30088E+03 2.29088E+03 1.40443E+02-2.07957E-08 2.90206E-08
 -1        78 1.56919E+03 6.65966E+03 2.42655E+03 2.75342E+02-7.47283E-09-5.25589E-09
 -1        79 1.61797E+03 6.65452E+03 2.43885E+03 4.63866E+02-4.80238E-09 8.82985E-09
 -1        80 1.49218E+03 5.96512E+03 2.20150E+03 6.61894E+02-1.79897E-08-3.55122E-09
 -1        81 1.21435E+03 4.54589E+03 1.70585E+03 7.52224E+02-1.27071E-08-5.29100E-08
 -1        82 7.98930E+02 2.58131E+03 1.00480E+03 7.15781E+02 2.00594E-08-9.07776E-08
 -1        83 2.44349E+02 1.24018E+02 1.06999E+02 6.21643E+02 5.75412E-08-6.28997E-08
 -1        84-5.21520E+02-3.00222E+03-1.07067E+03 5.03203E+02 7.04891E-08 4.43932E-09
 -1        85-1.44120E+03-6.72558E+03-2.50196E+03 3.10462E+02 4.17293E-08 1.04598E-07
 -1        86-2.37336E+03-1.04178E+04-3.95656E+03 7.96611E+01-4.61037E-09 1.61839E-07
 -1        87-3.36269E+03-1.34339E+04-5.23580E+03-1.60686E+02-2.84502E-08 1.54917E-07
 -1        88-2.78303E+03-1.43696E+04-5.36364E+03 2.70975E+02-2.73411E-08 9.75050E-08
 -1        89-1.66756E+01-6.36883E+02-1.83207E+02 1.89531E+02 3.29723E-09 8.60721E-08
 -1        90-3.25703E+00-6.27087E+02-1.70099E+02 6.98397E+02-9.79343E-09 1.48500E-07
 -1        91 1.18313E+02-5.76735E+02-1.29611E+02 9.71758E+02-2.57795E-08 1.61967E-07
 -1        92 1.93001E+02-4.97872E+02-8.95375E+01 1.08966E+03-1.67241E-08 1.15097E-07
 -1        93 1.88285E+02-3.92037E+02-6.27402E+01 9.69827E+02 1.17908E-08 6.95349E-09
 -1        94 1.50462E+02-3.11865E+02-5.04279E+01 7.73056E+02 2.03454E-08-7.97807E-08
 -1        95 1.10103E+02-2.74367E+02-4.97406E+01 6.20294E+02 1.67828E-08-9.30800E-08
 -1        96 5.94394E+01-2.58066E+02-5.79575E+01 4.80184E+02 1.03930E-08-6.15525E-08
 -1        97 1.71521E+01-2.28426E+02-5.99590E+01 2.85493E+02 4.92220E-10-5.90113E-09
 -1        98-2.34815E+01-1.78323E+02-5.56861E+01 7.19404E+01 4.33879E-09 1.77004E-08
 -1        99-4.48672E+01-1.16175E+02-4.28508E+01-6.79967E+01 1.32652E-08-1.18167E-09
 -1       100-5.04656E+01-5.59268E+01-2.69971E+01-1.34974E+02 5.77984E-09 2.60436E-08
 -1       101-4.82041E+01-8.69086E-01-1.09542E+01-2.00511E+02-8.03820E-10 6.41841E-08
 -1       102-3.25961E+01 5.03212E+01 7.86059E+00-2.80184E+02 2.91647E-09 9.03727E-08
 -1       103-2.71016E+01 9.12194E+01 2.06782E+01-3.28609E+02 5.03106E-09 6.87899E-08
 -1       104-2.77804E+01 1.17100E+02 2.74687E+01-3.11505E+02 4.87041E-09 1.07287E-08
 -1       105-1.07058E+01 1.30110E+02 3.59863E+01-2.61095E+02 6.44404E-09-5.66214E-08
 -1       106 1.07263E+01 1.41742E+02 4.57033E+01-2.08499E+02 9.06125E-09-7.78281E-08
 -1       107 2.56804E+01 1.58884E+02 5.52985E+01-1.25741E+02 8.27083E-09-6.49757E-08
 -1       108 2.56804E+01 1.58884E+02 5.52985E+01-1.25741E+02 8.27108E-09-6.49746E-08
 -1       109 1.07263E+01 1.41742E+02 4.57033E+01-2.08499E+02 9.06112E-09-7.78285E-08
 -1       110-1.07058E+01 1.30110E+02 3.59863E+01-2.61095E+02 6.44404E-09-5.66203E-08
 -1       111-2.77804E+01 1.17100E+02 2.74687E+01-3.11505E+02 4.87054E-09 1.07288E-08
 -1       112-2.71016E+01 9.12194E+01 2.06782E+01-3.28609E+02 5.03093E-09 6.87886E-08
 -1       113-3.25961E+01 5.03212E+01 7.86059E+00-2.80184E+02 2.91655E-09 9.03733E-08
 -1       114-4.82041E+01-8.69086E-01-1.09542E+01-2.00511E+02-8.03683E-10 6.41834E-08
 -1       115-5.04656E+01-5.59268E+01-2.69971E+01-1.34974E+02 5.77974E-09 2.60447E-08
 -1       116-4.48672E+01-1.16175E+02-4.28508E+01-6.79967E+01 1.32653E-08-1.18225E-09
 -1       117-2.34815E+01-1.78323E+02-5.56861E+01 7.19404E+01 4.33880E-09 1.76970E-08
 -1       118 1.71521E+01-2.28426E+02-5.99590E+01 2.85493E+02 4.92232E-10-5.90114E-09
 -1       119 5.94394E+01-2.58066E+02-5.79575E+01 4.80184E+02 1.03930E-08-6.15517E-08
 -1       120 1.10103E+02-2.74367E+02-4.97406E+01 6.20294E+02 1.67827E-08-9.30802E-08
 -1       121 1.50462E+02-3.11865E+02-5.04279E+01 7.73056E+02 2.03453E-08-7.97802E-08
 -1       122 1.88285E+02-3.92037E+02-6.27402E+01 9.69827E+02 1.17910E-08 6.95406E-09
 -1       123 1.93001E+02-4.97872E+02-8.95375E+01 1.08966E+03-1.67241E-08 1.15097E-07
 -1       124 1.18313E+02-5.76735E+02-1.29611E+02 9.71758E+02-2.57795E-08 1.61966E-07
 -1       125-3.25703E+00-6.27087E+02-1.70099E+02 6.98397E+02-9.79340E-09 1.48500E-07
 -1       126-1.66756E+01-6.36883E+02-1.83207E+02 1.89531E+02 3.29723E-09 8.60721E-08
 -3
    1PSTEP                       127          32           1          
  100CL  132 3.20000E-01         126                     1   32           1
 -4  TOSTRAIN    6    1
 -5  EXX         1    4    1    1
 -5  EYY         1    4    2    2
 -5  EZZ         1    4    3    3
 -5  EXY         1    4    1    2
 -5  EYZ         1    4    2    3
 -5  EZX         1    4    3    1
 -1         1-8.28764E-05 2.99956E-02-2.70634E-26 1.09255E-02-8.64918E-19 8.61234E-16
 -1         2-8.28764E-05 2.99956E-02-2.70634E-26 1.09255E-02-8.64918E-19 8.61234E-16
 -1         3-9.65984E-05 1.34459E-04 9.01611E-26-1.49036E-04 5.85065E-14-2.04956E-13
 -1         4-9.65984E-05 1.34459E-04 9.01611E-26-1.49036E-04 5.85066E-14-2.04956E-13
 -1         5-1.68973E-05 3.28063E-04 9.85320E-26-2.86831E-04-1.35122E-14-2.21975E-13
 -1         6-1.68973E-05 3.28063E-04 9.85118E-26-2.86831E-04-1.35120E-14-2.21952E-13
 -1         7-8.40841E-05-3.11461E-02-3.56212E-26 1.05169E-02 5.59995E-19-9.04629E-16
 -1         8-8.40841E-05-3.11461E-02-3.56212E-26 1.05169E-02 5.59995E-19-9.04629E-16
 -1         9-5.67478E-05 3.48464E-04 9.85577E-26-2.48953E-04 1.84013E-14-2.21791E-13
 -1        10-5.67478E-05 3.48464E-04 9.85613E-26-2.48953E-04 1.84011E-14-2.21795E-13
 -1        11-8.34803E-05-9.84774E-04-2.55546E-26 6.68092E-03-1.73451E-19 6.70281E-17
 -1        12-8.34803E-05-9.84774E-04-2.55546E-26 6.68092E-03-1.73451E-19 6.70281E-17
 -1        13-8.06948E-03 2.96949E-02 1.43198E-25 2.10050E-03 1.07264E-13 2.65823E-13
 -1        14-5.92888E-03 2.68240E-02 3.80498E-25 1.53306E-03 5.36448E-14 4.35979E-13
 -1        15-4.72522E-03 2.06394E-02 4.05648E-25 2.55302E-03-7.44531E-14 4.45315E-13
 -1        16-2.87916E-03 1.29472E-02 3.87413E-25 2.82189E-03-1.76927E-13 4.21774E-13
 -1        17-1.20818E-03 5.32662E-03 1.87312E-26 2.53986E-03-1.91423E-13 5.01665E-14
 -1        18 1.05168E-04-9.80676E-04 1.40694E-25 2.02105E-03-1.10558E-13-2.67445E-13
 -1        19 1.18882E-03-5.96498E-03 1.54366E-25 1.62170E-03-5.00533E-15-2.81452E-13
 -1        20 2.02073E-03-9.93839E-03 8.53111E-26 1.27060E-03 7.16369E-14-2.02144E-13
 -1        21 2.63345E-03-1.27136E-02 1.43660E-26 7.82591E-04 9.62321E-14-5.23502E-14
 -1        22 2.83403E-03-1.38944E-02 2.05844E-26 2.26063E-04 7.94942E-14 8.09132E-14
 -1        23 2.78456E-03-1.36914E-02 1.08692E-26-1.47816E-04 7.83328E-14 5.77734E-16
 -1        24 2.56067E-03-1.27614E-02 1.48079E-26-3.14758E-04 9.52360E-14 4.00256E-14
 -1        25 2.26421E-03-1.13983E-02 8.53494E-26-4.79873E-04 7.75613E-14 2.02539E-13
 -1        26 1.84758E-03-9.51695E-03 1.90344E-25-6.96045E-04 1.32309E-14 3.13276E-13
 -1        27 1.36556E-03-7.18748E-03 7.94936E-26-8.26455E-04-6.54710E-14 2.00264E-13
 -1        28 8.30845E-04-4.82012E-03 1.03781E-26-7.76288E-04-1.01313E-13 5.73854E-14
 -1        29 4.29109E-04-2.80416E-03 5.56588E-26-6.50176E-04-7.67667E-14-1.68468E-13
 -1        30 1.05941E-04-1.22395E-03 9.44284E-26-5.33751E-04-2.28046E-15-2.19828E-13
 -1        31-6.99930E-05-2.00699E-04 1.02974E-25-3.32140E-04 4.89855E-14-2.22204E-13
 -1        32-8.06948E-03 2.96949E-02 1.43198E-25 2.10050E-03 1.07264E-13 2.65823E-13
 -1        33-5.92888E-03 2.68240E-02 3.80498E-25 1.53306E-03 5.36448E-14 4.35978E-13
 -1        34-4.72522E-03 2.06394E-02 4.05650E-25 2.55302E-03-7.44530E-14 4.45316E-13
 -1        35-2.87916E-03 1.29472E-02 3.87413E-25 2.82189E-03-1.76927E-13 4.21774E-13
 -1        36-1.20818E-03 5.32662E-03 1.87311E-26 2.53986E-03-1.91423E-13 5.01654E-14
 -1        37 1.05168E-04-9.80676E-04 1.40689E-25 2.02105E-03-1.10557E-13-2.67440E-13
 -1        38 1.18882E-03-5.96498E-03 1.54366E-25 1.62170E-03-5.00522E-15-2.81452E-13
 -1        39 2.02073E-03-9.93839E-03 8.53113E-26 1.27060E-03 7.16369E-14-2.02144E-13
 -1        40 2.63345E-03-1.27136E-02 1.43657E-26 7.82591E-04 9.62320E-14-5.23518E-14
 -1        41 2.83403E-03-1.38944E-02 2.05855E-26 2.26063E-04 7.94945E-14 8.09193E-14
 -1        42 2.78456E-03-1.36914E-02 1.08692E-26-1.47816E-04 7.83327E-14 5.77737E-16
 -1        43 2.56067E-03-1.27614E-02 1.48079E-26-3.14758E-04 9.52362E-14 4.00256E-14
 -1        44 2.26421E-03-1.13983E-02 8.53507E-26-4.79873E-04 7.75613E-14 2.02541E-13
 -1        45 1.84758E-03-9.51695E-03 1.90344E-25-6.96045E-04 1.32310E-14 3.13276E-13
 -1        46 1.36556E-03-7.18748E-03 7.94936E-26-8.26455E-04-6.54708E-14 2.00264E-13
 -1        47 8.30845E-04-4.82012E-03 1.03781E-26-7.76288E-04-1.01313E-13 5.73854E-14
 -1        48 4.29109E-04-2.80416E-03 5.56698E-26-6.50176E-04-7.67674E-14-1.68482E-13
 -1        49 1.05941E-04-1.22395E-03 9.44267E-26-5.33751E-04-2.27988E-15-2.19825E-13
 -1        50-6.99930E-05-2.00699E-04 1.02972E-25-3.32140E-04 4.89847E-14-2.22201E-13
 -1        51-1.14384E-04 7.34493E-04 8.71082E-26-3.63051E-04-1.13269E-14-2.09153E-13
 -1        52-3.19546E-04 1.82128E-03 9.16543E-26-5.51281E-04 2.82182E-14-2.13918E-13
 -1        53-7.13245E-04 3.37846E-03 8.15161E-26-6.61732E-04 1.03711E-13-1.89303E-13
 -1        54-1.16146E-03 5.34774E-03 2.58298E-26-7.91830E-04 1.49749E-13 3.04995E-14
 -1        55-1.64322E-03 7.64293E-03 1.16931E-25-8.34857E-04 1.22673E-13 2.21106E-13
 -1        56-2.08896E-03 9.86478E-03 1.48745E-25-6.94311E-04 3.96537E-14 2.72883E-13
 -1        57-2.51164E-03 1.15812E-02 6.52238E-26-4.87634E-04-3.92894E-14 1.82032E-13
 -1        58-2.74826E-03 1.27469E-02 2.05259E-26-3.31984E-04-6.17005E-14 9.73821E-14
 -1        59-2.88566E-03 1.34804E-02-2.48332E-27-1.63092E-04-2.50203E-14-1.54864E-14
 -1        60-2.86327E-03 1.35118E-02 7.54410E-28 2.13270E-04-1.32045E-14 2.97156E-14
 -1        61-2.62936E-03 1.22349E-02 7.55911E-28 7.74494E-04-5.82836E-14-6.04112E-15
 -1        62-2.01851E-03 9.45179E-03 5.15223E-26 1.26244E-03-5.79028E-14-1.66340E-13
 -1        63-1.13015E-03 5.50161E-03 1.75255E-25 1.61435E-03 3.20288E-14-3.00198E-13
 -1        64-3.29100E-05 5.02936E-04 1.37270E-25 2.01346E-03 1.62405E-13-2.24995E-13
 -1        65 1.29071E-03-5.90324E-03 6.86901E-26 2.53164E-03 2.31208E-13-1.24410E-14
 -1        66 2.98530E-03-1.37242E-02 2.26880E-25 2.83484E-03 1.73121E-13 3.24010E-13
 -1        67 4.75429E-03-2.16674E-02 5.39094E-25 2.60430E-03 3.08133E-14 5.26839E-13
 -1        68 5.78953E-03-2.80825E-02 5.15975E-25 1.56060E-03-6.44966E-14 5.10493E-13
 -1        69 8.09480E-03-3.09519E-02 1.90153E-25 2.17881E-03-8.33964E-14 3.20653E-13
 -1        70-1.14384E-04 7.34493E-04 8.71123E-26-3.63051E-04-1.13271E-14-2.09158E-13
 -1        71-3.19546E-04 1.82128E-03 9.16541E-26-5.51281E-04 2.82190E-14-2.13918E-13
 -1        72-7.13245E-04 3.37846E-03 8.15168E-26-6.61732E-04 1.03711E-13-1.89304E-13
 -1        73-1.16146E-03 5.34774E-03 2.58297E-26-7.91830E-04 1.49749E-13 3.04993E-14
 -1        74-1.64322E-03 7.64293E-03 1.16933E-25-8.34857E-04 1.22673E-13 2.21108E-13
 -1        75-2.08896E-03 9.86478E-03 1.48744E-25-6.94311E-04 3.96535E-14 2.72882E-13
 -1        76-2.51164E-03 1.15812E-02 6.52259E-26-4.87634E-04-3.92896E-14 1.82036E-13
 -1        77-2.74826E-03 1.27469E-02 2.05177E-26-3.31984E-04-6.17024E-14 9.73566E-14
 -1        78-2.88566E-03 1.34804E-02-2.48205E-27-1.63092E-04-2.50210E-14-1.54722E-14
 -1        79-2.86327E-03 1.35118E-02 7.54288E-28 2.13270E-04-1.32028E-14 2.97182E-14
 -1        80-2.62936E-03 1.22349E-02 7.55723E-28 7.74494E-04-5.82847E-14-6.04981E-15
 -1        81-2.01851E-03 9.45179E-03 5.15316E-26 1.26244E-03-5.79037E-14-1.66351E-13
 -1        82-1.13015E-03 5.50161E-03 1.75259E-25 1.61435E-03 3.20285E-14-3.00200E-13
 -1        83-3.29100E-05 5.02936E-04 1.37273E-25 2.01346E-03 1.62406E-13-2.24999E-13
 -1        84 1.29071E-03-5.90324E-03 6.86863E-26 2.53164E-03 2.31205E-13-1.24390E-14
 -1        85 2.98530E-03-1.37242E-02 2.26881E-25 2.83484E-03 1.73121E-13 3.24011E-13
 -1        86 4.75429E-03-2.16674E-02 5.39092E-25 2.60430E-03 3.08146E-14 5.26838E-13
 -1        87 5.78953E-03-2.80825E-02 5.15975E-25 1.56060E-03-6.44967E-14 5.10493E-13
 -1        88 8.09480E-03-3.09519E-02 1.90153E-25 2.17881E-03-8.33964E-14 3.20653E-13
 -1        89 1.26586E-05-9.00026E-04 1.33385E-25 6.76209E-04 1.87908E-14 2.79186E-13
 -1        90-6.96767E-05-7.60118E-04 4.59208E-25 2.38126E-03-2.69573E-15 4.83694E-13
 -1        91 1.45332E-05-6.30733E-04 5.63550E-25 3.30978E-03-3.86785E-14 5.31868E-13
 -1        92 5.30727E-05-4.65357E-04 2.49592E-25 3.70091E-03-1.56834E-14 3.77877E-13
 -1        93 4.12662E-05-3.19277E-04-4.66546E-26 3.28613E-03 4.06548E-14 1.79222E-14
 -1        94 3.61289E-05-2.56216E-04 1.24088E-25 2.61953E-03 3.61988E-14-2.65338E-13
 -1        95 2.93306E-05-2.49942E-04 1.87458E-25 2.10566E-03 2.08626E-14-3.06794E-13
 -1        96 1.10621E-06-2.64390E-04 7.35789E-26 1.63445E-03 1.31597E-14-2.02501E-13
 -1        97 2.04383E-06-2.81039E-04-8.11218E-27 9.85807E-04-1.39225E-16-1.92216E-14
 -1        98-1.46236E-05-2.49834E-04 4.33031E-27 2.70589E-04 1.83906E-14 5.62217E-14
 -1        99-5.05483E-05-1.57860E-04 6.30747E-28-2.04019E-04 4.26382E-14-6.58165E-15
 -1       100-9.37903E-05-4.33061E-05 8.69740E-27-4.35174E-04 2.30262E-14 8.36394E-14
 -1       101-1.23713E-04 5.98353E-05 8.20905E-26-6.55238E-04 5.44037E-15 2.08565E-13
 -1       102-1.20690E-04 1.42763E-04 1.70963E-25-9.16044E-04 1.76620E-14 2.93376E-13
 -1       103-1.38833E-04 2.21261E-04 9.11005E-26-1.07373E-03 2.06288E-14 2.23285E-13
 -1       104-1.65306E-04 2.80797E-04-1.62325E-26-1.01735E-03 1.62600E-14 3.46937E-14
 -1       105-1.42068E-04 2.96611E-04 5.72528E-26-8.51792E-04 1.92837E-14-1.84180E-13
 -1       106-1.06802E-04 3.04456E-04 1.28259E-25-6.79772E-04 2.77429E-14-2.53097E-13
 -1       107-9.21883E-05 3.31809E-04 9.00713E-26-4.10746E-04 2.56333E-14-2.11298E-13
 -1       108-9.21883E-05 3.31809E-04 9.00686E-26-4.10746E-04 2.56341E-14-2.11294E-13
 -1       109-1.06802E-04 3.04456E-04 1.28259E-25-6.79772E-04 2.77424E-14-2.53098E-13
 -1       110-1.42068E-04 2.96611E-04 5.72499E-26-8.51792E-04 1.92838E-14-1.84177E-13
 -1       111-1.65306E-04 2.80797E-04-1.62322E-26-1.01735E-03 1.62604E-14 3.46941E-14
 -1       112-1.38833E-04 2.21261E-04 9.10968E-26-1.07373E-03 2.06283E-14 2.23281E-13
 -1       113-1.20690E-04 1.42763E-04 1.70965E-25-9.16044E-04 1.76623E-14 2.93378E-13
 -1       114-1.23713E-04 5.98353E-05 8.20887E-26-6.55238E-04 5.44072E-15 2.08563E-13
 -1       115-9.37903E-05-4.33061E-05 8.69870E-27-4.35174E-04 2.30261E-14 8.36432E-14
 -1       116-5.05483E-05-1.57860E-04 6.30608E-28-2.04019E-04 4.26386E-14-6.58357E-15
 -1       117-1.46236E-05-2.49834E-04 4.32833E-27 2.70589E-04 1.83898E-14 5.62106E-14
 -1       118 2.04383E-06-2.81039E-04-8.11103E-27 9.85807E-04-1.39226E-16-1.92216E-14
 -1       119 1.10621E-06-2.64390E-04 7.35771E-26 1.63445E-03 1.31600E-14-2.02498E-13
 -1       120 2.93306E-05-2.49942E-04 1.87458E-25 2.10566E-03 2.08624E-14-3.06795E-13
 -1       121 3.61289E-05-2.56216E-04 1.24086E-25 2.61953E-03 3.61987E-14-2.65336E-13
 -1       122 4.12662E-05-3.19277E-04-4.66539E-26 3.28613E-03 4.06555E-14 1.79240E-14
 -1       123 5.30727E-05-4.65357E-04 2.49592E-25 3.70091E-03-1.56837E-14 3.77878E-13
 -1       124 1.45332E-05-6.30733E-04 5.63547E-25 3.30978E-03-3.86787E-14 5.31867E-13
 -1       125-6.96767E-05-7.60118E-04 4.59208E-25 2.38126E-03-2.69563E-15 4.83694E-13
 -1       126 1.26586E-05-9.00026E-04 1.33385E-25 6.76209E-04 1.87908E-14 2.79186E-13
 -3
    1PSTEP                       128          32           1          
  100CL  132 3.20000E-01         126                     1   32           1
 -4  ERROR       1    1
 -5  STR(%)      1    1    0    0
 -1         1 6.37697E+01
 -1         2 6.37697E+01
 -1         3 2.92425E+01
 -1         4 2.92425E+01
 -1         5 4.24886E+00
 -1         6 4.24886E+00
 -1         7 5.81849E+01
 -1         8 5.81849E+01
 -1         9 2.92425E+01
 -1        10 2.92425E+01
 -1        11 6.37697E+01
 -1        12 6.37697E+01
 -1        13 6.44430E+01
 -1        14 6.53177E+01
 -1        15 6.53177E+01
 -1        16 6.29286E+01
 -1        17 5.31398E+01
 -1        18 5.00987E+01
 -1        19 5.58779E+01
 -1        20 5.93373E+01
 -1        21 5.93373E+01
 -1        22 5.85968E+01
 -1        23 5.90522E+01
 -1        24 6.02093E+01
 -1        25 6.15815E+01
 -1        26 6.29812E+01
 -1        27 6.34870E+01
 -1        28 6.34870E+01
 -1        29 6.33469E+01
 -1        30 5.81699E+01
 -1        31 4.38632E+01
 -1        32 6.44430E+01
 -1        33 6.53177E+01
 -1        34 6.53177E+01
 -1        35 6.29286E+01
 -1        36 5.31398E+01
 -1        37 5.00987E+01
 -1        38 5.58779E+01
 -1        39 5.93373E+01
 -1        40 5.93373E+01
 -1        41 5.85968E+01
 -1        42 5.90522E+01
 -1        43 6.02093E+01
 -1        44 6.15815E+01
 -1        45 6.29812E+01
 -1        46 6.34870E+01
 -1        47 6.34870E+01
 -1        48 6.33469E+01
 -1        49 5.81699E+01
 -1        50 4.38632E+01
 -1        51 2.63005E+01
 -1        52 4.53717E+01
 -1        53 5.39324E+01
 -1        54 5.81034E+01
 -1        55 6.04259E+01
 -1        56 6.08442E+01
 -1        57 6.10987E+01
 -1        58 6.12903E+01
 -1        59 6.12903E+01
 -1        60 6.27873E+01
 -1        61 6.42375E+01
 -1        62 6.42375E+01
 -1        63 6.09547E+01
 -1        64 3.64978E+01
 -1        65 4.81616E+01
 -1        66 5.71666E+01
 -1        67 5.93144E+01
 -1        68 5.93144E+01
 -1        69 5.84766E+01
 -1        70 2.63005E+01
 -1        71 4.53717E+01
 -1        72 5.39324E+01
 -1        73 5.81034E+01
 -1        74 6.04259E+01
 -1        75 6.08442E+01
 -1        76 6.10987E+01
 -1        77 6.12903E+01
 -1        78 6.12903E+01
 -1        79 6.27873E+01
 -1        80 6.42375E+01
 -1        81 6.42375E+01
 -1        82 6.09547E+01
 -1        83 3.64978E+01
 -1        84 4.81616E+01
 -1        85 5.71666E+01
 -1        86 5.93144E+01
 -1        87 5.93144E+01
 -1        88 5.84766E+01
 -1        89 6.44430E+01
 -1        90 6.53177E+01
 -1        91 6.53177E+01
 -1        92 6.29286E+01
 -1        93 5.31398E+01
 -1        94 5.00987E+01
 -1        95 6.09547E+01
 -1        96 6.42375E+01
 -1        97 6.42375E+01
 -1        98 6.27873E+01
 -1        99 6.12903E+01
 -1       100 6.12903E+01
 -1       101 6.15815E+01
 -1       102 6.29812E+01
 -1       103 6.34870E+01
 -1       104 6.34870E+01
 -1       105 6.33469E+01
 -1       106 5.81699E+01
 -1       107 4.38632E+01
 -1       108 4.38632E+01
 -1       109 5.81699E+01
 -1       110 6.33469E+01
 -1       111 6.34870E+01
 -1       112 6.34870E+01
 -1       113 6.29812E+01
 -1       114 6.15815E+01
 -1       115 6.12903E+01
 -1       116 6.12903E+01
 -1       117 6.27873E+01
 -1       118 6.42375E+01
 -1       119 6.42375E+01
 -1       120 6.09547E+01
 -1       121 5.00987E+01
 -1       122 5.31398E+01
 -1       123 6.29286E+01
 -1       124 6.53177E+01
 -1       125 6.53177E+01
 -1       126 6.44430E+01
 -3
    1PSTEP                       129          33           1          
  100CL  133 3.30000E-01         126                     1   33           1
 -4  DISP        4    1
 -5  D1          1    2    1    0
 -5  D2          1    2    2    0
 -5  D3          1    2    3    0
 -5  ALL         1    2    0    0    1ALL
 -1         1 0.00000E+00 0.00000E+00 0.00000E+00
 -1         2 0.00000E+00 0.00000E+00 0.00000E+00
 -1         3 6.23001E-02-2.32878E-03 0.00000E+00
 -1         4 6.23001E-02-2.32878E-03 0.00000E+00
 -1         5 6.22925E-02-3.66913E-03 0.00000E+00
 -1         6 6.22925E-02-3.66913E-03 0.00000E+00
 -1         7 0.00000E+00 0.00000E+00 0.00000E+00
 -1         8 0.00000E+00 0.00000E+00 0.00000E+00
 -1         9 6.22946E-02-2.99157E-03 0.00000E+00
 -1        10 6.22946E-02-2.99157E-03 0.00000E+00
 -1        11 0.00000E+00 0.00000E+00 0.00000E+00
 -1        12 0.00000E+00 0.00000E+00 0.00000E+00
 -1        13 1.32329E-03 1.59102E-03 0.00000E+00
 -1        14 4.04867E-03 2.99059E-03 0.00000E+00
 -1        15 8.24419E-03 3.96935E-03 0.00000E+00
 -1        16 1.34495E-02 4.50588E-03 0.00000E+00
 -1        17 1.92598E-02 4.62042E-03 0.00000E+00
 -1        18 2.53179E-02 4.37345E-03 0.00000E+00
 -1        19 3.12948E-02 3.83305E-03 0.00000E+00
 -1        20 3.69029E-02 3.08274E-03 0.00000E+00
 -1        21 4.19211E-02 2.23290E-03 0.00000E+00
 -1        22 4.62609E-02 1.38143E-03 0.00000E+00
 -1        23 4.99253E-02 5.78646E-04 0.00000E+00
 -1        24 5.29366E-02-1.54462E-04 0.00000E+00
 -1        25 5.53144E-02-7.95998E-04 0.00000E+00
 -1        26 5.71293E-02-1.32204E-03 0.00000E+00
 -1        27 5.85007E-02-1.72569E-03 0.00000E+00
 -1        28 5.95405E-02-2.01808E-03 0.00000E+00
 -1        29 6.03396E-02-2.20632E-03 0.00000E+00
 -1        30 6.10108E-02-2.30049E-03 0.00000E+00
 -1        31 6.16473E-02-2.32902E-03 0.00000E+00
 -1        32 1.32329E-03 1.59102E-03 0.00000E+00
 -1        33 4.04867E-03 2.99059E-03 0.00000E+00
 -1        34 8.24419E-03 3.96935E-03 0.00000E+00
 -1        35 1.34495E-02 4.50588E-03 0.00000E+00
 -1        36 1.92598E-02 4.62042E-03 0.00000E+00
 -1        37 2.53179E-02 4.37345E-03 0.00000E+00
 -1        38 3.12948E-02 3.83305E-03 0.00000E+00
 -1        39 3.69029E-02 3.08274E-03 0.00000E+00
 -1        40 4.19211E-02 2.23290E-03 0.00000E+00
 -1        41 4.62609E-02 1.38143E-03 0.00000E+00
 -1        42 4.99253E-02 5.78646E-04 0.00000E+00
 -1        43 5.29366E-02-1.54462E-04 0.00000E+00
 -1        44 5.53144E-02-7.95998E-04 0.00000E+00
 -1        45 5.71293E-02-1.32204E-03 0.00000E+00
 -1        46 5.85007E-02-1.72569E-03 0.00000E+00
 -1        47 5.95405E-02-2.01808E-03 0.00000E+00
 -1        48 6.03396E-02-2.20632E-03 0.00000E+00
 -1        49 6.10108E-02-2.30049E-03 0.00000E+00
 -1        50 6.16473E-02-2.32902E-03 0.00000E+00
 -1        51 6.16370E-02-3.67588E-03 0.00000E+00
 -1        52 6.09994E-02-3.71541E-03 0.00000E+00
 -1        53 6.03248E-02-3.82123E-03 0.00000E+00
 -1        54 5.95169E-02-4.01834E-03 0.00000E+00
 -1        55 5.84615E-02-4.30956E-03 0.00000E+00
 -1        56 5.70685E-02-4.69049E-03 0.00000E+00
 -1        57 5.52170E-02-5.15699E-03 0.00000E+00
 -1        58 5.27856E-02-5.67966E-03 0.00000E+00
 -1        59 4.97036E-02-6.20918E-03 0.00000E+00
 -1        60 4.59456E-02-6.70436E-03 0.00000E+00
 -1        61 4.14968E-02-7.12668E-03 0.00000E+00
 -1        62 3.63715E-02-7.41221E-03 0.00000E+00
 -1        63 3.06760E-02-7.47255E-03 0.00000E+00
 -1        64 2.46601E-02-7.24469E-03 0.00000E+00
 -1        65 1.86357E-02-6.71367E-03 0.00000E+00
 -1        66 1.29270E-02-5.88568E-03 0.00000E+00
 -1        67 7.87604E-03-4.76518E-03 0.00000E+00
 -1        68 3.85119E-03-3.37388E-03 0.00000E+00
 -1        69 1.27614E-03-1.73015E-03 0.00000E+00
 -1        70 6.16370E-02-3.67588E-03 0.00000E+00
 -1        71 6.09994E-02-3.71541E-03 0.00000E+00
 -1        72 6.03248E-02-3.82123E-03 0.00000E+00
 -1        73 5.95169E-02-4.01834E-03 0.00000E+00
 -1        74 5.84615E-02-4.30956E-03 0.00000E+00
 -1        75 5.70685E-02-4.69049E-03 0.00000E+00
 -1        76 5.52170E-02-5.15699E-03 0.00000E+00
 -1        77 5.27856E-02-5.67966E-03 0.00000E+00
 -1        78 4.97036E-02-6.20918E-03 0.00000E+00
 -1        79 4.59456E-02-6.70436E-03 0.00000E+00
 -1        80 4.14968E-02-7.12668E-03 0.00000E+00
 -1        81 3.63715E-02-7.41221E-03 0.00000E+00
 -1        82 3.06760E-02-7.47255E-03 0.00000E+00
 -1        83 2.46601E-02-7.24469E-03 0.00000E+00
 -1        84 1.86357E-02-6.71367E-03 0.00000E+00
 -1        85 1.29270E-02-5.88568E-03 0.00000E+00
 -1        86 7.87604E-03-4.76518E-03 0.00000E+00
 -1        87 3.85119E-03-3.37388E-03 0.00000E+00
 -1        88 1.27614E-03-1.73015E-03 0.00000E+00
 -1        89 8.74376E-04-5.35705E-05 0.00000E+00
 -1        90 3.66856E-03-1.67276E-04 0.00000E+00
 -1        91 7.83937E-03-3.72737E-04 0.00000E+00
 -1        92 1.30479E-02-6.71972E-04 0.00000E+00
 -1        93 1.88805E-02-1.03796E-03 0.00000E+00
 -1        94 2.49875E-02-1.43517E-03 0.00000E+00
 -1        95 3.10450E-02-1.82695E-03 0.00000E+00
 -1        96 3.67415E-02-2.17755E-03 0.00000E+00
 -1        97 4.18375E-02-2.46052E-03 0.00000E+00
 -1        98 4.62377E-02-2.67309E-03 0.00000E+00
 -1        99 4.99495E-02-2.82553E-03 0.00000E+00
 -1       100 5.29893E-02-2.92511E-03 0.00000E+00
 -1       101 5.53794E-02-2.98160E-03 0.00000E+00
 -1       102 5.71898E-02-3.00901E-03 0.00000E+00
 -1       103 5.85516E-02-3.01852E-03 0.00000E+00
 -1       104 5.95781E-02-3.01826E-03 0.00000E+00
 -1       105 6.03604E-02-3.01414E-03 0.00000E+00
 -1       106 6.10150E-02-3.00832E-03 0.00000E+00
 -1       107 6.16434E-02-3.00129E-03 0.00000E+00
 -1       108 6.16434E-02-3.00129E-03 0.00000E+00
 -1       109 6.10150E-02-3.00832E-03 0.00000E+00
 -1       110 6.03604E-02-3.01414E-03 0.00000E+00
 -1       111 5.95781E-02-3.01826E-03 0.00000E+00
 -1       112 5.85516E-02-3.01852E-03 0.00000E+00
 -1       113 5.71898E-02-3.00901E-03 0.00000E+00
 -1       114 5.53794E-02-2.98160E-03 0.00000E+00
 -1       115 5.29893E-02-2.92511E-03 0.00000E+00
 -1       116 4.99495E-02-2.82553E-03 0.00000E+00
 -1       117 4.62377E-02-2.67309E-03 0.00000E+00
 -1       118 4.18375E-02-2.46052E-03 0.00000E+00
 -1       119 3.67415E-02-2.17755E-03 0.00000E+00
 -1       120 3.10450E-02-1.82695E-03 0.00000E+00
 -1       121 2.49875E-02-1.43517E-03 0.00000E+00
 -1       122 1.88805E-02-1.03796E-03 0.00000E+00
 -1       123 1.30479E-02-6.71972E-04 0.00000E+00
 -1       124 7.83937E-03-3.72737E-04 0.00000E+00
 -1       125 3.66856E-03-1.67276E-04 0.00000E+00
 -1       126 8.74376E-04-5.35705E-05 0.00000E+00
 -3
    1PSTEP                       130          33           1          
  100CL  133 3.30000E-01         126                     1   33           1
 -4  STRESS      6    1
 -5  SXX         1    4    1    1
 -5  SYY         1    4    2    2
 -5  SZZ         1    4    3    3
 -5  SXY         1    4    1    2
 -5  SYZ         1    4    2    3
 -5  SZX         1    4    3    1
 -1         1 7.48478E+03 1.79230E+04 7.30726E+03 4.48279E+03 5.44367E-10 5.09268E-10
 -1         2 7.48478E+03 1.79230E+04 7.30726E+03 4.48279E+03 5.44367E-10 5.09268E-10
 -1         3 8.39090E+00 4.43379E+01 1.58152E+01-3.04804E+01 6.03631E-09-3.78210E-08
 -1         4 8.39090E+00 4.43379E+01 1.58152E+01-3.04804E+01 6.03628E-09-3.78173E-08
 -1         5 7.60621E+01 1.32354E+02 6.24877E+01-6.75581E+01 1.27438E-08-6.05602E-08
 -1         6 7.60621E+01 1.32354E+02 6.24877E+01-6.75581E+01 1.27438E-08-6.05602E-08
 -1         7-7.89720E+03-1.77304E+04-8.04924E+03 3.51092E+03 5.90836E-10-5.42667E-10
 -1         8-7.89720E+03-1.77304E+04-8.04924E+03 3.51092E+03 5.90836E-10-5.42667E-10
 -1         9 7.05282E+01 1.55200E+02 6.76779E+01-5.76582E+01 3.82465E-09-3.77686E-08
 -1        10 7.05282E+01 1.55200E+02 6.76779E+01-5.76582E+01 3.82469E-09-3.77755E-08
 -1        11-1.61156E+02-7.21590E+02-2.11963E+02 2.67831E+03 4.87055E-10-6.39165E-13
 -1        12-1.61156E+02-7.21590E+02-2.11963E+02 2.67831E+03 4.87055E-10-6.39165E-13
 -1        13 2.71699E+03 1.51936E+04 5.16469E+03 1.44425E+03 3.11686E-08 1.00984E-07
 -1        14 3.20966E+03 1.31652E+04 4.74656E+03 1.29744E+03 1.98247E-08 1.42428E-07
 -1        15 2.42103E+03 9.59198E+03 3.51047E+03 1.46317E+03-2.71751E-10 1.54402E-07
 -1        16 1.69922E+03 6.03606E+03 2.27933E+03 1.27336E+03-1.69064E-08 1.51645E-07
 -1        17 8.95907E+02 2.63883E+03 1.04847E+03 9.63979E+02-2.95812E-08 1.29926E-07
 -1        18 1.01670E+02-4.29754E+02-1.02434E+02 6.15806E+02-2.82755E-08 8.64011E-08
 -1        19-5.51432E+02-3.03166E+03-1.08685E+03 2.64788E+02-1.45658E-08 1.56705E-08
 -1        20-1.08380E+03-4.95382E+03-1.83807E+03-4.40302E+01 2.60024E-09-1.05047E-08
 -1        21-1.42454E+03-6.01049E+03-2.26852E+03-2.59936E+02 1.87553E-08-2.49229E-09
 -1        22-1.56188E+03-6.34973E+03-2.41520E+03-3.52642E+02 1.91854E-08 3.59650E-08
 -1        23-1.53140E+03-6.25420E+03-2.37586E+03-3.60476E+02 5.15314E-09 7.60312E-08
 -1        24-1.45457E+03-5.87686E+03-2.23493E+03-3.51540E+02-1.07381E-08 7.04531E-08
 -1        25-1.29048E+03-5.17920E+03-1.96850E+03-3.54177E+02-2.75313E-08 4.72014E-08
 -1        26-1.08292E+03-4.24406E+03-1.61651E+03-3.37074E+02-4.22931E-08 1.32102E-08
 -1        27-8.21387E+02-3.23229E+03-1.22679E+03-2.95813E+02-3.81485E-08-6.59310E-08
 -1        28-5.66005E+02-2.25140E+03-8.50599E+02-2.62807E+02-1.55507E-08-9.28187E-08
 -1        29-3.38948E+02-1.32344E+03-5.00734E+02-2.30243E+02 1.27373E-08-9.74113E-08
 -1        30-1.69382E+02-5.66661E+02-2.21279E+02-1.68449E+02 2.58177E-08-9.44879E-08
 -1        31-4.19370E+01-1.02497E+02-4.33801E+01-8.53200E+01 1.51920E-08-4.36009E-08
 -1        32 2.71699E+03 1.51936E+04 5.16469E+03 1.44425E+03 3.11686E-08 1.00984E-07
 -1        33 3.20966E+03 1.31652E+04 4.74656E+03 1.29744E+03 1.98247E-08 1.42428E-07
 -1        34 2.42103E+03 9.59198E+03 3.51047E+03 1.46317E+03-2.71756E-10 1.54402E-07
 -1        35 1.69922E+03 6.03606E+03 2.27933E+03 1.27336E+03-1.69063E-08 1.51645E-07
 -1        36 8.95907E+02 2.63883E+03 1.04847E+03 9.63979E+02-2.95813E-08 1.29926E-07
 -1        37 1.01670E+02-4.29754E+02-1.02434E+02 6.15806E+02-2.82751E-08 8.63989E-08
 -1        38-5.51432E+02-3.03166E+03-1.08685E+03 2.64788E+02-1.45659E-08 1.56707E-08
 -1        39-1.08380E+03-4.95382E+03-1.83807E+03-4.40302E+01 2.60024E-09-1.05047E-08
 -1        40-1.42454E+03-6.01049E+03-2.26852E+03-2.59936E+02 1.87553E-08-2.49322E-09
 -1        41-1.56188E+03-6.34973E+03-2.41520E+03-3.52642E+02 1.91853E-08 3.59652E-08
 -1        42-1.53140E+03-6.25420E+03-2.37586E+03-3.60476E+02 5.15314E-09 7.60317E-08
 -1        43-1.45457E+03-5.87686E+03-2.23493E+03-3.51540E+02-1.07382E-08 7.04521E-08
 -1        44-1.29048E+03-5.17920E+03-1.96850E+03-3.54177E+02-2.75312E-08 4.72014E-08
 -1        45-1.08292E+03-4.24406E+03-1.61651E+03-3.37074E+02-4.22932E-08 1.32102E-08
 -1        46-8.21387E+02-3.23229E+03-1.22679E+03-2.95813E+02-3.81485E-08-6.59310E-08
 -1        47-5.66005E+02-2.25140E+03-8.50599E+02-2.62807E+02-1.55508E-08-9.28187E-08
 -1        48-3.38948E+02-1.32344E+03-5.00734E+02-2.30243E+02 1.27372E-08-9.74136E-08
 -1        49-1.69382E+02-5.66661E+02-2.21279E+02-1.68449E+02 2.58177E-08-9.44792E-08
 -1        50-4.19370E+01-1.02497E+02-4.33801E+01-8.53200E+01 1.51922E-08-4.36014E-08
 -1        51 1.04773E+02 2.88672E+02 1.17891E+02-8.51559E+01-1.01125E-09-4.47056E-08
 -1        52 2.37106E+02 7.86544E+02 3.06308E+02-1.53645E+02-1.31585E-08-7.09428E-08
 -1        53 4.04636E+02 1.56991E+03 5.89628E+02-1.94752E+02-5.63865E-09-1.09371E-07
 -1        54 6.09494E+02 2.51447E+03 9.30646E+02-1.93881E+02 1.39088E-08-1.03249E-07
 -1        55 8.21876E+02 3.48841E+03 1.28104E+03-1.74471E+02 2.86208E-08-5.32802E-08
 -1        56 1.06756E+03 4.48753E+03 1.64691E+03-1.28519E+02 3.17853E-08 8.37050E-09
 -1        57 1.25517E+03 5.38115E+03 1.96292E+03-1.72152E+01 2.54636E-08 4.39585E-08
 -1        58 1.41458E+03 5.99296E+03 2.18796E+03 1.32837E+02 1.47248E-08 6.82749E-08
 -1        59 1.51602E+03 6.25904E+03 2.29539E+03 2.75543E+02-5.49779E-09 6.89871E-08
 -1        60 1.54843E+03 6.21787E+03 2.29296E+03 4.17051E+02-2.14587E-08 3.65434E-08
 -1        61 1.45385E+03 5.72335E+03 2.12080E+03 5.82250E+02-1.05486E-08-4.69006E-09
 -1        62 1.24783E+03 4.50845E+03 1.70495E+03 7.24758E+02 2.03789E-08-1.14444E-08
 -1        63 8.20011E+02 2.43437E+03 9.67201E+02 7.48228E+02 4.39154E-08 4.34164E-08
 -1        64 2.03775E+02-2.60763E+02-2.10217E+01 6.24515E+02 4.99490E-08 8.58772E-08
 -1        65-5.54720E+02-3.30604E+03-1.17325E+03 4.25463E+02 3.56549E-08 1.38347E-07
 -1        66-1.39448E+03-6.58588E+03-2.44263E+03 2.26924E+02 1.32854E-08 1.69787E-07
 -1        67-2.24826E+03-9.94491E+03-3.76521E+03 9.09667E+01-2.08435E-09 1.59897E-07
 -1        68-3.32901E+03-1.32678E+04-5.17021E+03-4.75681E+01-2.22118E-08 1.39975E-07
 -1        69-2.86488E+03-1.50382E+04-5.61085E+03 5.13709E+02-3.24639E-08 9.55306E-08
 -1        70 1.04773E+02 2.88672E+02 1.17891E+02-8.51559E+01-1.01104E-09-4.47056E-08
 -1        71 2.37106E+02 7.86544E+02 3.06308E+02-1.53645E+02-1.31583E-08-7.09428E-08
 -1        72 4.04636E+02 1.56991E+03 5.89628E+02-1.94752E+02-5.63861E-09-1.09371E-07
 -1        73 6.09494E+02 2.51447E+03 9.30646E+02-1.93881E+02 1.39088E-08-1.03250E-07
 -1        74 8.21876E+02 3.48841E+03 1.28104E+03-1.74471E+02 2.86204E-08-5.32802E-08
 -1        75 1.06756E+03 4.48753E+03 1.64691E+03-1.28519E+02 3.17853E-08 8.37075E-09
 -1        76 1.25517E+03 5.38115E+03 1.96292E+03-1.72152E+01 2.54636E-08 4.39572E-08
 -1        77 1.41458E+03 5.99296E+03 2.18796E+03 1.32837E+02 1.47251E-08 6.82759E-08
 -1        78 1.51602E+03 6.25904E+03 2.29539E+03 2.75543E+02-5.49755E-09 6.89874E-08
 -1        79 1.54843E+03 6.21787E+03 2.29296E+03 4.17051E+02-2.14587E-08 3.65477E-08
 -1        80 1.45385E+03 5.72335E+03 2.12080E+03 5.82250E+02-1.05485E-08-4.69437E-09
 -1        81 1.24783E+03 4.50845E+03 1.70495E+03 7.24758E+02 2.03785E-08-1.14444E-08
 -1        82 8.20011E+02 2.43437E+03 9.67201E+02 7.48228E+02 4.39159E-08 4.34164E-08
 -1        83 2.03775E+02-2.60763E+02-2.10217E+01 6.24515E+02 4.99489E-08 8.58770E-08
 -1        84-5.54720E+02-3.30604E+03-1.17325E+03 4.25463E+02 3.56547E-08 1.38346E-07
 -1        85-1.39448E+03-6.58588E+03-2.44263E+03 2.26924E+02 1.32855E-08 1.69789E-07
 -1        86-2.24826E+03-9.94491E+03-3.76521E+03 9.09667E+01-2.08425E-09 1.59897E-07
 -1        87-3.32901E+03-1.32678E+04-5.17021E+03-4.75681E+01-2.22118E-08 1.39975E-07
 -1        88-2.86488E+03-1.50382E+04-5.61085E+03 5.13709E+02-3.24639E-08 9.55306E-08
 -1        89 3.17509E+01-6.71973E+02-1.77835E+02 5.17419E+02-2.39792E-09 8.78828E-08
 -1        90 6.65781E+01-6.19446E+02-1.45290E+02 8.95608E+02-1.28485E-09 1.49319E-07
 -1        91 1.64548E+02-5.41214E+02-1.04194E+02 9.58250E+02-1.67040E-10 1.58584E-07
 -1        92 2.15484E+02-4.79394E+02-7.66485E+01 9.64453E+02-4.15977E-09 1.64276E-07
 -1        93 2.23951E+02-4.28274E+02-6.26455E+01 8.98330E+02-7.07815E-10 1.35453E-07
 -1        94 2.01876E+02-3.99822E+02-6.15976E+01 8.09661E+02 1.31522E-08 8.44857E-08
 -1        95 1.74273E+02-3.71746E+02-6.02144E+01 6.61712E+02 1.65207E-08 2.71676E-08
 -1        96 1.12828E+02-3.23341E+02-6.20459E+01 4.35175E+02 1.05648E-08-1.41680E-08
 -1        97 4.01011E+01-2.56685E+02-6.17181E+01 1.94872E+02 5.69932E-09-6.52662E-09
 -1        98 1.17037E+01-1.90467E+02-4.89109E+01 3.04294E+01-7.93452E-10 3.86145E-08
 -1        99 6.32069E+00-1.22002E+02-2.98994E+01-6.18446E+01-1.48301E-09 7.59851E-08
 -1       100-6.85680E+00-4.52440E+01-1.15178E+01-1.49144E+02 1.15666E-09 7.04722E-08
 -1       101-7.54894E+00 2.42379E+01 8.11080E+00-2.47169E+02-1.13146E-09 4.84379E-08
 -1       102-1.06300E+00 7.17587E+01 2.34752E+01-3.01454E+02-2.86707E-09 1.17023E-08
 -1       103 3.83738E+00 9.89151E+01 3.21041E+01-3.00188E+02-5.28911E-09-6.17977E-08
 -1       104 2.03748E+01 1.11617E+02 4.00873E+01-2.93854E+02-2.53119E-09-1.03314E-07
 -1       105 2.97525E+01 1.12247E+02 4.27036E+01-2.73441E+02 9.33067E-09-1.11757E-07
 -1       106 3.57464E+01 1.15557E+02 4.53574E+01-2.02660E+02 6.90978E-09-7.62871E-08
 -1       107 4.85499E+01 1.34326E+02 5.48141E+01-1.02862E+02 6.41259E-11-4.59149E-08
 -1       108 4.85499E+01 1.34326E+02 5.48141E+01-1.02862E+02 6.39676E-11-4.59140E-08
 -1       109 3.57464E+01 1.15557E+02 4.53574E+01-2.02660E+02 6.90988E-09-7.62883E-08
 -1       110 2.97525E+01 1.12247E+02 4.27036E+01-2.73441E+02 9.33059E-09-1.11756E-07
 -1       111 2.03748E+01 1.11617E+02 4.00873E+01-2.93854E+02-2.53102E-09-1.03313E-07
 -1       112 3.83738E+00 9.89151E+01 3.21041E+01-3.00188E+02-5.28919E-09-6.17977E-08
 -1       113-1.06300E+00 7.17587E+01 2.34752E+01-3.01454E+02-2.86700E-09 1.17018E-08
 -1       114-7.54894E+00 2.42379E+01 8.11080E+00-2.47169E+02-1.13159E-09 4.84401E-08
 -1       115-6.85680E+00-4.52440E+01-1.15178E+01-1.49144E+02 1.15662E-09 7.04738E-08
 -1       116 6.32069E+00-1.22002E+02-2.98994E+01-6.18446E+01-1.48289E-09 7.59838E-08
 -1       117 1.17037E+01-1.90467E+02-4.89109E+01 3.04294E+01-7.93241E-10 3.86136E-08
 -1       118 4.01011E+01-2.56685E+02-6.17181E+01 1.94872E+02 5.69911E-09-6.52441E-09
 -1       119 1.12828E+02-3.23341E+02-6.20459E+01 4.35175E+02 1.05649E-08-1.41681E-08
 -1       120 1.74273E+02-3.71746E+02-6.02144E+01 6.61712E+02 1.65206E-08 2.71679E-08
 -1       121 2.01876E+02-3.99822E+02-6.15976E+01 8.09661E+02 1.31520E-08 8.44872E-08
 -1       122 2.23951E+02-4.28274E+02-6.26455E+01 8.98330E+02-7.07537E-10 1.35453E-07
 -1       123 2.15484E+02-4.79394E+02-7.66485E+01 9.64453E+02-4.15988E-09 1.64277E-07
 -1       124 1.64548E+02-5.41214E+02-1.04194E+02 9.58250E+02-1.67030E-10 1.58584E-07
 -1       125 6.65781E+01-6.19446E+02-1.45290E+02 8.95608E+02-1.28487E-09 1.49319E-07
 -1       126 3.17509E+01-6.71973E+02-1.77835E+02 5.17419E+02-2.39790E-09 8.78828E-08
 -3
    1PSTEP                       131          33           1          
  100CL  133 3.30000E-01         126                     1   33           1
 -4  TOSTRAIN    6    1
 -5  EXX         1    4    1    1
 -5  EYY         1    4    2    2
 -5  EZZ         1    4    3    3
 -5  EXY         1    4    1    2
 -5  EYZ         1    4    2    3
 -5  EZX         1    4    3    1
 -1         1-9.67282E-05 3.25794E-02-3.80442E-26 1.32327E-02-7.47682E-19 9.89496E-16
 -1         2-9.67282E-05 3.25794E-02-3.80442E-26 1.32327E-02-7.47682E-19 9.89496E-16
 -1         3-2.15224E-05 9.00536E-05 3.06577E-26-1.00550E-04 1.79850E-14-1.23162E-13
 -1         4-2.15224E-05 9.00536E-05 3.06515E-26-1.00550E-04 1.79850E-14-1.23150E-13
 -1         5 4.98958E-05 2.20956E-04 7.75859E-26-2.21777E-04 3.87330E-14-1.97310E-13
 -1         6 4.98958E-05 2.20956E-04 7.75859E-26-2.21777E-04 3.87330E-14-1.97310E-13
 -1         7-9.92193E-05-3.37768E-02-3.56821E-26 1.27613E-02 7.06852E-19-1.06499E-15
 -1         8-9.92193E-05-3.37768E-02-3.56821E-26 1.27613E-02 7.06852E-19-1.06499E-15
 -1         9 1.41867E-05 2.79168E-04 2.93319E-26-1.90814E-04 1.07791E-14-1.22879E-13
 -1        10 1.41867E-05 2.79168E-04 2.93434E-26-1.90814E-04 1.07790E-14-1.22901E-13
 -1        11-9.79738E-05-1.01587E-03-2.65451E-26 8.74362E-03 1.02717E-19-3.08123E-17
 -1        12-9.79738E-05-1.01587E-03-2.65451E-26 8.74362E-03 1.02717E-19-3.08123E-17
 -1        13-8.48350E-03 3.11854E-02 2.06184E-25 3.12371E-03 1.07346E-13 3.22554E-13
 -1        14-5.64026E-03 2.65157E-02 4.28575E-25 2.01158E-03 9.05280E-14 4.54876E-13
 -1        15-4.32771E-03 1.97118E-02 5.02053E-25 2.54489E-03 4.17354E-14 4.97820E-13
 -1        16-2.65474E-03 1.26106E-02 4.89687E-25 2.51996E-03-3.47011E-15 4.94616E-13
 -1        17-1.15834E-03 5.72466E-03 3.68542E-25 2.38256E-03-4.73514E-14 4.30138E-13
 -1        18 1.60523E-04-5.96927E-04 1.56700E-25 2.14820E-03-5.87289E-14 2.89811E-13
 -1        19 1.41958E-03-6.10726E-03-4.66502E-27 1.76605E-03-4.16058E-14 5.61323E-14
 -1        20 2.30250E-03-1.02177E-02 2.18376E-28 1.19876E-03 4.91397E-15-3.49215E-14
 -1        21 2.72135E-03-1.24788E-02 4.25223E-27 5.75819E-04 6.10248E-14-1.38764E-14
 -1        22 2.80917E-03-1.31931E-02 2.84830E-26 1.27898E-04 7.30328E-14 1.11700E-13
 -1        23 2.78801E-03-1.30046E-02 1.18881E-25-1.24136E-04 3.41753E-14 2.45924E-13
 -1        24 2.57636E-03-1.21915E-02 1.04753E-25-3.51581E-04-2.25432E-14 2.31007E-13
 -1        25 2.24568E-03-1.07218E-02 5.71290E-26-6.10252E-04-8.38934E-14 1.57352E-13
 -1        26 1.77397E-03-8.74200E-03 2.37370E-26-7.62357E-04-1.37598E-13 4.74089E-14
 -1        27 1.34848E-03-6.64326E-03 1.06844E-25-7.69807E-04-1.30731E-13-2.11451E-13
 -1        28 9.48759E-04-4.62420E-03 1.82962E-25-7.51990E-04-5.69321E-14-3.00947E-13
 -1        29 5.45579E-04-2.71145E-03 2.01660E-25-7.00891E-04 3.64008E-14-3.17340E-13
 -1        30 1.82718E-04-1.14064E-03 1.95582E-25-5.30779E-04 7.96719E-14-3.08243E-13
 -1        31 1.17923E-05-1.99701E-04 3.94147E-26-2.74849E-04 4.74830E-14-1.42342E-13
 -1        32-8.48350E-03 3.11854E-02 2.06184E-25 3.12371E-03 1.07346E-13 3.22554E-13
 -1        33-5.64026E-03 2.65157E-02 4.28575E-25 2.01158E-03 9.05280E-14 4.54876E-13
 -1        34-4.32771E-03 1.97118E-02 5.02054E-25 2.54489E-03 4.17355E-14 4.97821E-13
 -1        35-2.65474E-03 1.26106E-02 4.89682E-25 2.51996E-03-3.47016E-15 4.94613E-13
 -1        36-1.15834E-03 5.72466E-03 3.68543E-25 2.38256E-03-4.73516E-14 4.30139E-13
 -1        37 1.60523E-04-5.96927E-04 1.56692E-25 2.14820E-03-5.87282E-14 2.89804E-13
 -1        38 1.41958E-03-6.10726E-03-4.66370E-27 1.76605E-03-4.16061E-14 5.61331E-14
 -1        39 2.30250E-03-1.02177E-02 2.18419E-28 1.19876E-03 4.91399E-15-3.49213E-14
 -1        40 2.72135E-03-1.24788E-02 4.25209E-27 5.75819E-04 6.10246E-14-1.38794E-14
 -1        41 2.80917E-03-1.31931E-02 2.84830E-26 1.27898E-04 7.30325E-14 1.11700E-13
 -1        42 2.78801E-03-1.30046E-02 1.18883E-25-1.24136E-04 3.41754E-14 2.45926E-13
 -1        43 2.57636E-03-1.21915E-02 1.04750E-25-3.51581E-04-2.25434E-14 2.31004E-13
 -1        44 2.24568E-03-1.07218E-02 5.71290E-26-6.10252E-04-8.38932E-14 1.57352E-13
 -1        45 1.77397E-03-8.74200E-03 2.37371E-26-7.62357E-04-1.37599E-13 4.74089E-14
 -1        46 1.34848E-03-6.64326E-03 1.06844E-25-7.69807E-04-1.30731E-13-2.11451E-13
 -1        47 9.48759E-04-4.62420E-03 1.82962E-25-7.51990E-04-5.69323E-14-3.00947E-13
 -1        48 5.45579E-04-2.71145E-03 2.01669E-25-7.00891E-04 3.64003E-14-3.17348E-13
 -1        49 1.82718E-04-1.14064E-03 1.95548E-25-5.30779E-04 7.96720E-14-3.08215E-13
 -1        50 1.17923E-05-1.99701E-04 3.94156E-26-2.74849E-04 4.74836E-14-1.42344E-13
 -1        51-3.53969E-05 5.46585E-04 4.02812E-26-2.84055E-04-5.23731E-15-1.45205E-13
 -1        52-2.11546E-04 1.54070E-03 1.04422E-25-5.21923E-04-4.59166E-14-2.29873E-13
 -1        53-5.83266E-04 3.14411E-03 2.49496E-25-6.88235E-04-2.39786E-14-3.54891E-13
 -1        54-1.02420E-03 5.07010E-03 2.23114E-25-7.44454E-04 3.81883E-14-3.36002E-13
 -1        55-1.47094E-03 7.04587E-03 6.11138E-26-7.76911E-04 8.76356E-14-1.75127E-13
 -1        56-1.86542E-03 9.04056E-03 8.96929E-27-7.74460E-04 1.02895E-13 2.38053E-14
 -1        57-2.30536E-03 1.08647E-02 4.80485E-26-6.24338E-04 8.76496E-14 1.38914E-13
 -1        58-2.55932E-03 1.21058E-02 1.00471E-25-3.80482E-04 5.90975E-14 2.18422E-13
 -1        59-2.62979E-03 1.26478E-02 9.82707E-26-1.51353E-04-2.51545E-15 2.24300E-13
 -1        60-2.58773E-03 1.25948E-02 3.07530E-26 1.11856E-04-5.88523E-14 1.23701E-13
 -1        61-2.44761E-03 1.16981E-02-2.91857E-27 5.52496E-04-3.49746E-14-1.18916E-14
 -1        62-1.90079E-03 9.32956E-03 3.36911E-27 1.17597E-03 6.11730E-14-4.39767E-14
 -1        63-9.81468E-04 5.18983E-03 6.61745E-26 1.76297E-03 1.56614E-13 1.23416E-13
 -1        64 2.23986E-04-3.07848E-04 1.93693E-25 2.15298E-03 1.93738E-13 2.57495E-13
 -1        65 1.55346E-03-6.60903E-03 4.16942E-25 2.39270E-03 1.67558E-13 4.33211E-13
 -1        66 3.00577E-03-1.34958E-02 6.05895E-25 2.54667E-03 1.02052E-13 5.44889E-13
 -1        67 4.55680E-03-2.06627E-02 5.35566E-25 2.59083E-03 3.96521E-14 5.19573E-13
 -1        68 5.65191E-03-2.76665E-02 4.17030E-25 2.02705E-03-4.49166E-14 4.60818E-13
 -1        69 8.54024E-03-3.24319E-02 1.92621E-25 3.21046E-03-1.00299E-13 3.15307E-13
 -1        70-3.53969E-05 5.46585E-04 4.02812E-26-2.84055E-04-5.23661E-15-1.45205E-13
 -1        71-2.11546E-04 1.54070E-03 1.04422E-25-5.21923E-04-4.59161E-14-2.29873E-13
 -1        72-5.83266E-04 3.14411E-03 2.49498E-25-6.88235E-04-2.39785E-14-3.54892E-13
 -1        73-1.02420E-03 5.07010E-03 2.23116E-25-7.44454E-04 3.81885E-14-3.36003E-13
 -1        74-1.47094E-03 7.04587E-03 6.11134E-26-7.76911E-04 8.76344E-14-1.75127E-13
 -1        75-1.86542E-03 9.04056E-03 8.96972E-27-7.74460E-04 1.02895E-13 2.38061E-14
 -1        76-2.30536E-03 1.08647E-02 4.80458E-26-6.24338E-04 8.76494E-14 1.38910E-13
 -1        77-2.55932E-03 1.21058E-02 1.00473E-25-3.80482E-04 5.90987E-14 2.18424E-13
 -1        78-2.62979E-03 1.26478E-02 9.82713E-26-1.51353E-04-2.51464E-15 2.24301E-13
 -1        79-2.58773E-03 1.25948E-02 3.07571E-26 1.11856E-04-5.88511E-14 1.23715E-13
 -1        80-2.44761E-03 1.16981E-02-2.92024E-27 5.52496E-04-3.49753E-14-1.19055E-14
 -1        81-1.90079E-03 9.32956E-03 3.36872E-27 1.17597E-03 6.11715E-14-4.39765E-14
 -1        82-9.81468E-04 5.18983E-03 6.61756E-26 1.76297E-03 1.56616E-13 1.23416E-13
 -1        83 2.23986E-04-3.07848E-04 1.93692E-25 2.15298E-03 1.93737E-13 2.57494E-13
 -1        84 1.55346E-03-6.60903E-03 4.16939E-25 2.39270E-03 1.67557E-13 4.33210E-13
 -1        85 3.00577E-03-1.34958E-02 6.05910E-25 2.54667E-03 1.02053E-13 5.44896E-13
 -1        86 4.55680E-03-2.06627E-02 5.35563E-25 2.59083E-03 3.96523E-14 5.19571E-13
 -1        87 5.65191E-03-2.76665E-02 4.17030E-25 2.02705E-03-4.49165E-14 4.60818E-13
 -1        88 8.54024E-03-3.24319E-02 1.92621E-25 3.21046E-03-1.00299E-13 3.15307E-13
 -1        89 2.83679E-05-9.01964E-04 1.39491E-25 1.75597E-03 1.22936E-15 2.85722E-13
 -1        90 5.82641E-06-7.28425E-04 4.62184E-25 3.03527E-03 2.66355E-14 4.84453E-13
 -1        91 1.14546E-04-6.16593E-04 5.29901E-25 3.27151E-03 4.44231E-14 5.13164E-13
 -1        92 1.75512E-04-5.30501E-04 5.66393E-25 3.30491E-03 4.19255E-14 5.32073E-13
 -1        93 1.97556E-04-4.75602E-04 3.76112E-25 3.08734E-03 4.75764E-14 4.37314E-13
 -1        94 1.92254E-04-4.60882E-04 1.37469E-25 2.78972E-03 7.43897E-14 2.67321E-13
 -1        95 2.19058E-04-4.85036E-04 8.96151E-27 2.29791E-03 6.33684E-14 8.13749E-14
 -1        96 2.00851E-04-4.81691E-04 3.48981E-27 1.53327E-03 2.93368E-14-4.94844E-14
 -1        97 1.36868E-04-4.22041E-04-2.85017E-27 7.13303E-04 1.65029E-14-2.28738E-14
 -1        98 1.10720E-04-3.43076E-04 2.39788E-26 1.51049E-04 7.65570E-15 1.25292E-13
 -1        99 7.91089E-05-2.28757E-04 1.19444E-25-1.70422E-04 1.20088E-14 2.46688E-13
 -1       100 8.51819E-06-7.64839E-05 1.03628E-25-4.74398E-04 1.64444E-14 2.28481E-13
 -1       101-2.98394E-05 5.06021E-05 4.39263E-26-8.04291E-04 3.25519E-15 1.57428E-13
 -1       102-4.57241E-05 1.37386E-04-1.37019E-26-9.84854E-04-8.01700E-15 3.83002E-14
 -1       103-6.12330E-05 1.94354E-04 6.48316E-26-9.81639E-04-2.24023E-14-2.00360E-13
 -1       104-3.77197E-05 2.08326E-04 2.21629E-25-9.59533E-04-1.49537E-14-3.35555E-13
 -1       105-1.88433E-05 2.02647E-04 2.62528E-25-8.91918E-04 2.44361E-14-3.63587E-13
 -1       106-1.44140E-05 2.10654E-04 1.18301E-25-6.61568E-04 1.89445E-14-2.48176E-13
 -1       107-1.18023E-05 2.49345E-04 4.25097E-26-3.37661E-04-1.79790E-15-1.49197E-13
 -1       108-1.18023E-05 2.49345E-04 4.25082E-26-3.37661E-04-1.79837E-15-1.49194E-13
 -1       109-1.44140E-05 2.10654E-04 1.18305E-25-6.61568E-04 1.89448E-14-2.48179E-13
 -1       110-1.88433E-05 2.02647E-04 2.62524E-25-8.91918E-04 2.44359E-14-3.63584E-13
 -1       111-3.77197E-05 2.08326E-04 2.21627E-25-9.59533E-04-1.49531E-14-3.35552E-13
 -1       112-6.12330E-05 1.94354E-04 6.48316E-26-9.81639E-04-2.24026E-14-2.00360E-13
 -1       113-4.57241E-05 1.37386E-04-1.37027E-26-9.84854E-04-8.01682E-15 3.82987E-14
 -1       114-2.98394E-05 5.06021E-05 4.39302E-26-8.04291E-04 3.25507E-15 1.57435E-13
 -1       115 8.51819E-06-7.64839E-05 1.03633E-25-4.74398E-04 1.64446E-14 2.28487E-13
 -1       116 7.91089E-05-2.28757E-04 1.19440E-25-1.70422E-04 1.20089E-14 2.46684E-13
 -1       117 1.10720E-04-3.43076E-04 2.39786E-26 1.51049E-04 7.65612E-15 1.25289E-13
 -1       118 1.36868E-04-4.22041E-04-2.84973E-27 7.13303E-04 1.65029E-14-2.28666E-14
 -1       119 2.00851E-04-4.81691E-04 3.48976E-27 1.53327E-03 2.93371E-14-4.94849E-14
 -1       120 2.19058E-04-4.85036E-04 8.96106E-27 2.29791E-03 6.33683E-14 8.13759E-14
 -1       121 1.92254E-04-4.60882E-04 1.37474E-25 2.78972E-03 7.43899E-14 2.67326E-13
 -1       122 1.97556E-04-4.75602E-04 3.76111E-25 3.08734E-03 4.75772E-14 4.37313E-13
 -1       123 1.75512E-04-5.30501E-04 5.66401E-25 3.30491E-03 4.19256E-14 5.32077E-13
 -1       124 1.14546E-04-6.16593E-04 5.29899E-25 3.27151E-03 4.44231E-14 5.13163E-13
 -1       125 5.82641E-06-7.28425E-04 4.62185E-25 3.03527E-03 2.66355E-14 4.84453E-13
 -1       126 2.83679E-05-9.01964E-04 1.39491E-25 1.75597E-03 1.22942E-15 2.85722E-13
 -3
    1PSTEP                       132          33           1          
  100CL  133 3.30000E-01         126                     1   33           1
 -4  ERROR       1    1
 -5  STR(%)      1    1    0    0
 -1         1 6.50658E+01
 -1         2 6.50658E+01
 -1         3 3.02856E+01
 -1         4 3.02856E+01
 -1         5 9.54424E+00
 -1         6 9.54424E+00
 -1         7 5.94915E+01
 -1         8 5.94915E+01
 -1         9 3.02856E+01
 -1        10 3.02856E+01
 -1        11 6.50658E+01
 -1        12 6.50658E+01
 -1        13 6.50658E+01
 -1        14 6.49847E+01
 -1        15 6.49847E+01
 -1        16 6.32841E+01
 -1        17 5.66929E+01
 -1        18 2.46861E+01
 -1        19 5.43380E+01
 -1        20 5.85257E+01
 -1        21 5.85257E+01
 -1        22 5.78119E+01
 -1        23 5.89705E+01
 -1        24 6.09159E+01
 -1        25 6.24294E+01
 -1        26 6.37035E+01
 -1        27 6.45439E+01
 -1        28 6.45439E+01
 -1        29 6.21704E+01
 -1        30 6.61409E+01
 -1        31 6.61409E+01
 -1        32 6.50658E+01
 -1        33 6.49847E+01
 -1        34 6.49847E+01
 -1        35 6.32841E+01
 -1        36 5.66929E+01
 -1        37 2.46861E+01
 -1        38 5.43380E+01
 -1        39 5.85257E+01
 -1        40 5.85257E+01
 -1        41 5.78119E+01
 -1        42 5.89705E+01
 -1        43 6.09159E+01
 -1        44 6.24294E+01
 -1        45 6.37035E+01
 -1        46 6.45439E+01
 -1        47 6.45439E+01
 -1        48 6.21704E+01
 -1        49 6.61409E+01
 -1        50 6.61409E+01
 -1        51 2.48145E+01
 -1        52 4.38702E+01
 -1        53 5.42383E+01
 -1        54 5.83602E+01
 -1        55 6.02071E+01
 -1        56 6.10737E+01
 -1        57 6.13077E+01
 -1        58 6.13409E+01
 -1        59 6.13409E+01
 -1        60 6.26809E+01
 -1        61 6.51538E+01
 -1        62 6.51538E+01
 -1        63 6.22877E+01
 -1        64 2.85070E+01
 -1        65 5.10180E+01
 -1        66 5.77314E+01
 -1        67 5.94573E+01
 -1        68 5.94573E+01
 -1        69 5.94915E+01
 -1        70 2.48145E+01
 -1        71 4.38702E+01
 -1        72 5.42383E+01
 -1        73 5.83602E+01
 -1        74 6.02071E+01
 -1        75 6.10737E+01
 -1        76 6.13077E+01
 -1        77 6.13409E+01
 -1        78 6.13409E+01
 -1        79 6.26809E+01
 -1        80 6.51538E+01
 -1        81 6.51538E+01
 -1        82 6.22877E+01
 -1        83 2.85070E+01
 -1        84 5.10180E+01
 -1        85 5.77314E+01
 -1        86 5.94573E+01
 -1        87 5.94573E+01
 -1        88 5.94915E+01
 -1        89 6.50658E+01
 -1        90 6.49847E+01
 -1        91 6.49847E+01
 -1        92 6.32841E+01
 -1        93 5.66929E+01
 -1        94 2.85070E+01
 -1        95 6.22877E+01
 -1        96 6.51538E+01
 -1        97 6.51538E+01
 -1        98 6.26809E+01
 -1        99 6.13409E+01
 -1       100 6.13409E+01
 -1       101 6.24294E+01
 -1       102 6.37035E+01
 -1       103 6.45439E+01
 -1       104 6.45439E+01
 -1       105 6.21704E+01
 -1       106 6.61409E+01
 -1       107 6.61409E+01
 -1       108 6.61409E+01
 -1       109 6.61409E+01
 -1       110 6.21704E+01
 -1       111 6.45439E+01
 -1       112 6.45439E+01
 -1       113 6.37035E+01
 -1       114 6.24294E+01
 -1       115 6.13409E+01
 -1       116 6.13409E+01
 -1       117 6.26809E+01
 -1       118 6.51538E+01
 -1       119 6.51538E+01
 -1       120 6.22877E+01
 -1       121 2.85070E+01
 -1       122 5.66929E+01
 -1       123 6.32841E+01
 -1       124 6.49847E+01
 -1       125 6.49847E+01
 -1       126 6.50658E+01
 -3
    1PSTEP                       133          34           1          
  100CL  134 3.40000E-01         126                     1   34           1
 -4  DISP        4    1
 -5  D1          1    2    1    0
 -5  D2          1    2    2    0
 -5  D3          1    2    3    0
 -5  ALL         1    2    0    0    1ALL
 -1         1 0.00000E+00 0.00000E+00 0.00000E+00
 -1         2 0.00000E+00 0.00000E+00 0.00000E+00
 -1         3 6.67006E-02-2.20288E-03 0.00000E+00
 -1         4 6.67006E-02-2.20288E-03 0.00000E+00
 -1         5 6.66750E-02-4.27599E-03 0.00000E+00
 -1         6 6.66750E-02-4.27599E-03 0.00000E+00
 -1         7 0.00000E+00 0.00000E+00 0.00000E+00
 -1         8 0.00000E+00 0.00000E+00 0.00000E+00
 -1         9 6.66866E-02-3.23171E-03 0.00000E+00
 -1        10 6.66866E-02-3.23171E-03 0.00000E+00
 -1        11 0.00000E+00 0.00000E+00 0.00000E+00
 -1        12 0.00000E+00 0.00000E+00 0.00000E+00
 -1        13 1.68547E-03 1.72727E-03 0.00000E+00
 -1        14 4.69147E-03 3.08814E-03 0.00000E+00
 -1        15 8.97258E-03 3.97084E-03 0.00000E+00
 -1        16 1.41338E-02 4.47018E-03 0.00000E+00
 -1        17 1.99264E-02 4.60753E-03 0.00000E+00
 -1        18 2.60469E-02 4.38591E-03 0.00000E+00
 -1        19 3.21154E-02 3.85038E-03 0.00000E+00
 -1        20 3.78083E-02 3.10935E-03 0.00000E+00
 -1        21 4.29432E-02 2.28361E-03 0.00000E+00
 -1        22 4.74643E-02 1.45311E-03 0.00000E+00
 -1        23 5.13344E-02 6.59746E-04 0.00000E+00
 -1        24 5.45529E-02-6.42187E-05 0.00000E+00
 -1        25 5.71719E-02-6.85198E-04 0.00000E+00
 -1        26 5.92943E-02-1.18862E-03 0.00000E+00
 -1        27 6.10060E-02-1.58023E-03 0.00000E+00
 -1        28 6.24077E-02-1.86835E-03 0.00000E+00
 -1        29 6.35913E-02-2.05722E-03 0.00000E+00
 -1        30 6.46537E-02-2.15761E-03 0.00000E+00
 -1        31 6.56762E-02-2.19517E-03 0.00000E+00
 -1        32 1.68547E-03 1.72727E-03 0.00000E+00
 -1        33 4.69147E-03 3.08814E-03 0.00000E+00
 -1        34 8.97258E-03 3.97084E-03 0.00000E+00
 -1        35 1.41338E-02 4.47018E-03 0.00000E+00
 -1        36 1.99264E-02 4.60753E-03 0.00000E+00
 -1        37 2.60469E-02 4.38591E-03 0.00000E+00
 -1        38 3.21154E-02 3.85038E-03 0.00000E+00
 -1        39 3.78083E-02 3.10935E-03 0.00000E+00
 -1        40 4.29432E-02 2.28361E-03 0.00000E+00
 -1        41 4.74643E-02 1.45311E-03 0.00000E+00
 -1        42 5.13344E-02 6.59746E-04 0.00000E+00
 -1        43 5.45529E-02-6.42187E-05 0.00000E+00
 -1        44 5.71719E-02-6.85198E-04 0.00000E+00
 -1        45 5.92943E-02-1.18862E-03 0.00000E+00
 -1        46 6.10060E-02-1.58023E-03 0.00000E+00
 -1        47 6.24077E-02-1.86835E-03 0.00000E+00
 -1        48 6.35913E-02-2.05722E-03 0.00000E+00
 -1        49 6.46537E-02-2.15761E-03 0.00000E+00
 -1        50 6.56762E-02-2.19517E-03 0.00000E+00
 -1        51 6.56476E-02-4.28105E-03 0.00000E+00
 -1        52 6.46217E-02-4.31863E-03 0.00000E+00
 -1        53 6.35546E-02-4.41508E-03 0.00000E+00
 -1        54 6.23648E-02-4.59090E-03 0.00000E+00
 -1        55 6.09480E-02-4.84985E-03 0.00000E+00
 -1        56 5.92087E-02-5.18735E-03 0.00000E+00
 -1        57 5.70497E-02-5.59532E-03 0.00000E+00
 -1        58 5.43744E-02-6.06089E-03 0.00000E+00
 -1        59 5.10761E-02-6.54838E-03 0.00000E+00
 -1        60 4.71116E-02-7.00225E-03 0.00000E+00
 -1        61 4.24887E-02-7.37174E-03 0.00000E+00
 -1        62 3.72476E-02-7.60630E-03 0.00000E+00
 -1        63 3.14726E-02-7.63124E-03 0.00000E+00
 -1        64 2.53755E-02-7.36737E-03 0.00000E+00
 -1        65 1.92948E-02-6.78576E-03 0.00000E+00
 -1        66 1.36055E-02-5.92971E-03 0.00000E+00
 -1        67 8.59408E-03-4.85027E-03 0.00000E+00
 -1        68 4.47582E-03-3.54211E-03 0.00000E+00
 -1        69 1.62819E-03-1.90599E-03 0.00000E+00
 -1        70 6.56476E-02-4.28105E-03 0.00000E+00
 -1        71 6.46217E-02-4.31863E-03 0.00000E+00
 -1        72 6.35546E-02-4.41508E-03 0.00000E+00
 -1        73 6.23648E-02-4.59090E-03 0.00000E+00
 -1        74 6.09480E-02-4.84985E-03 0.00000E+00
 -1        75 5.92087E-02-5.18735E-03 0.00000E+00
 -1        76 5.70497E-02-5.59532E-03 0.00000E+00
 -1        77 5.43744E-02-6.06089E-03 0.00000E+00
 -1        78 5.10761E-02-6.54838E-03 0.00000E+00
 -1        79 4.71116E-02-7.00225E-03 0.00000E+00
 -1        80 4.24887E-02-7.37174E-03 0.00000E+00
 -1        81 3.72476E-02-7.60630E-03 0.00000E+00
 -1        82 3.14726E-02-7.63124E-03 0.00000E+00
 -1        83 2.53755E-02-7.36737E-03 0.00000E+00
 -1        84 1.92948E-02-6.78576E-03 0.00000E+00
 -1        85 1.36055E-02-5.92971E-03 0.00000E+00
 -1        86 8.59408E-03-4.85027E-03 0.00000E+00
 -1        87 4.47582E-03-3.54211E-03 0.00000E+00
 -1        88 1.62819E-03-1.90599E-03 0.00000E+00
 -1        89 1.20587E-03-6.88086E-05 0.00000E+00
 -1        90 4.31880E-03-2.02770E-04 0.00000E+00
 -1        91 8.57623E-03-4.16099E-04 0.00000E+00
 -1        92 1.37284E-02-7.10998E-04 0.00000E+00
 -1        93 1.95332E-02-1.07753E-03 0.00000E+00
 -1        94 2.57011E-02-1.48953E-03 0.00000E+00
 -1        95 3.18479E-02-1.89837E-03 0.00000E+00
 -1        96 3.76244E-02-2.26035E-03 0.00000E+00
 -1        97 4.28343E-02-2.55722E-03 0.00000E+00
 -1        98 4.74136E-02-2.78702E-03 0.00000E+00
 -1        99 5.13340E-02-2.95428E-03 0.00000E+00
 -1       100 5.45839E-02-3.07009E-03 0.00000E+00
 -1       101 5.72140E-02-3.14603E-03 0.00000E+00
 -1       102 5.93333E-02-3.19172E-03 0.00000E+00
 -1       103 6.10416E-02-3.21769E-03 0.00000E+00
 -1       104 6.24315E-02-3.23205E-03 0.00000E+00
 -1       105 6.35990E-02-3.23756E-03 0.00000E+00
 -1       106 6.46468E-02-3.23800E-03 0.00000E+00
 -1       107 6.56632E-02-3.23623E-03 0.00000E+00
 -1       108 6.56632E-02-3.23623E-03 0.00000E+00
 -1       109 6.46468E-02-3.23800E-03 0.00000E+00
 -1       110 6.35990E-02-3.23756E-03 0.00000E+00
 -1       111 6.24315E-02-3.23205E-03 0.00000E+00
 -1       112 6.10416E-02-3.21769E-03 0.00000E+00
 -1       113 5.93333E-02-3.19172E-03 0.00000E+00
 -1       114 5.72140E-02-3.14603E-03 0.00000E+00
 -1       115 5.45839E-02-3.07009E-03 0.00000E+00
 -1       116 5.13340E-02-2.95428E-03 0.00000E+00
 -1       117 4.74136E-02-2.78702E-03 0.00000E+00
 -1       118 4.28343E-02-2.55722E-03 0.00000E+00
 -1       119 3.76244E-02-2.26035E-03 0.00000E+00
 -1       120 3.18479E-02-1.89837E-03 0.00000E+00
 -1       121 2.57011E-02-1.48953E-03 0.00000E+00
 -1       122 1.95332E-02-1.07753E-03 0.00000E+00
 -1       123 1.37284E-02-7.10998E-04 0.00000E+00
 -1       124 8.57623E-03-4.16099E-04 0.00000E+00
 -1       125 4.31880E-03-2.02770E-04 0.00000E+00
 -1       126 1.20587E-03-6.88086E-05 0.00000E+00
 -3
    1PSTEP                       134          34           1          
  100CL  134 3.40000E-01         126                     1   34           1
 -4  STRESS      6    1
 -5  SXX         1    4    1    1
 -5  SYY         1    4    2    2
 -5  SZZ         1    4    3    3
 -5  SXY         1    4    1    2
 -5  SYZ         1    4    2    3
 -5  SZX         1    4    3    1
 -1         1 8.27246E+03 1.96151E+04 7.96436E+03 5.76956E+03-1.42422E-11 7.22875E-11
 -1         2 8.27246E+03 1.96151E+04 7.96436E+03 5.76956E+03-1.42422E-11 7.22875E-11
 -1         3-2.36962E+01 1.51126E+01-2.57313E+00-1.34242E+01 1.46223E-08-1.44476E-08
 -1         4-2.36962E+01 1.51126E+01-2.57313E+00-1.34242E+01 1.46223E-08-1.44476E-08
 -1         5 6.25541E+01 1.67247E+02 6.88996E+01-5.08982E+01-1.22143E-08-2.03264E-08
 -1         6 6.25541E+01 1.67247E+02 6.88996E+01-5.08982E+01-1.22149E-08-2.03264E-08
 -1         7-8.57573E+03-1.93596E+04-8.84231E+03 4.41681E+03-1.19105E-10-7.28278E-12
 -1         8-8.57573E+03-1.93596E+04-8.84231E+03 4.41681E+03-1.19105E-10-7.28278E-12
 -1         9 4.58795E+01 1.53951E+02 5.99161E+01-3.92578E+01-8.88861E-10-2.89991E-08
 -1        10 4.58795E+01 1.53951E+02 5.99161E+01-3.92578E+01-8.88777E-10-2.89991E-08
 -1        11-1.22311E+02-8.55578E+02-2.50455E+02 3.69097E+03-6.27276E-11-6.88084E-12
 -1        12-1.22311E+02-8.55578E+02-2.50455E+02 3.69097E+03-6.27276E-11-6.88084E-12
 -1        13 2.78820E+03 1.57519E+04 5.33464E+03 2.03243E+03 1.58448E-08-3.43904E-09
 -1        14 3.13764E+03 1.25753E+04 4.56268E+03 1.45801E+03 3.87694E-08 3.64921E-08
 -1        15 2.23561E+03 8.92568E+03 3.26871E+03 1.36709E+03 5.35327E-08 7.93091E-08
 -1        16 1.59231E+03 5.92461E+03 2.21648E+03 1.16369E+03 5.02391E-08 1.17891E-07
 -1        17 9.02146E+02 2.88222E+03 1.12209E+03 9.64293E+02 1.86439E-08 1.68044E-07
 -1        18 1.43370E+02-2.11024E+02-2.45373E+01 6.58225E+02-2.47241E-08 1.71003E-07
 -1        19-5.49922E+02-2.88267E+03-1.04089E+03 2.70075E+02-4.39930E-08 1.34976E-07
 -1        20-1.07964E+03-4.71105E+03-1.76131E+03-6.17993E+01-3.10417E-08 5.97563E-08
 -1        21-1.37692E+03-5.68057E+03-2.15086E+03-2.48411E+02-6.39477E-09 1.29486E-08
 -1        22-1.54572E+03-6.08372E+03-2.32705E+03-3.27191E+02 7.85131E-09 3.13894E-08
 -1        23-1.53209E+03-6.05020E+03-2.31251E+03-3.73463E+02-9.56603E-09 6.51561E-08
 -1        24-1.42163E+03-5.62042E+03-2.14527E+03-3.88780E+02-4.43326E-08 7.00397E-08
 -1        25-1.24914E+03-4.86802E+03-1.85943E+03-3.61022E+02-6.08101E-08-1.05989E-08
 -1        26-1.05977E+03-3.98517E+03-1.52972E+03-3.19059E+02-5.07258E-08-9.40281E-08
 -1        27-7.97792E+02-3.06429E+03-1.16826E+03-2.82486E+02-2.53479E-08-1.17210E-07
 -1        28-5.77414E+02-2.16571E+03-8.27851E+02-2.38416E+02 5.05193E-09-1.33067E-07
 -1        29-3.83657E+02-1.30786E+03-5.09323E+02-1.86335E+02 1.85974E-08-6.62937E-08
 -1        30-2.21564E+02-5.97482E+02-2.46148E+02-1.20332E+02 1.21846E-08-3.01187E-08
 -1        31-8.19842E+01-1.38726E+02-6.62518E+01-5.48332E+01 9.69443E-09-2.53743E-08
 -1        32 2.78820E+03 1.57519E+04 5.33464E+03 2.03243E+03 1.58448E-08-3.43904E-09
 -1        33 3.13764E+03 1.25753E+04 4.56268E+03 1.45801E+03 3.87694E-08 3.64921E-08
 -1        34 2.23561E+03 8.92568E+03 3.26871E+03 1.36709E+03 5.35327E-08 7.93091E-08
 -1        35 1.59231E+03 5.92461E+03 2.21648E+03 1.16369E+03 5.02392E-08 1.17891E-07
 -1        36 9.02146E+02 2.88222E+03 1.12209E+03 9.64293E+02 1.86439E-08 1.68045E-07
 -1        37 1.43370E+02-2.11024E+02-2.45373E+01 6.58225E+02-2.47239E-08 1.71005E-07
 -1        38-5.49922E+02-2.88267E+03-1.04089E+03 2.70075E+02-4.39934E-08 1.34975E-07
 -1        39-1.07964E+03-4.71105E+03-1.76131E+03-6.17993E+01-3.10417E-08 5.97564E-08
 -1        40-1.37692E+03-5.68057E+03-2.15086E+03-2.48411E+02-6.39483E-09 1.29483E-08
 -1        41-1.54572E+03-6.08372E+03-2.32705E+03-3.27191E+02 7.85133E-09 3.13903E-08
 -1        42-1.53209E+03-6.05020E+03-2.31251E+03-3.73463E+02-9.56604E-09 6.51570E-08
 -1        43-1.42163E+03-5.62042E+03-2.14527E+03-3.88780E+02-4.43326E-08 7.00403E-08
 -1        44-1.24914E+03-4.86802E+03-1.85943E+03-3.61022E+02-6.08102E-08-1.05989E-08
 -1        45-1.05977E+03-3.98517E+03-1.52972E+03-3.19059E+02-5.07257E-08-9.40281E-08
 -1        46-7.97792E+02-3.06429E+03-1.16826E+03-2.82486E+02-2.53479E-08-1.17210E-07
 -1        47-5.77414E+02-2.16571E+03-8.27851E+02-2.38416E+02 5.05205E-09-1.33069E-07
 -1        48-3.83657E+02-1.30786E+03-5.09323E+02-1.86335E+02 1.85975E-08-6.62932E-08
 -1        49-2.21564E+02-5.97482E+02-2.46148E+02-1.20332E+02 1.21846E-08-3.01209E-08
 -1        50-8.19842E+01-1.38726E+02-6.62518E+01-5.48332E+01 9.69459E-09-2.53726E-08
 -1        51 9.48764E+01 3.24425E+02 1.25645E+02-5.36026E+01-1.21395E-08-3.18090E-08
 -1        52 2.10602E+02 7.84008E+02 2.97666E+02-9.91653E+01-1.58767E-08-4.68572E-08
 -1        53 3.50944E+02 1.47569E+03 5.45649E+02-1.38738E+02-2.09516E-08-6.95288E-08
 -1        54 5.54174E+02 2.32654E+03 8.58701E+02-1.48656E+02-9.92258E-09-1.04960E-07
 -1        55 7.61643E+02 3.21128E+03 1.18172E+03-1.28863E+02 2.03959E-08-1.26177E-07
 -1        56 9.74960E+02 4.09041E+03 1.50343E+03-8.35279E+01 4.66416E-08-8.69759E-08
 -1        57 1.15941E+03 4.92864E+03 1.80320E+03-8.86374E+00 4.89324E-08-2.29056E-09
 -1        58 1.32775E+03 5.62644E+03 2.05596E+03 1.16047E+02 2.29261E-08 6.17213E-08
 -1        59 1.42358E+03 5.97225E+03 2.18464E+03 2.81565E+02-9.20408E-09 7.91158E-08
 -1        60 1.46658E+03 5.89141E+03 2.17406E+03 4.35164E+02-8.05345E-09 4.33641E-08
 -1        61 1.37628E+03 5.34608E+03 1.98859E+03 5.62920E+02 2.37700E-08 2.22448E-08
 -1        62 1.14512E+03 4.18127E+03 1.57906E+03 6.72827E+02 4.56126E-08 6.94362E-08
 -1        63 7.36211E+02 2.17037E+03 8.64029E+02 7.16779E+02 3.77455E-08 1.23699E-07
 -1        64 1.49719E+02-5.89803E+02-1.36525E+02 6.08251E+02 2.52987E-09 1.81597E-07
 -1        65-6.22560E+02-3.63894E+03-1.29581E+03 3.66265E+02-2.72382E-08 1.73445E-07
 -1        66-1.41551E+03-6.53848E+03-2.43308E+03 1.26725E+02-3.01549E-08 1.13827E-07
 -1        67-2.13020E+03-9.35758E+03-3.53932E+03 6.37650E+01-2.43827E-08 5.17670E-08
 -1        68-3.24133E+03-1.27938E+04-4.98630E+03 9.54350E+01-2.14979E-08 1.19851E-08
 -1        69-2.86601E+03-1.56484E+04-5.81812E+03 9.15523E+02-1.24895E-08-2.12381E-08
 -1        70 9.48764E+01 3.24425E+02 1.25645E+02-5.36026E+01-1.21402E-08-3.18095E-08
 -1        71 2.10602E+02 7.84008E+02 2.97666E+02-9.91653E+01-1.58770E-08-4.68555E-08
 -1        72 3.50944E+02 1.47569E+03 5.45649E+02-1.38738E+02-2.09514E-08-6.95293E-08
 -1        73 5.54174E+02 2.32654E+03 8.58701E+02-1.48656E+02-9.92249E-09-1.04960E-07
 -1        74 7.61643E+02 3.21128E+03 1.18172E+03-1.28863E+02 2.03955E-08-1.26177E-07
 -1        75 9.74960E+02 4.09041E+03 1.50343E+03-8.35279E+01 4.66416E-08-8.69760E-08
 -1        76 1.15941E+03 4.92864E+03 1.80320E+03-8.86374E+00 4.89327E-08-2.28538E-09
 -1        77 1.32775E+03 5.62644E+03 2.05596E+03 1.16047E+02 2.29264E-08 6.17161E-08
 -1        78 1.42358E+03 5.97225E+03 2.18464E+03 2.81565E+02-9.20409E-09 7.91186E-08
 -1        79 1.46658E+03 5.89141E+03 2.17406E+03 4.35164E+02-8.05315E-09 4.33640E-08
 -1        80 1.37628E+03 5.34608E+03 1.98859E+03 5.62920E+02 2.37705E-08 2.22448E-08
 -1        81 1.14512E+03 4.18127E+03 1.57906E+03 6.72827E+02 4.56117E-08 6.94362E-08
 -1        82 7.36211E+02 2.17037E+03 8.64029E+02 7.16779E+02 3.77457E-08 1.23699E-07
 -1        83 1.49719E+02-5.89803E+02-1.36525E+02 6.08251E+02 2.52999E-09 1.81598E-07
 -1        84-6.22560E+02-3.63894E+03-1.29581E+03 3.66265E+02-2.72382E-08 1.73444E-07
 -1        85-1.41551E+03-6.53848E+03-2.43308E+03 1.26725E+02-3.01546E-08 1.13827E-07
 -1        86-2.13020E+03-9.35758E+03-3.53932E+03 6.37650E+01-2.43828E-08 5.17662E-08
 -1        87-3.24133E+03-1.27938E+04-4.98630E+03 9.54350E+01-2.14979E-08 1.19851E-08
 -1        88-2.86601E+03-1.56484E+04-5.81812E+03 9.15523E+02-1.24895E-08-2.12381E-08
 -1        89 6.69269E+01-7.83960E+02-1.99633E+02 1.03202E+03-1.07903E-09-1.04577E-08
 -1        90 7.64814E+01-6.53450E+02-1.51299E+02 1.10827E+03 6.79058E-09 1.84238E-08
 -1        91 1.20494E+02-5.33815E+02-1.14961E+02 8.73866E+02 1.69326E-08 6.68821E-08
 -1        92 1.45919E+02-4.88001E+02-1.00030E+02 8.24424E+02 1.42082E-08 1.14320E-07
 -1        93 1.88495E+02-4.82018E+02-8.93927E+01 8.56383E+02-5.11643E-09 1.76181E-07
 -1        94 1.91561E+02-4.73627E+02-8.69519E+01 8.28754E+02-1.66240E-08 1.85713E-07
 -1        95 1.34916E+02-4.23328E+02-8.77841E+01 6.49902E+02-7.25691E-09 1.28940E-07
 -1        96 6.38212E+01-3.49716E+02-8.47724E+01 3.94546E+02 8.80058E-09 6.04442E-08
 -1        97 2.01321E+01-2.74726E+02-7.32037E+01 1.90508E+02 1.27323E-08 1.55511E-08
 -1        98-2.03573E+01-2.07119E+02-6.39662E+01 5.87028E+01 2.08468E-09 3.22333E-08
 -1        99-3.73596E+01-1.44822E+02-5.04968E+01-6.37539E+01-1.34187E-08 7.76450E-08
 -1       100-3.85067E+01-9.29649E+01-3.58055E+01-1.82600E+02-1.41233E-08 6.93811E-08
 -1       101-4.05464E+01-4.06879E+01-2.14185E+01-2.48191E+02-5.23462E-09-3.84635E-09
 -1       102-3.95167E+01 6.94413E+00-7.74039E+00-2.62844E+02-2.40208E-09-9.21191E-08
 -1       103-1.87543E+01 4.20003E+01 8.11109E+00-2.63127E+02 2.03738E-09-1.29838E-07
 -1       104-1.27189E+01 6.62552E+01 1.65882E+01-2.53289E+02-7.32003E-10-1.23734E-07
 -1       105-1.41628E+01 8.85342E+01 2.24961E+01-2.18243E+02-9.27262E-09-6.93950E-08
 -1       106-4.66677E-01 1.07943E+02 3.22802E+01-1.47934E+02-4.93523E-09-3.81022E-08
 -1       107 2.28806E+01 1.33062E+02 4.67630E+01-6.98209E+01-7.24674E-10-2.71674E-08
 -1       108 2.28806E+01 1.33062E+02 4.67630E+01-6.98209E+01-7.24682E-10-2.71676E-08
 -1       109-4.66677E-01 1.07943E+02 3.22802E+01-1.47934E+02-4.93523E-09-3.81022E-08
 -1       110-1.41628E+01 8.85342E+01 2.24961E+01-2.18243E+02-9.27272E-09-6.93942E-08
 -1       111-1.27189E+01 6.62552E+01 1.65882E+01-2.53289E+02-7.32189E-10-1.23731E-07
 -1       112-1.87543E+01 4.20003E+01 8.11109E+00-2.63127E+02 2.03753E-09-1.29839E-07
 -1       113-3.95167E+01 6.94413E+00-7.74039E+00-2.62844E+02-2.40218E-09-9.21189E-08
 -1       114-4.05464E+01-4.06879E+01-2.14185E+01-2.48191E+02-5.23443E-09-3.84844E-09
 -1       115-3.85067E+01-9.29649E+01-3.58055E+01-1.82600E+02-1.41234E-08 6.93809E-08
 -1       116-3.73596E+01-1.44822E+02-5.04968E+01-6.37539E+01-1.34187E-08 7.76425E-08
 -1       117-2.03573E+01-2.07119E+02-6.39662E+01 5.87028E+01 2.08463E-09 3.22317E-08
 -1       118 2.01321E+01-2.74726E+02-7.32037E+01 1.90508E+02 1.27321E-08 1.55515E-08
 -1       119 6.38212E+01-3.49716E+02-8.47724E+01 3.94546E+02 8.80070E-09 6.04441E-08
 -1       120 1.34916E+02-4.23328E+02-8.77841E+01 6.49902E+02-7.25674E-09 1.28941E-07
 -1       121 1.91561E+02-4.73627E+02-8.69519E+01 8.28754E+02-1.66243E-08 1.85711E-07
 -1       122 1.88495E+02-4.82018E+02-8.93927E+01 8.56383E+02-5.11635E-09 1.76180E-07
 -1       123 1.45919E+02-4.88001E+02-1.00030E+02 8.24424E+02 1.42082E-08 1.14321E-07
 -1       124 1.20494E+02-5.33815E+02-1.14961E+02 8.73866E+02 1.69325E-08 6.68821E-08
 -1       125 7.64814E+01-6.53450E+02-1.51299E+02 1.10827E+03 6.79060E-09 1.84239E-08
 -1       126 6.69269E+01-7.83960E+02-1.99633E+02 1.03202E+03-1.07903E-09-1.04577E-08
 -3
    1PSTEP                       135          34           1          
  100CL  134 3.40000E-01         126                     1   34           1
 -4  TOSTRAIN    6    1
 -5  EXX         1    4    1    1
 -5  EYY         1    4    2    2
 -5  EZZ         1    4    3    3
 -5  EXY         1    4    1    2
 -5  EYZ         1    4    2    3
 -5  EZX         1    4    3    1
 -1         1-1.15042E-04 3.55942E-02-6.58089E-28 1.68544E-02-2.65057E-19 2.71465E-16
 -1         2-1.15042E-04 3.55942E-02-6.58089E-28 1.68544E-02-2.65057E-19 2.71465E-16
 -1         3-6.68189E-05 5.56588E-05 6.93664E-27-4.61855E-05 4.65422E-14-4.79229E-14
 -1         4-6.68189E-05 5.56588E-05 6.93664E-27-4.61855E-05 4.65422E-14-4.79229E-14
 -1         5-1.36793E-05 3.12332E-04 1.08041E-26-1.72195E-04-4.10486E-14-6.52222E-14
 -1         6-1.36793E-05 3.12332E-04 1.08043E-26-1.72195E-04-4.10507E-14-6.52221E-14
 -1         7-1.18603E-04-3.69807E-02-2.01517E-27 1.62816E-02 2.80715E-19-1.67979E-16
 -1         8-1.18603E-04-3.69807E-02-2.01517E-27 1.62816E-02 2.80715E-19-1.67979E-16
 -1         9-4.02491E-05 2.99948E-04 1.67232E-26-1.34619E-04-4.84176E-15-9.41604E-14
 -1        10-4.02491E-05 2.99948E-04 1.67231E-26-1.34619E-04-4.84149E-15-9.41605E-14
 -1        11-1.16822E-04-1.20119E-03-2.22015E-28 1.20585E-02 5.89922E-20-1.94118E-17
 -1        12-1.16822E-04-1.20119E-03-2.22015E-28 1.20585E-02 5.89922E-20-1.94118E-17
 -1        13-8.99547E-03 3.24569E-02 1.07923E-28 4.71674E-03 4.91121E-14-1.32900E-14
 -1        14-5.31686E-03 2.53772E-02 4.43390E-26 2.51634E-03 1.29272E-13 1.08914E-13
 -1        15-4.07692E-03 1.83888E-02 1.75124E-25 2.36176E-03 1.91399E-13 2.39754E-13
 -1        16-2.72225E-03 1.23979E-02 3.27588E-25 2.18309E-03 1.98908E-13 3.62422E-13
 -1        17-1.37428E-03 6.26063E-03 5.90088E-25 2.29417E-03 1.21316E-13 5.34528E-13
 -1        18 1.19163E-05-1.10148E-04 6.24529E-25 2.21407E-03-1.45416E-14 5.61422E-13
 -1        19 1.27143E-03-5.76117E-03 4.09197E-25 1.73878E-03-9.24523E-14 4.52888E-13
 -1        20 2.08765E-03-9.67402E-03 7.57235E-26 1.08383E-03-8.05958E-14 2.04369E-13
 -1        21 2.50063E-03-1.17552E-02-2.50844E-27 5.67999E-04-1.68066E-14 4.39948E-14
 -1        22 2.57005E-03-1.25772E-02 1.88169E-26 2.01154E-04 3.47929E-14 9.97055E-14
 -1        23 2.59107E-03-1.25367E-02 8.64642E-26-1.49225E-04-1.59087E-14 2.13951E-13
 -1        24 2.41622E-03-1.16475E-02 1.29447E-25-4.48869E-04-1.32271E-13 2.36221E-13
 -1        25 2.04348E-03-1.00520E-02 4.84728E-26-6.04291E-04-2.01943E-13-2.49622E-14
 -1        26 1.57637E-03-8.17170E-03 2.21038E-25-6.66102E-04-1.78959E-13-2.99475E-13
 -1        27 1.24462E-03-6.28752E-03 2.97736E-25-6.85311E-04-9.55838E-14-3.78654E-13
 -1        28 8.45975E-04-4.42321E-03 3.64492E-25-6.39636E-04 4.67131E-15-4.33143E-13
 -1        29 4.32831E-04-2.63576E-03 8.70553E-26-5.37457E-04 5.55689E-14-2.16917E-13
 -1        30 9.55905E-05-1.16110E-03 1.86893E-26-3.65536E-04 3.75409E-14-9.87402E-14
 -1        31-4.39166E-05-2.43060E-04 1.49708E-26-1.74414E-04 2.97919E-14-8.31100E-14
 -1        32-8.99547E-03 3.24569E-02 1.07923E-28 4.71674E-03 4.91121E-14-1.32900E-14
 -1        33-5.31686E-03 2.53772E-02 4.43390E-26 2.51634E-03 1.29272E-13 1.08914E-13
 -1        34-4.07692E-03 1.83888E-02 1.75124E-25 2.36176E-03 1.91399E-13 2.39754E-13
 -1        35-2.72225E-03 1.23979E-02 3.27587E-25 2.18309E-03 1.98908E-13 3.62421E-13
 -1        36-1.37428E-03 6.26063E-03 5.90094E-25 2.29417E-03 1.21316E-13 5.34532E-13
 -1        37 1.19163E-05-1.10148E-04 6.24546E-25 2.21407E-03-1.45402E-14 5.61430E-13
 -1        38 1.27143E-03-5.76117E-03 4.09192E-25 1.73878E-03-9.24541E-14 4.52886E-13
 -1        39 2.08765E-03-9.67402E-03 7.57238E-26 1.08383E-03-8.05958E-14 2.04369E-13
 -1        40 2.50063E-03-1.17552E-02-2.50876E-27 5.67999E-04-1.68068E-14 4.39941E-14
 -1        41 2.57005E-03-1.25772E-02 1.88181E-26 2.01154E-04 3.47932E-14 9.97085E-14
 -1        42 2.59107E-03-1.25367E-02 8.64671E-26-1.49225E-04-1.59085E-14 2.13954E-13
 -1        43 2.41622E-03-1.16475E-02 1.29448E-25-4.48869E-04-1.32271E-13 2.36223E-13
 -1        44 2.04348E-03-1.00520E-02 4.84728E-26-6.04291E-04-2.01943E-13-2.49622E-14
 -1        45 1.57637E-03-8.17170E-03 2.21038E-25-6.66102E-04-1.78959E-13-2.99475E-13
 -1        46 1.24462E-03-6.28752E-03 2.97733E-25-6.85311E-04-9.55839E-14-3.78652E-13
 -1        47 8.45975E-04-4.42321E-03 3.64502E-25-6.39636E-04 4.67153E-15-4.33149E-13
 -1        48 4.32831E-04-2.63576E-03 8.70546E-26-5.37457E-04 5.55692E-14-2.16915E-13
 -1        49 9.55905E-05-1.16110E-03 1.86926E-26-3.65536E-04 3.75405E-14-9.87473E-14
 -1        50-4.39166E-05-2.43060E-04 1.49689E-26-1.74414E-04 2.97925E-14-8.31044E-14
 -1        51-9.25161E-05 6.37332E-04 2.33555E-26-1.89198E-04-4.15678E-14-1.02529E-13
 -1        52-2.68766E-04 1.56030E-03 4.96663E-26-3.60626E-04-5.47554E-14-1.51117E-13
 -1        53-6.12064E-04 2.98137E-03 1.07680E-25-5.32607E-04-7.30740E-14-2.24242E-13
 -1        54-9.65809E-04 4.69784E-03 2.28992E-25-6.32093E-04-4.12102E-14-3.39822E-13
 -1        55-1.34146E-03 6.48226E-03 3.38038E-25-6.67783E-04 5.24310E-14-4.11418E-13
 -1        56-1.69890E-03 8.24554E-03 1.79564E-25-6.62164E-04 1.38626E-13-2.87848E-13
 -1        57-2.08823E-03 9.94692E-03 1.77590E-26-6.15109E-04 1.56365E-13-1.50343E-14
 -1        58-2.40170E-03 1.13683E-02 7.60856E-26-4.50186E-04 8.51519E-14 1.95367E-13
 -1        59-2.57376E-03 1.21047E-02 1.29964E-25-1.52534E-04-1.10229E-14 2.57999E-13
 -1        60-2.47946E-03 1.19640E-02 3.57185E-26 1.78429E-04-1.38330E-14 1.42337E-13
 -1        61-2.26237E-03 1.09327E-02 1.42285E-26 5.43074E-04 8.26790E-14 6.42922E-14
 -1        62-1.79807E-03 8.67519E-03 1.28486E-25 1.06723E-03 1.69566E-13 2.07794E-13
 -1        63-9.08732E-04 4.66727E-03 3.30312E-25 1.72331E-03 1.66943E-13 3.84334E-13
 -1        64 4.16981E-04-1.00015E-03 6.84103E-25 2.21055E-03 7.75486E-14 5.84731E-13
 -1        65 1.75682E-03-7.33986E-03 6.41478E-25 2.30753E-03-2.40248E-14 5.70750E-13
 -1        66 2.97859E-03-1.34312E-02 2.73451E-25 2.19519E-03-6.01047E-14 3.79107E-13
 -1        67 4.25837E-03-1.94113E-02 5.35755E-26 2.38172E-03-6.57597E-14 1.75427E-13
 -1        68 5.31621E-03-2.65555E-02 6.10312E-27 2.52845E-03-6.97006E-14 4.40527E-14
 -1        69 9.05873E-03-3.38114E-02 9.10199E-27 4.84680E-03-4.49545E-14-6.72586E-14
 -1        70-9.25161E-05 6.37332E-04 2.33567E-26-1.89198E-04-4.15701E-14-1.02531E-13
 -1        71-2.68766E-04 1.56030E-03 4.96634E-26-3.60626E-04-5.47563E-14-1.51112E-13
 -1        72-6.12064E-04 2.98137E-03 1.07682E-25-5.32607E-04-7.30736E-14-2.24244E-13
 -1        73-9.65809E-04 4.69784E-03 2.28992E-25-6.32093E-04-4.12099E-14-3.39822E-13
 -1        74-1.34146E-03 6.48226E-03 3.38038E-25-6.67783E-04 5.24296E-14-4.11418E-13
 -1        75-1.69890E-03 8.24554E-03 1.79564E-25-6.62164E-04 1.38626E-13-2.87848E-13
 -1        76-2.08823E-03 9.94692E-03 1.77631E-26-6.15109E-04 1.56367E-13-1.50175E-14
 -1        77-2.40170E-03 1.13683E-02 7.60757E-26-4.50186E-04 8.51520E-14 1.95350E-13
 -1        78-2.57376E-03 1.21047E-02 1.29973E-25-1.52534E-04-1.10223E-14 2.58008E-13
 -1        79-2.47946E-03 1.19640E-02 3.57182E-26 1.78429E-04-1.38321E-14 1.42337E-13
 -1        80-2.26237E-03 1.09327E-02 1.42289E-26 5.43074E-04 8.26805E-14 6.42923E-14
 -1        81-1.79807E-03 8.67519E-03 1.28484E-25 1.06723E-03 1.69564E-13 2.07794E-13
 -1        82-9.08732E-04 4.66727E-03 3.30311E-25 1.72331E-03 1.66943E-13 3.84334E-13
 -1        83 4.16981E-04-1.00015E-03 6.84110E-25 2.21055E-03 7.75494E-14 5.84734E-13
 -1        84 1.75682E-03-7.33986E-03 6.41474E-25 2.30753E-03-2.40251E-14 5.70749E-13
 -1        85 2.97859E-03-1.34312E-02 2.73451E-25 2.19519E-03-6.01034E-14 3.79108E-13
 -1        86 4.25837E-03-1.94113E-02 5.35733E-26 2.38172E-03-6.57603E-14 1.75424E-13
 -1        87 5.31621E-03-2.65555E-02 6.10309E-27 2.52845E-03-6.97006E-14 4.40527E-14
 -1        88 9.05873E-03-3.38114E-02 9.10199E-27 4.84680E-03-4.49545E-14-6.72586E-14
 -1        89 3.16342E-05-1.00748E-03-2.50192E-28 3.45197E-03-4.48435E-15-3.37446E-14
 -1        90-3.26195E-07-7.43200E-04-1.34417E-27 3.73598E-03 2.61467E-14 5.81609E-14
 -1        91 9.07235E-05-6.32710E-04 8.59425E-26 2.98819E-03 7.41695E-14 2.11286E-13
 -1        92 1.28171E-04-5.82873E-04 2.62202E-25 2.83960E-03 8.46683E-14 3.64249E-13
 -1        93 1.91268E-04-5.85727E-04 6.45549E-25 2.96283E-03 4.86810E-14 5.70441E-13
 -1        94 2.14449E-04-5.93061E-04 7.26915E-25 2.87632E-03 1.72234E-14 6.05606E-13
 -1        95 1.81347E-04-5.66174E-04 3.31584E-25 2.26735E-03 2.46753E-14 4.18856E-13
 -1        96 1.44790E-04-5.22710E-04 6.12981E-26 1.39839E-03 4.95300E-14 1.92111E-13
 -1        97 1.19129E-04-4.52138E-04 3.66876E-27 7.01001E-04 4.61620E-14 4.62533E-14
 -1        98 4.52953E-05-3.41155E-04 1.70370E-26 2.39945E-04 1.57557E-14 1.03828E-13
 -1        99 8.65718E-06-2.46085E-04 1.27043E-25-1.79781E-04-2.51786E-14 2.54861E-13
 -1       100 7.26288E-06-1.78754E-04 9.24756E-26-5.78621E-04-3.22351E-14 2.27789E-13
 -1       101-2.23789E-05-8.29790E-05-3.30456E-26-8.02551E-04-1.75946E-14-1.16725E-14
 -1       102-6.12623E-05 1.90097E-05 1.55017E-25-8.57313E-04-1.97396E-14-2.98882E-13
 -1       103-4.84207E-05 7.82874E-05 3.52074E-25-8.59471E-04-7.12621E-15-4.21994E-13
 -1       104-5.99168E-05 1.28996E-04 3.17712E-25-8.28538E-04-1.32877E-14-4.01935E-13
 -1       105-8.96166E-05 1.85929E-04 9.51384E-26-7.15964E-04-3.54122E-14-2.24820E-13
 -1       106-8.65877E-05 2.26139E-04 2.82781E-26-4.87617E-04-1.87034E-14-1.23479E-13
 -1       107-6.82164E-05 2.70847E-04 1.49623E-26-2.33994E-04-4.19667E-15-8.82252E-14
 -1       108-6.82164E-05 2.70847E-04 1.49624E-26-2.33994E-04-4.19671E-15-8.82258E-14
 -1       109-8.65877E-05 2.26139E-04 2.82780E-26-4.87617E-04-1.87034E-14-1.23479E-13
 -1       110-8.96166E-05 1.85929E-04 9.51357E-26-7.15964E-04-3.54125E-14-2.24817E-13
 -1       111-5.99168E-05 1.28996E-04 3.17694E-25-8.28538E-04-1.32880E-14-4.01924E-13
 -1       112-4.84207E-05 7.82874E-05 3.52079E-25-8.59471E-04-7.12583E-15-4.21997E-13
 -1       113-6.12623E-05 1.90097E-05 1.55017E-25-8.57313E-04-1.97399E-14-2.98882E-13
 -1       114-2.23789E-05-8.29790E-05-3.30459E-26-8.02551E-04-1.75944E-14-1.16794E-14
 -1       115 7.26288E-06-1.78754E-04 9.24737E-26-5.78621E-04-3.22353E-14 2.27788E-13
 -1       116 8.65718E-06-2.46085E-04 1.27035E-25-1.79781E-04-2.51792E-14 2.54853E-13
 -1       117 4.52953E-05-3.41155E-04 1.70353E-26 2.39945E-04 1.57551E-14 1.03823E-13
 -1       118 1.19129E-04-4.52138E-04 3.66910E-27 7.01001E-04 4.61616E-14 4.62545E-14
 -1       119 1.44790E-04-5.22710E-04 6.12978E-26 1.39839E-03 4.95303E-14 1.92110E-13
 -1       120 1.81347E-04-5.66174E-04 3.31589E-25 2.26735E-03 2.46761E-14 4.18858E-13
 -1       121 2.14449E-04-5.93061E-04 7.26903E-25 2.87632E-03 1.72219E-14 6.05600E-13
 -1       122 1.91268E-04-5.85727E-04 6.45537E-25 2.96283E-03 4.86806E-14 5.70436E-13
 -1       123 1.28171E-04-5.82873E-04 2.62204E-25 2.83960E-03 8.46683E-14 3.64250E-13
 -1       124 9.07235E-05-6.32710E-04 8.59426E-26 2.98819E-03 7.41695E-14 2.11286E-13
 -1       125-3.26195E-07-7.43200E-04-1.34408E-27 3.73598E-03 2.61468E-14 5.81610E-14
 -1       126 3.16342E-05-1.00748E-03-2.50192E-28 3.45197E-03-4.48435E-15-3.37446E-14
 -3
    1PSTEP                       136          34           1          
  100CL  134 3.40000E-01         126                     1   34           1
 -4  ERROR       1    1
 -5  STR(%)      1    1    0    0
 -1         1 6.67429E+01
 -1         2 6.67429E+01
 -1         3 4.56393E+01
 -1         4 4.56393E+01
 -1         5 2.33111E+00
 -1         6 2.33111E+00
 -1         7 6.05500E+01
 -1         8 6.05500E+01
 -1         9 4.56393E+01
 -1        10 4.56393E+01
 -1        11 6.67429E+01
 -1        12 6.67429E+01
 -1        13 6.67429E+01
 -1        14 6.53128E+01
 -1        15 6.53128E+01
 -1        16 6.49595E+01
 -1        17 6.06035E+01
 -1        18 3.10148E+01
 -1        19 5.35523E+01
 -1        20 5.76409E+01
 -1        21 5.77103E+01
 -1        22 5.77103E+01
 -1        23 5.86901E+01
 -1        24 5.99442E+01
 -1        25 6.09300E+01
 -1        26 6.22127E+01
 -1        27 6.24113E+01
 -1        28 6.24113E+01
 -1        29 6.14486E+01
 -1        30 5.71527E+01
 -1        31 5.46945E+01
 -1        32 6.67429E+01
 -1        33 6.53128E+01
 -1        34 6.53128E+01
 -1        35 6.49595E+01
 -1        36 6.06035E+01
 -1        37 3.10148E+01
 -1        38 5.35523E+01
 -1        39 5.76409E+01
 -1        40 5.77103E+01
 -1        41 5.77103E+01
 -1        42 5.86901E+01
 -1        43 5.99442E+01
 -1        44 6.09300E+01
 -1        45 6.22127E+01
 -1        46 6.24113E+01
 -1        47 6.24113E+01
 -1        48 6.14486E+01
 -1        49 5.71527E+01
 -1        50 5.46945E+01
 -1        51 3.19084E+01
 -1        52 4.72506E+01
 -1        53 5.63208E+01
 -1        54 6.01108E+01
 -1        55 6.13034E+01
 -1        56 6.21000E+01
 -1        57 6.28048E+01
 -1        58 6.28048E+01
 -1        59 6.20854E+01
 -1        60 6.33386E+01
 -1        61 6.58205E+01
 -1        62 6.58205E+01
 -1        63 6.32384E+01
 -1        64 2.56372E+01
 -1        65 5.32889E+01
 -1        66 5.83027E+01
 -1        67 5.93272E+01
 -1        68 5.93272E+01
 -1        69 6.05500E+01
 -1        70 3.19084E+01
 -1        71 4.72506E+01
 -1        72 5.63208E+01
 -1        73 6.01108E+01
 -1        74 6.13034E+01
 -1        75 6.21000E+01
 -1        76 6.28048E+01
 -1        77 6.28048E+01
 -1        78 6.20854E+01
 -1        79 6.33386E+01
 -1        80 6.58205E+01
 -1        81 6.58205E+01
 -1        82 6.32384E+01
 -1        83 2.56372E+01
 -1        84 5.32889E+01
 -1        85 5.83027E+01
 -1        86 5.93272E+01
 -1        87 5.93272E+01
 -1        88 6.05500E+01
 -1        89 6.67429E+01
 -1        90 6.53128E+01
 -1        91 6.53128E+01
 -1        92 6.49595E+01
 -1        93 6.06035E+01
 -1        94 3.10148E+01
 -1        95 6.32384E+01
 -1        96 6.58205E+01
 -1        97 6.58205E+01
 -1        98 6.33386E+01
 -1        99 6.20854E+01
 -1       100 6.28048E+01
 -1       101 6.28048E+01
 -1       102 6.22127E+01
 -1       103 6.24113E+01
 -1       104 6.24113E+01
 -1       105 6.14486E+01
 -1       106 5.71527E+01
 -1       107 5.46945E+01
 -1       108 5.46945E+01
 -1       109 5.71527E+01
 -1       110 6.14486E+01
 -1       111 6.24113E+01
 -1       112 6.24113E+01
 -1       113 6.22127E+01
 -1       114 6.28048E+01
 -1       115 6.28048E+01
 -1       116 6.20854E+01
 -1       117 6.33386E+01
 -1       118 6.58205E+01
 -1       119 6.58205E+01
 -1       120 6.32384E+01
 -1       121 3.10148E+01
 -1       122 6.06035E+01
 -1       123 6.49595E+01
 -1       124 6.53128E+01
 -1       125 6.53128E+01
 -1       126 6.67429E+01
 -3
    1PSTEP                       137          35           1          
  100CL  135 3.50000E-01         126                     1   35           1
 -4  DISP        4    1
 -5  D1          1    2    1    0
 -5  D2          1    2    2    0
 -5  D3          1    2    3    0
 -5  ALL         1    2    0    0    1ALL
 -1         1 0.00000E+00 0.00000E+00 0.00000E+00
 -1         2 0.00000E+00 0.00000E+00 0.00000E+00
 -1         3 7.12038E-02-2.05609E-03 0.00000E+00
 -1         4 7.12038E-02-2.05609E-03 0.00000E+00
 -1         5 7.11590E-02-4.89565E-03 0.00000E+00
 -1         6 7.11590E-02-4.89565E-03 0.00000E+00
 -1         7 0.00000E+00 0.00000E+00 0.00000E+00
 -1         8 0.00000E+00 0.00000E+00 0.00000E+00
 -1         9 7.11808E-02-3.46768E-03 0.00000E+00
 -1        10 7.11808E-02-3.46768E-03 0.00000E+00
 -1        11 0.00000E+00 0.00000E+00 0.00000E+00
 -1        12 0.00000E+00 0.00000E+00 0.00000E+00
 -1        13 1.97328E-03 1.84810E-03 0.00000E+00
 -1        14 5.23248E-03 3.20080E-03 0.00000E+00
 -1        15 9.66412E-03 4.01398E-03 0.00000E+00
 -1        16 1.48797E-02 4.44933E-03 0.00000E+00
 -1        17 2.06684E-02 4.54943E-03 0.00000E+00
 -1        18 2.67493E-02 4.33320E-03 0.00000E+00
 -1        19 3.28044E-02 3.84912E-03 0.00000E+00
 -1        20 3.85798E-02 3.17657E-03 0.00000E+00
 -1        21 4.38955E-02 2.39530E-03 0.00000E+00
 -1        22 4.86257E-02 1.57367E-03 0.00000E+00
 -1        23 5.27011E-02 7.80819E-04 0.00000E+00
 -1        24 5.61528E-02 7.21668E-05 0.00000E+00
 -1        25 5.90593E-02-5.29204E-04 0.00000E+00
 -1        26 6.15066E-02-1.02399E-03 0.00000E+00
 -1        27 6.35689E-02-1.41165E-03 0.00000E+00
 -1        28 6.53413E-02-1.68991E-03 0.00000E+00
 -1        29 6.69277E-02-1.87272E-03 0.00000E+00
 -1        30 6.83997E-02-1.98346E-03 0.00000E+00
 -1        31 6.98034E-02-2.03742E-03 0.00000E+00
 -1        32 1.97328E-03 1.84810E-03 0.00000E+00
 -1        33 5.23248E-03 3.20080E-03 0.00000E+00
 -1        34 9.66412E-03 4.01398E-03 0.00000E+00
 -1        35 1.48797E-02 4.44933E-03 0.00000E+00
 -1        36 2.06684E-02 4.54943E-03 0.00000E+00
 -1        37 2.67493E-02 4.33320E-03 0.00000E+00
 -1        38 3.28044E-02 3.84912E-03 0.00000E+00
 -1        39 3.85798E-02 3.17657E-03 0.00000E+00
 -1        40 4.38955E-02 2.39530E-03 0.00000E+00
 -1        41 4.86257E-02 1.57367E-03 0.00000E+00
 -1        42 5.27011E-02 7.80819E-04 0.00000E+00
 -1        43 5.61528E-02 7.21668E-05 0.00000E+00
 -1        44 5.90593E-02-5.29204E-04 0.00000E+00
 -1        45 6.15066E-02-1.02399E-03 0.00000E+00
 -1        46 6.35689E-02-1.41165E-03 0.00000E+00
 -1        47 6.53413E-02-1.68991E-03 0.00000E+00
 -1        48 6.69277E-02-1.87272E-03 0.00000E+00
 -1        49 6.83997E-02-1.98346E-03 0.00000E+00
 -1        50 6.98034E-02-2.03742E-03 0.00000E+00
 -1        51 6.97546E-02-4.89644E-03 0.00000E+00
 -1        52 6.83487E-02-4.93741E-03 0.00000E+00
 -1        53 6.68713E-02-5.02603E-03 0.00000E+00
 -1        54 6.52754E-02-5.17070E-03 0.00000E+00
 -1        55 6.34892E-02-5.38716E-03 0.00000E+00
 -1        56 6.14026E-02-5.67919E-03 0.00000E+00
 -1        57 5.89117E-02-6.03466E-03 0.00000E+00
 -1        58 5.59448E-02-6.43931E-03 0.00000E+00
 -1        59 5.24141E-02-6.87230E-03 0.00000E+00
 -1        60 4.82399E-02-7.28666E-03 0.00000E+00
 -1        61 4.34022E-02-7.60840E-03 0.00000E+00
 -1        62 3.79906E-02-7.76922E-03 0.00000E+00
 -1        63 3.21488E-02-7.71953E-03 0.00000E+00
 -1        64 2.60724E-02-7.41786E-03 0.00000E+00
 -1        65 2.00330E-02-6.84538E-03 0.00000E+00
 -1        66 1.43451E-02-6.02639E-03 0.00000E+00
 -1        67 9.27134E-03-4.99554E-03 0.00000E+00
 -1        68 5.00115E-03-3.73032E-03 0.00000E+00
 -1        69 1.91385E-03-2.06864E-03 0.00000E+00
 -1        70 6.97546E-02-4.89644E-03 0.00000E+00
 -1        71 6.83487E-02-4.93741E-03 0.00000E+00
 -1        72 6.68713E-02-5.02603E-03 0.00000E+00
 -1        73 6.52754E-02-5.17070E-03 0.00000E+00
 -1        74 6.34892E-02-5.38716E-03 0.00000E+00
 -1        75 6.14026E-02-5.67919E-03 0.00000E+00
 -1        76 5.89117E-02-6.03466E-03 0.00000E+00
 -1        77 5.59448E-02-6.43931E-03 0.00000E+00
 -1        78 5.24141E-02-6.87230E-03 0.00000E+00
 -1        79 4.82399E-02-7.28666E-03 0.00000E+00
 -1        80 4.34022E-02-7.60840E-03 0.00000E+00
 -1        81 3.79906E-02-7.76922E-03 0.00000E+00
 -1        82 3.21488E-02-7.71953E-03 0.00000E+00
 -1        83 2.60724E-02-7.41786E-03 0.00000E+00
 -1        84 2.00330E-02-6.84538E-03 0.00000E+00
 -1        85 1.43451E-02-6.02639E-03 0.00000E+00
 -1        86 9.27134E-03-4.99554E-03 0.00000E+00
 -1        87 5.00115E-03-3.73032E-03 0.00000E+00
 -1        88 1.91385E-03-2.06864E-03 0.00000E+00
 -1        89 1.47011E-03-8.55554E-05 0.00000E+00
 -1        90 4.86328E-03-2.42129E-04 0.00000E+00
 -1        91 9.27442E-03-4.70415E-04 0.00000E+00
 -1        92 1.44821E-02-7.73153E-04 0.00000E+00
 -1        93 2.02790E-02-1.13880E-03 0.00000E+00
 -1        94 2.63979E-02-1.54049E-03 0.00000E+00
 -1        95 3.25182E-02-1.94104E-03 0.00000E+00
 -1        96 3.83673E-02-2.30705E-03 0.00000E+00
 -1        97 4.37591E-02-2.61869E-03 0.00000E+00
 -1        98 4.85561E-02-2.86790E-03 0.00000E+00
 -1        99 5.26817E-02-3.05550E-03 0.00000E+00
 -1       100 5.61611E-02-3.19063E-03 0.00000E+00
 -1       101 5.90818E-02-3.28668E-03 0.00000E+00
 -1       102 6.15321E-02-3.35538E-03 0.00000E+00
 -1       103 6.35888E-02-3.40227E-03 0.00000E+00
 -1       104 6.53489E-02-3.43134E-03 0.00000E+00
 -1       105 6.69243E-02-3.44922E-03 0.00000E+00
 -1       106 6.83860E-02-3.45976E-03 0.00000E+00
 -1       107 6.97824E-02-3.46483E-03 0.00000E+00
 -1       108 6.97824E-02-3.46483E-03 0.00000E+00
 -1       109 6.83860E-02-3.45976E-03 0.00000E+00
 -1       110 6.69243E-02-3.44922E-03 0.00000E+00
 -1       111 6.53489E-02-3.43134E-03 0.00000E+00
 -1       112 6.35888E-02-3.40227E-03 0.00000E+00
 -1       113 6.15321E-02-3.35538E-03 0.00000E+00
 -1       114 5.90818E-02-3.28668E-03 0.00000E+00
 -1       115 5.61611E-02-3.19063E-03 0.00000E+00
 -1       116 5.26817E-02-3.05550E-03 0.00000E+00
 -1       117 4.85561E-02-2.86790E-03 0.00000E+00
 -1       118 4.37591E-02-2.61869E-03 0.00000E+00
 -1       119 3.83673E-02-2.30705E-03 0.00000E+00
 -1       120 3.25182E-02-1.94104E-03 0.00000E+00
 -1       121 2.63979E-02-1.54049E-03 0.00000E+00
 -1       122 2.02790E-02-1.13880E-03 0.00000E+00
 -1       123 1.44821E-02-7.73153E-04 0.00000E+00
 -1       124 9.27442E-03-4.70415E-04 0.00000E+00
 -1       125 4.86328E-03-2.42129E-04 0.00000E+00
 -1       126 1.47011E-03-8.55554E-05 0.00000E+00
 -3
    1PSTEP                       138          35           1          
  100CL  135 3.50000E-01         126                     1   35           1
 -4  STRESS      6    1
 -5  SXX         1    4    1    1
 -5  SYY         1    4    2    2
 -5  SZZ         1    4    3    3
 -5  SXY         1    4    1    2
 -5  SYZ         1    4    2    3
 -5  SZX         1    4    3    1
 -1         1 8.98457E+03 2.11318E+04 8.54947E+03 6.81417E+03-6.01791E-10-4.00109E-10
 -1         2 8.98457E+03 2.11318E+04 8.54947E+03 6.81417E+03-6.01791E-10-4.00109E-10
 -1         3-3.02043E+01-1.90406E+00-9.63124E+00-3.42258E+01-6.83205E-09-1.30825E-08
 -1         4-3.02043E+01-1.90406E+00-9.63124E+00-3.42258E+01-6.83215E-09-1.30815E-08
 -1         5 7.53764E+01 2.18651E+02 8.81364E+01-7.05353E+01-1.30556E-08-1.70809E-08
 -1         6 7.53764E+01 2.18651E+02 8.81364E+01-7.05353E+01-1.30558E-08-1.70809E-08
 -1         7-9.19587E+03-2.08457E+04-9.57513E+03 5.12844E+03-6.16761E-10 5.22161E-10
 -1         8-9.19587E+03-2.08457E+04-9.57513E+03 5.12844E+03-6.16761E-10 5.22161E-10
 -1         9 4.94790E+01 1.73423E+02 6.68220E+01-6.41120E+01-7.71967E-09-4.41188E-09
 -1        10 4.94790E+01 1.73423E+02 6.68220E+01-6.41120E+01-7.71944E-09-4.41373E-09
 -1        11-8.72520E+01-1.00307E+03-2.95103E+02 4.49642E+03-5.89210E-10 6.67103E-11
 -1        12-8.72520E+01-1.00307E+03-2.95103E+02 4.49642E+03-5.89210E-10 6.67103E-11
 -1        13 2.96562E+03 1.64313E+04 5.56810E+03 2.50455E+03-2.98169E-09-9.73769E-08
 -1        14 3.19453E+03 1.23296E+04 4.51086E+03 1.62607E+03 3.25763E-08-1.05890E-07
 -1        15 2.13904E+03 8.34575E+03 3.07539E+03 1.36657E+03 6.00776E-08-6.04647E-08
 -1        16 1.49149E+03 5.45995E+03 2.05262E+03 1.09413E+03 6.08859E-08 3.53178E-08
 -1        17 8.42311E+02 2.71589E+03 1.05629E+03 8.80098E+02 4.24483E-08 8.87567E-08
 -1        18 1.77144E+02 4.72703E+01 6.42251E+01 5.95307E+02 1.03683E-08 1.28702E-07
 -1        19-4.11190E+02-2.26839E+03-8.11081E+02 2.76160E+02-2.70791E-08 1.50714E-07
 -1        20-9.16784E+02-4.05614E+03-1.50976E+03 1.54281E+01-4.60804E-08 1.16691E-07
 -1        21-1.26416E+03-5.26117E+03-1.98662E+03-1.74361E+02-4.04687E-08 7.35005E-08
 -1        22-1.45280E+03-5.85454E+03-2.22801E+03-3.13236E+02-3.07716E-08 2.71950E-08
 -1        23-1.45030E+03-5.80642E+03-2.21206E+03-3.87079E+02-2.58006E-08 1.72162E-09
 -1        24-1.34135E+03-5.30012E+03-2.02142E+03-3.82096E+02-3.29080E-08-2.17167E-08
 -1        25-1.15601E+03-4.57462E+03-1.74067E+03-3.38017E+02-3.57119E-08-5.55597E-08
 -1        26-9.57609E+02-3.76427E+03-1.43120E+03-2.97749E+02-1.01533E-08-9.10124E-08
 -1        27-7.40798E+02-2.86892E+03-1.09150E+03-2.65350E+02 2.12226E-08-7.31944E-08
 -1        28-5.37866E+02-1.97765E+03-7.58724E+02-2.14485E+02 2.52102E-08-2.55070E-08
 -1        29-3.47210E+02-1.21567E+03-4.70420E+02-1.58518E+02 9.97569E-09-7.84537E-09
 -1        30-2.04196E+02-6.18430E+02-2.47249E+02-1.24053E+02-7.98763E-10 6.14413E-09
 -1        31-8.81787E+01-1.77722E+02-7.98329E+01-7.92618E+01-4.57234E-09-2.60194E-09
 -1        32 2.96562E+03 1.64313E+04 5.56810E+03 2.50455E+03-2.98169E-09-9.73769E-08
 -1        33 3.19453E+03 1.23296E+04 4.51086E+03 1.62607E+03 3.25763E-08-1.05890E-07
 -1        34 2.13904E+03 8.34575E+03 3.07539E+03 1.36657E+03 6.00776E-08-6.04647E-08
 -1        35 1.49149E+03 5.45995E+03 2.05262E+03 1.09413E+03 6.08860E-08 3.53178E-08
 -1        36 8.42311E+02 2.71589E+03 1.05629E+03 8.80098E+02 4.24483E-08 8.87574E-08
 -1        37 1.77144E+02 4.72703E+01 6.42251E+01 5.95307E+02 1.03679E-08 1.28702E-07
 -1        38-4.11190E+02-2.26839E+03-8.11081E+02 2.76160E+02-2.70791E-08 1.50711E-07
 -1        39-9.16784E+02-4.05614E+03-1.50976E+03 1.54281E+01-4.60804E-08 1.16691E-07
 -1        40-1.26416E+03-5.26117E+03-1.98662E+03-1.74361E+02-4.04688E-08 7.34993E-08
 -1        41-1.45280E+03-5.85454E+03-2.22801E+03-3.13236E+02-3.07714E-08 2.71961E-08
 -1        42-1.45030E+03-5.80642E+03-2.21206E+03-3.87079E+02-2.58007E-08 1.72305E-09
 -1        43-1.34135E+03-5.30012E+03-2.02142E+03-3.82096E+02-3.29079E-08-2.17189E-08
 -1        44-1.15601E+03-4.57462E+03-1.74067E+03-3.38017E+02-3.57119E-08-5.55597E-08
 -1        45-9.57609E+02-3.76427E+03-1.43120E+03-2.97749E+02-1.01533E-08-9.10124E-08
 -1        46-7.40798E+02-2.86892E+03-1.09150E+03-2.65350E+02 2.12226E-08-7.31944E-08
 -1        47-5.37866E+02-1.97765E+03-7.58724E+02-2.14485E+02 2.52102E-08-2.55070E-08
 -1        48-3.47210E+02-1.21567E+03-4.70420E+02-1.58518E+02 9.97566E-09-7.83893E-09
 -1        49-2.04196E+02-6.18430E+02-2.47249E+02-1.24053E+02-7.98900E-10 6.14400E-09
 -1        50-8.81787E+01-1.77722E+02-7.98329E+01-7.92618E+01-4.57233E-09-2.60379E-09
 -1        51 1.03919E+02 4.08803E+02 1.53580E+02-7.72641E+01-1.53321E-08 2.54893E-09
 -1        52 2.21953E+02 8.58820E+02 3.23390E+02-1.01896E+02-2.30597E-08 1.17476E-08
 -1        53 3.37596E+02 1.39419E+03 5.17521E+02-1.07764E+02-2.95982E-08-1.34826E-09
 -1        54 4.90118E+02 2.07529E+03 7.65303E+02-1.22455E+02-2.78542E-08-3.14218E-08
 -1        55 6.88110E+02 2.89911E+03 1.06788E+03-1.07191E+02-1.31896E-08-7.72075E-08
 -1        56 9.16214E+02 3.75044E+03 1.38642E+03-4.37632E+01 1.32156E-08-9.75611E-08
 -1        57 1.07779E+03 4.51943E+03 1.65976E+03 3.48423E+01 2.62418E-08-6.21121E-08
 -1        58 1.23524E+03 5.20712E+03 1.90695E+03 1.29728E+02 1.88517E-08-8.97216E-09
 -1        59 1.35619E+03 5.66433E+03 2.07541E+03 2.77570E+02 2.18954E-08-3.46892E-09
 -1        60 1.39583E+03 5.62357E+03 2.07492E+03 4.62870E+02 3.14367E-08 3.42443E-08
 -1        61 1.26317E+03 4.90397E+03 1.82586E+03 6.07853E+02 3.25215E-08 7.33073E-08
 -1        62 1.00180E+03 3.56786E+03 1.35676E+03 6.57530E+02 1.77193E-08 1.29239E-07
 -1        63 5.93637E+02 1.65765E+03 6.70156E+02 6.24770E+02-9.56738E-09 1.39834E-07
 -1        64 4.45030E+01-7.61943E+02-2.18859E+02 5.09528E+02-3.58659E-08 1.26192E-07
 -1        65-6.27453E+02-3.44727E+03-1.23749E+03 3.17476E+02-5.58843E-08 8.52991E-08
 -1        66-1.32106E+03-6.10934E+03-2.26989E+03 1.30816E+02-6.48418E-08 3.37956E-09
 -1        67-2.00465E+03-8.85896E+03-3.34215E+03 1.21884E+02-5.06783E-08-6.15490E-08
 -1        68-3.21851E+03-1.26264E+04-4.92495E+03 2.20354E+02-8.63635E-09-9.48632E-08
 -1        69-2.90680E+03-1.63473E+04-6.06991E+03 1.21177E+03 2.50351E-08-8.40923E-08
 -1        70 1.03919E+02 4.08803E+02 1.53580E+02-7.72641E+01-1.53311E-08 2.54711E-09
 -1        71 2.21953E+02 8.58820E+02 3.23390E+02-1.01896E+02-2.30600E-08 1.17482E-08
 -1        72 3.37596E+02 1.39419E+03 5.17521E+02-1.07764E+02-2.95982E-08-1.34888E-09
 -1        73 4.90118E+02 2.07529E+03 7.65303E+02-1.22455E+02-2.78538E-08-3.14218E-08
 -1        74 6.88110E+02 2.89911E+03 1.06788E+03-1.07191E+02-1.31897E-08-7.72079E-08
 -1        75 9.16214E+02 3.75044E+03 1.38642E+03-4.37632E+01 1.32156E-08-9.75610E-08
 -1        76 1.07779E+03 4.51943E+03 1.65976E+03 3.48423E+01 2.62419E-08-6.21121E-08
 -1        77 1.23524E+03 5.20712E+03 1.90695E+03 1.29728E+02 1.88515E-08-8.97578E-09
 -1        78 1.35619E+03 5.66433E+03 2.07541E+03 2.77570E+02 2.18945E-08-3.46759E-09
 -1        79 1.39583E+03 5.62357E+03 2.07492E+03 4.62870E+02 3.14372E-08 3.42444E-08
 -1        80 1.26317E+03 4.90397E+03 1.82586E+03 6.07853E+02 3.25212E-08 7.33069E-08
 -1        81 1.00180E+03 3.56786E+03 1.35676E+03 6.57530E+02 1.77192E-08 1.29240E-07
 -1        82 5.93637E+02 1.65765E+03 6.70156E+02 6.24770E+02-9.56738E-09 1.39834E-07
 -1        83 4.45030E+01-7.61943E+02-2.18859E+02 5.09528E+02-3.58663E-08 1.26191E-07
 -1        84-6.27453E+02-3.44727E+03-1.23749E+03 3.17476E+02-5.58843E-08 8.52992E-08
 -1        85-1.32106E+03-6.10934E+03-2.26989E+03 1.30816E+02-6.48412E-08 3.37913E-09
 -1        86-2.00465E+03-8.85896E+03-3.34215E+03 1.21884E+02-5.06780E-08-6.15490E-08
 -1        87-3.21851E+03-1.26264E+04-4.92495E+03 2.20354E+02-8.63636E-09-9.48632E-08
 -1        88-2.90680E+03-1.63473E+04-6.06991E+03 1.21177E+03 2.50351E-08-8.40923E-08
 -1        89 1.35561E+02-9.00529E+02-2.13130E+02 1.42694E+03 1.26197E-08-8.96113E-08
 -1        90 1.19927E+02-7.05139E+02-1.53609E+02 1.30876E+03 1.08313E-08-1.14067E-07
 -1        91 1.30157E+02-5.47754E+02-1.17083E+02 9.04855E+02-5.26059E-10-6.61261E-08
 -1        92 1.38988E+02-4.82374E+02-1.00703E+02 7.81738E+02-4.24178E-09 2.35283E-08
 -1        93 1.55262E+02-4.46113E+02-8.81018E+01 7.70167E+02-4.04089E-09 9.28792E-08
 -1        94 1.53107E+02-4.10582E+02-7.89843E+01 7.21622E+02-1.36771E-08 1.33582E-07
 -1        95 1.26032E+02-3.62968E+02-7.20786E+01 5.90988E+02-1.60600E-08 1.54273E-07
 -1        96 7.32204E+01-3.14519E+02-7.16376E+01 4.33679E+02-1.28163E-08 1.22626E-07
 -1        97 2.60703E+01-2.67466E+02-7.00073E+01 2.69462E+02-8.50732E-09 7.15270E-08
 -1        98-9.53767E+00-2.19826E+02-6.54211E+01 8.51020E+01-2.62697E-09 3.37467E-08
 -1        99-3.46231E+01-1.69590E+02-5.75840E+01-8.08658E+01-8.90605E-10-2.23642E-09
 -1       100-4.53210E+01-1.24386E+02-4.75192E+01-1.75246E+02-6.84244E-09-1.14898E-08
 -1       101-3.71516E+01-8.97067E+01-3.54516E+01-2.09101E+02-8.09247E-09-6.16787E-08
 -1       102-2.20932E+01-5.19947E+01-2.05268E+01-2.29328E+02-3.92727E-10-9.94432E-08
 -1       103-2.55549E+01-3.84098E+00-7.87176E+00-2.44229E+02 2.17870E-09-8.14367E-08
 -1       104-2.21305E+01 4.72893E+01 8.04840E+00-2.22646E+02-1.65739E-09-2.89085E-08
 -1       105-5.08335E+00 9.01637E+01 2.57054E+01-1.77436E+02-6.32992E-09-4.06763E-09
 -1       106 1.02656E+01 1.27213E+02 4.12544E+01-1.45810E+02-8.87408E-09 1.17356E-08
 -1       107 2.34031E+01 1.54863E+02 5.34463E+01-9.70042E+01-8.31320E-09-4.56024E-10
 -1       108 2.34031E+01 1.54863E+02 5.34463E+01-9.70042E+01-8.31337E-09-4.49186E-10
 -1       109 1.02656E+01 1.27213E+02 4.12544E+01-1.45810E+02-8.87407E-09 1.17344E-08
 -1       110-5.08335E+00 9.01637E+01 2.57054E+01-1.77436E+02-6.32993E-09-4.06735E-09
 -1       111-2.21305E+01 4.72893E+01 8.04840E+00-2.22646E+02-1.65755E-09-2.89085E-08
 -1       112-2.55549E+01-3.84098E+00-7.87176E+00-2.44229E+02 2.17868E-09-8.14358E-08
 -1       113-2.20932E+01-5.19947E+01-2.05268E+01-2.29328E+02-3.92738E-10-9.94434E-08
 -1       114-3.71516E+01-8.97067E+01-3.54516E+01-2.09101E+02-8.09251E-09-6.16787E-08
 -1       115-4.53210E+01-1.24386E+02-4.75192E+01-1.75246E+02-6.84253E-09-1.14855E-08
 -1       116-3.46231E+01-1.69590E+02-5.75840E+01-8.08658E+01-8.90383E-10-2.23846E-09
 -1       117-9.53767E+00-2.19826E+02-6.54211E+01 8.51020E+01-2.62730E-09 3.37443E-08
 -1       118 2.60703E+01-2.67466E+02-7.00073E+01 2.69462E+02-8.50722E-09 7.15300E-08
 -1       119 7.32204E+01-3.14519E+02-7.16376E+01 4.33679E+02-1.28163E-08 1.22625E-07
 -1       120 1.26032E+02-3.62968E+02-7.20786E+01 5.90988E+02-1.60600E-08 1.54273E-07
 -1       121 1.53107E+02-4.10582E+02-7.89843E+01 7.21622E+02-1.36771E-08 1.33585E-07
 -1       122 1.55262E+02-4.46113E+02-8.81018E+01 7.70167E+02-4.04085E-09 9.28778E-08
 -1       123 1.38988E+02-4.82374E+02-1.00703E+02 7.81738E+02-4.24200E-09 2.35284E-08
 -1       124 1.30157E+02-5.47754E+02-1.17083E+02 9.04855E+02-5.26185E-10-6.61261E-08
 -1       125 1.19927E+02-7.05139E+02-1.53609E+02 1.30876E+03 1.08313E-08-1.14067E-07
 -1       126 1.35561E+02-9.00529E+02-2.13130E+02 1.42694E+03 1.26197E-08-8.96113E-08
 -3
    1PSTEP                       139          35           1          
  100CL  135 3.50000E-01         126                     1   35           1
 -4  TOSTRAIN    6    1
 -5  EXX         1    4    1    1
 -5  EYY         1    4    2    2
 -5  EZZ         1    4    3    3
 -5  EXY         1    4    1    2
 -5  EYZ         1    4    2    3
 -5  EZX         1    4    3    1
 -1         1-1.32912E-04 3.82900E-02-3.34166E-26 1.97324E-02-2.65161E-19-5.54055E-16
 -1         2-1.32912E-04 3.82900E-02-3.34166E-26 1.97324E-02-2.65161E-19-5.54055E-16
 -1         3-6.05697E-05 1.88191E-05 3.96213E-27-1.13664E-04-2.33977E-14-4.18818E-14
 -1         4-6.05697E-05 1.88191E-05 3.96208E-27-1.13664E-04-2.33979E-14-4.18786E-14
 -1         5-2.82235E-05 4.10291E-04 7.87170E-27-2.41817E-04-4.39734E-14-5.42935E-14
 -1         6-2.82235E-05 4.10291E-04 7.87183E-27-2.41817E-04-4.39741E-14-5.42934E-14
 -1         7-1.37809E-04-3.99211E-02-2.73709E-26 1.91381E-02-8.40775E-19 1.01527E-15
 -1         8-1.37809E-04-3.99211E-02-2.73709E-26 1.91381E-02-8.40775E-19 1.01527E-15
 -1         9-4.43966E-05 3.34032E-04 1.23425E-27-2.19218E-04-2.54744E-14-1.36302E-14
 -1        10-4.43966E-05 3.34032E-04 1.23433E-27-2.19218E-04-2.54739E-14-1.36363E-14
 -1        11-1.35360E-04-1.41271E-03-2.88265E-26 1.47008E-02-5.45148E-19 2.65681E-16
 -1        12-1.35360E-04-1.41271E-03-2.88265E-26 1.47008E-02-5.45148E-19 2.65681E-16
 -1        13-9.36943E-03 3.38786E-02 1.82133E-25 5.94334E-03-2.05773E-14-3.14019E-13
 -1        14-5.04213E-03 2.48771E-02 2.51942E-25 2.99512E-03 7.93504E-14-3.49141E-13
 -1        15-3.76871E-03 1.72270E-02 1.18140E-25 2.45595E-03 1.72932E-13-2.13402E-13
 -1        16-2.47710E-03 1.14326E-02 6.37021E-26 2.07928E-03 2.05705E-13 9.24245E-14
 -1        17-1.29118E-03 5.88874E-03 1.84326E-25 2.06984E-03 1.68608E-13 2.69884E-13
 -1        18-1.04422E-04 3.88474E-04 3.41681E-25 1.92788E-03 8.25418E-14 4.11105E-13
 -1        19 9.96325E-04-4.49747E-03 4.89458E-25 1.58174E-03-3.09651E-14 4.97181E-13
 -1        20 1.76834E-03-8.27605E-03 3.23871E-25 1.18071E-03-1.08567E-13 3.94167E-13
 -1        21 2.29441E-03-1.08464E-02 1.39039E-25 7.56099E-04-1.08619E-13 2.51440E-13
 -1        22 2.54294E-03-1.21274E-02 2.84157E-26 2.68324E-04-9.33398E-14 9.71573E-14
 -1        23 2.54435E-03-1.20609E-02 1.03472E-26-1.66211E-04-8.45380E-14 1.19745E-14
 -1        24 2.28558E-03-1.09872E-02 2.82518E-26-4.04426E-04-1.13002E-13-6.36538E-14
 -1        25 1.96442E-03-9.46424E-03 8.54383E-26-4.91347E-04-1.27502E-13-1.74339E-13
 -1        26 1.59297E-03-7.76544E-03 1.71271E-25-5.48524E-04-4.72524E-14-2.94421E-13
 -1        27 1.18740E-03-5.89980E-03 1.15031E-25-5.92402E-04 5.99547E-14-2.40655E-13
 -1        28 7.56060E-04-4.03524E-03 1.97963E-26-5.37608E-04 7.94408E-14-8.56958E-14
 -1        29 4.28119E-04-2.46323E-03 9.81000E-28-4.27735E-04 3.17022E-14-2.64933E-14
 -1        30 1.61588E-04-1.23197E-03-2.08392E-28-3.63757E-04-2.01247E-15 2.00447E-14
 -1        31-1.29022E-05-3.32887E-04 1.82990E-28-2.49198E-04-1.51081E-14-8.03621E-15
 -1        32-9.36943E-03 3.38786E-02 1.82133E-25 5.94334E-03-2.05773E-14-3.14019E-13
 -1        33-5.04213E-03 2.48771E-02 2.51942E-25 2.99512E-03 7.93504E-14-3.49141E-13
 -1        34-3.76871E-03 1.72270E-02 1.18140E-25 2.45595E-03 1.72932E-13-2.13402E-13
 -1        35-2.47710E-03 1.14326E-02 6.37021E-26 2.07928E-03 2.05705E-13 9.24245E-14
 -1        36-1.29118E-03 5.88874E-03 1.84329E-25 2.06984E-03 1.68608E-13 2.69886E-13
 -1        37-1.04422E-04 3.88474E-04 3.41681E-25 1.92788E-03 8.25403E-14 4.11104E-13
 -1        38 9.96325E-04-4.49747E-03 4.89436E-25 1.58174E-03-3.09661E-14 4.97170E-13
 -1        39 1.76834E-03-8.27605E-03 3.23871E-25 1.18071E-03-1.08567E-13 3.94167E-13
 -1        40 2.29441E-03-1.08464E-02 1.39036E-25 7.56099E-04-1.08620E-13 2.51437E-13
 -1        41 2.54294E-03-1.21274E-02 2.84179E-26 2.68324E-04-9.33390E-14 9.71611E-14
 -1        42 2.54435E-03-1.20609E-02 1.03468E-26-1.66211E-04-8.45377E-14 1.19791E-14
 -1        43 2.28558E-03-1.09872E-02 2.82527E-26-4.04426E-04-1.13002E-13-6.36606E-14
 -1        44 1.96442E-03-9.46424E-03 8.54383E-26-4.91347E-04-1.27502E-13-1.74339E-13
 -1        45 1.59297E-03-7.76544E-03 1.71271E-25-5.48524E-04-4.72524E-14-2.94421E-13
 -1        46 1.18740E-03-5.89980E-03 1.15031E-25-5.92402E-04 5.99546E-14-2.40655E-13
 -1        47 7.56060E-04-4.03524E-03 1.97963E-26-5.37608E-04 7.94408E-14-8.56958E-14
 -1        48 4.28119E-04-2.46323E-03 9.79737E-28-4.27735E-04 3.17027E-14-2.64723E-14
 -1        49 1.61588E-04-1.23197E-03-2.07770E-28-3.63757E-04-2.01293E-15 2.00443E-14
 -1        50-1.29022E-05-3.32887E-04 1.83152E-28-2.49198E-04-1.51082E-14-8.04222E-15
 -1        51-1.46501E-04 8.12543E-04 4.03072E-27-2.78285E-04-4.95202E-14 9.67654E-15
 -1        52-3.09340E-04 1.71250E-03 1.27640E-26-3.90007E-04-7.36172E-14 4.03045E-14
 -1        53-5.61392E-04 2.80814E-03 1.44788E-26-4.54532E-04-9.59241E-14-1.42668E-15
 -1        54-8.65232E-04 4.19022E-03 2.90189E-26-5.70436E-04-9.34814E-14-9.89290E-14
 -1        55-1.20568E-03 5.84944E-03 1.23078E-25-6.24412E-04-5.23507E-14-2.48785E-13
 -1        56-1.51227E-03 7.54689E-03 2.00009E-25-5.60534E-04 2.78995E-14-3.18194E-13
 -1        57-1.89351E-03 9.12350E-03 8.41122E-26-4.92380E-04 7.31525E-14-2.05819E-13
 -1        58-2.21580E-03 1.05285E-02 1.53478E-27-4.11590E-04 5.84532E-14-3.29708E-14
 -1        59-2.43548E-03 1.14867E-02 5.51150E-27-1.73184E-04 6.90745E-14-1.66334E-14
 -1        60-2.41047E-03 1.14594E-02 3.52488E-26 2.61621E-04 1.09974E-13 1.01510E-13
 -1        61-2.14081E-03 1.00980E-02 1.19986E-25 7.42624E-04 1.27303E-13 2.25851E-13
 -1        62-1.54422E-03 7.44980E-03 3.47860E-25 1.16073E-03 1.02178E-13 4.10372E-13
 -1        63-6.85032E-04 3.59868E-03 4.11365E-25 1.56884E-03 2.15621E-14 4.54557E-13
 -1        64 4.19101E-04-1.36069E-03 3.57598E-25 1.92442E-03-6.77195E-14 4.21249E-13
 -1        65 1.60243E-03-6.93629E-03 1.96987E-25 2.07615E-03-1.50291E-13 2.97011E-13
 -1        66 2.77098E-03-1.25279E-02 5.96905E-26 2.10043E-03-2.12026E-13 3.39707E-14
 -1        67 4.00622E-03-1.83235E-02 1.15838E-25 2.50463E-03-1.86632E-13-1.84001E-13
 -1        68 5.13699E-03-2.61132E-02 1.80658E-25 3.02777E-03-5.09589E-14-3.06807E-13
 -1        69 9.59213E-03-3.53871E-02 1.48308E-25 6.13635E-03 7.51513E-14-2.78075E-13
 -1        70-1.46501E-04 8.12543E-04 4.03010E-27-2.78285E-04-4.95174E-14 9.67055E-15
 -1        71-3.09340E-04 1.71250E-03 1.27642E-26-3.90007E-04-7.36179E-14 4.03066E-14
 -1        72-5.61392E-04 2.80814E-03 1.44787E-26-4.54532E-04-9.59244E-14-1.42866E-15
 -1        73-8.65232E-04 4.19022E-03 2.90186E-26-5.70436E-04-9.34798E-14-9.89290E-14
 -1        74-1.20568E-03 5.84944E-03 1.23080E-25-6.24412E-04-5.23509E-14-2.48787E-13
 -1        75-1.51227E-03 7.54689E-03 2.00009E-25-5.60534E-04 2.78995E-14-3.18194E-13
 -1        76-1.89351E-03 9.12350E-03 8.41122E-26-4.92380E-04 7.31526E-14-2.05819E-13
 -1        77-2.21580E-03 1.05285E-02 1.53593E-27-4.11590E-04 5.84518E-14-3.29825E-14
 -1        78-2.43548E-03 1.14867E-02 5.51042E-27-1.73184E-04 6.90718E-14-1.66289E-14
 -1        79-2.41047E-03 1.14594E-02 3.52494E-26 2.61621E-04 1.09976E-13 1.01510E-13
 -1        80-2.14081E-03 1.00980E-02 1.19984E-25 7.42624E-04 1.27302E-13 2.25849E-13
 -1        81-1.54422E-03 7.44980E-03 3.47860E-25 1.16073E-03 1.02178E-13 4.10372E-13
 -1        82-6.85032E-04 3.59868E-03 4.11366E-25 1.56884E-03 2.15622E-14 4.54557E-13
 -1        83 4.19101E-04-1.36069E-03 3.57595E-25 1.92442E-03-6.77210E-14 4.21247E-13
 -1        84 1.60243E-03-6.93629E-03 1.96987E-25 2.07615E-03-1.50291E-13 2.97012E-13
 -1        85 2.77098E-03-1.25279E-02 5.96886E-26 2.10043E-03-2.12025E-13 3.39691E-14
 -1        86 4.00622E-03-1.83235E-02 1.15838E-25 2.50463E-03-1.86631E-13-1.84001E-13
 -1        87 5.13699E-03-2.61132E-02 1.80658E-25 3.02777E-03-5.09589E-14-3.06807E-13
 -1        88 9.59213E-03-3.53871E-02 1.48308E-25 6.13635E-03 7.51513E-14-2.78075E-13
 -1        89 1.11349E-04-1.15706E-03 1.57911E-25 4.76540E-03 3.03584E-14-2.92957E-13
 -1        90 4.74307E-05-8.00684E-04 2.70912E-25 4.40886E-03 9.77753E-15-3.72473E-13
 -1        91 1.18756E-04-6.65303E-04 6.31401E-26 3.09667E-03-2.09115E-14-2.13800E-13
 -1        92 1.46937E-04-6.01695E-04-2.51981E-26 2.70000E-03-5.60942E-15 7.75467E-14
 -1        93 1.55621E-04-5.43581E-04 1.62352E-25 2.66357E-03 2.14011E-14 3.01271E-13
 -1        94 1.57339E-04-5.00987E-04 3.75340E-25 2.49806E-03 6.85545E-15 4.36324E-13
 -1        95 1.55647E-04-4.70888E-04 5.05279E-25 2.05482E-03 6.13579E-15 5.04019E-13
 -1        96 1.12062E-04-4.30475E-04 3.11165E-25 1.51490E-03 2.23755E-15 4.00703E-13
 -1        97 7.68047E-05-3.93656E-04 9.77044E-26 9.54444E-04-4.20082E-15 2.34066E-13
 -1        98 6.62367E-05-3.66737E-04 1.59064E-26 3.33064E-04 1.27645E-15 1.10005E-13
 -1        99 5.44342E-05-3.20848E-04-4.36805E-27-2.26211E-04-3.36262E-15-7.04169E-15
 -1       100 3.48943E-05-2.55095E-04-3.40302E-27-5.48222E-04-2.45632E-14-3.58286E-14
 -1       101 3.54570E-05-1.99862E-04 7.14124E-26-6.66333E-04-3.72973E-14-1.98769E-13
 -1       102 4.03475E-05-1.36795E-04 2.05475E-25-7.37654E-04-1.63055E-14-3.22809E-13
 -1       103-9.14307E-06-2.94502E-05 1.33832E-25-7.93926E-04-3.42618E-15-2.64754E-13
 -1       104-5.45856E-05 8.71663E-05 9.28319E-27-7.29456E-04-8.64897E-15-9.37270E-14
 -1       105-6.66363E-05 1.77045E-04-1.76703E-27-5.84927E-04-2.09852E-14-1.25871E-14
 -1       106-7.38758E-05 2.52319E-04 3.36929E-27-4.83879E-04-2.76997E-14 3.89494E-14
 -1       107-7.97014E-05 3.11278E-04 1.09532E-27-3.26652E-04-2.70434E-14-7.26366E-16
 -1       108-7.97014E-05 3.11278E-04 1.09523E-27-3.26652E-04-2.70433E-14-7.04136E-16
 -1       109-7.38758E-05 2.52319E-04 3.36918E-27-4.83879E-04-2.76998E-14 3.89455E-14
 -1       110-6.66363E-05 1.77045E-04-1.76652E-27-5.84927E-04-2.09852E-14-1.25862E-14
 -1       111-5.45856E-05 8.71663E-05 9.28326E-27-7.29456E-04-8.64949E-15-9.37269E-14
 -1       112-9.14307E-06-2.94502E-05 1.33828E-25-7.93926E-04-3.42610E-15-2.64751E-13
 -1       113 4.03475E-05-1.36795E-04 2.05475E-25-7.37654E-04-1.63055E-14-3.22809E-13
 -1       114 3.54570E-05-1.99862E-04 7.14124E-26-6.66333E-04-3.72974E-14-1.98769E-13
 -1       115 3.48943E-05-2.55095E-04-3.40480E-27-5.48222E-04-2.45626E-14-3.58146E-14
 -1       116 5.44342E-05-3.20848E-04-4.36716E-27-2.26211E-04-3.36237E-15-7.04833E-15
 -1       117 6.62367E-05-3.66737E-04 1.59019E-26 3.33064E-04 1.27465E-15 1.09998E-13
 -1       118 7.68047E-05-3.93656E-04 9.77124E-26 9.54444E-04-4.19952E-15 2.34076E-13
 -1       119 1.12062E-04-4.30475E-04 3.11164E-25 1.51490E-03 2.23758E-15 4.00703E-13
 -1       120 1.55647E-04-4.70888E-04 5.05280E-25 2.05482E-03 6.13589E-15 5.04020E-13
 -1       121 1.57339E-04-5.00987E-04 3.75357E-25 2.49806E-03 6.85677E-15 4.36334E-13
 -1       122 1.55621E-04-5.43581E-04 1.62345E-25 2.66357E-03 2.14007E-14 3.01266E-13
 -1       123 1.46937E-04-6.01695E-04-2.51979E-26 2.70000E-03-5.61011E-15 7.75470E-14
 -1       124 1.18756E-04-6.65303E-04 6.31402E-26 3.09667E-03-2.09120E-14-2.13800E-13
 -1       125 4.74307E-05-8.00684E-04 2.70912E-25 4.40886E-03 9.77759E-15-3.72472E-13
 -1       126 1.11349E-04-1.15706E-03 1.57911E-25 4.76540E-03 3.03584E-14-2.92957E-13
 -3
    1PSTEP                       140          35           1          
  100CL  135 3.50000E-01         126                     1   35           1
 -4  ERROR       1    1
 -5  STR(%)      1    1    0    0
 -1         1 6.71387E+01
 -1         2 6.71387E+01
 -1         3 4.70732E+01
 -1         4 4.70732E+01
 -1         5 3.66685E+00
 -1         6 3.66685E+00
 -1         7 6.05355E+01
 -1         8 6.05355E+01
 -1         9 4.70732E+01
 -1        10 4.70732E+01
 -1        11 6.71387E+01
 -1        12 6.71387E+01
 -1        13 6.71387E+01
 -1        14 6.51609E+01
 -1        15 6.51698E+01
 -1        16 6.51698E+01
 -1        17 6.11366E+01
 -1        18 3.57635E+01
 -1        19 5.17826E+01
 -1        20 5.81167E+01
 -1        21 5.82030E+01
 -1        22 5.82030E+01
 -1        23 5.83710E+01
 -1        24 5.92571E+01
 -1        25 5.95475E+01
 -1        26 6.02551E+01
 -1        27 6.12300E+01
 -1        28 6.27646E+01
 -1        29 6.36927E+01
 -1        30 6.36927E+01
 -1        31 5.70002E+01
 -1        32 6.71387E+01
 -1        33 6.51609E+01
 -1        34 6.51698E+01
 -1        35 6.51698E+01
 -1        36 6.11366E+01
 -1        37 3.57635E+01
 -1        38 5.17826E+01
 -1        39 5.81167E+01
 -1        40 5.82030E+01
 -1        41 5.82030E+01
 -1        42 5.83710E+01
 -1        43 5.92571E+01
 -1        44 5.95475E+01
 -1        45 6.02551E+01
 -1        46 6.12300E+01
 -1        47 6.27646E+01
 -1        48 6.36927E+01
 -1        49 6.36927E+01
 -1        50 5.70002E+01
 -1        51 3.41670E+01
 -1        52 5.01151E+01
 -1        53 5.70520E+01
 -1        54 6.08744E+01
 -1        55 6.31589E+01
 -1        56 6.33099E+01
 -1        57 6.33624E+01
 -1        58 6.33624E+01
 -1        59 6.30528E+01
 -1        60 6.41686E+01
 -1        61 6.56409E+01
 -1        62 6.56409E+01
 -1        63 6.05362E+01
 -1        64 5.79921E+01
 -1        65 5.28554E+01
 -1        66 5.77199E+01
 -1        67 5.88676E+01
 -1        68 5.88676E+01
 -1        69 6.05355E+01
 -1        70 3.41670E+01
 -1        71 5.01151E+01
 -1        72 5.70520E+01
 -1        73 6.08744E+01
 -1        74 6.31589E+01
 -1        75 6.33099E+01
 -1        76 6.33624E+01
 -1        77 6.33624E+01
 -1        78 6.30528E+01
 -1        79 6.41686E+01
 -1        80 6.56409E+01
 -1        81 6.56409E+01
 -1        82 6.05362E+01
 -1        83 5.79921E+01
 -1        84 5.28554E+01
 -1        85 5.77199E+01
 -1        86 5.88676E+01
 -1        87 5.88676E+01
 -1        88 6.05355E+01
 -1        89 6.71387E+01
 -1        90 6.51609E+01
 -1        91 6.51698E+01
 -1        92 6.51698E+01
 -1        93 6.11366E+01
 -1        94 5.79921E+01
 -1        95 6.05362E+01
 -1        96 6.56409E+01
 -1        97 6.56409E+01
 -1        98 6.41686E+01
 -1        99 6.30528E+01
 -1       100 6.33624E+01
 -1       101 6.33624E+01
 -1       102 6.33099E+01
 -1       103 6.31589E+01
 -1       104 6.27646E+01
 -1       105 6.36927E+01
 -1       106 6.36927E+01
 -1       107 5.70002E+01
 -1       108 5.70002E+01
 -1       109 6.36927E+01
 -1       110 6.36927E+01
 -1       111 6.27646E+01
 -1       112 6.31589E+01
 -1       113 6.33099E+01
 -1       114 6.33624E+01
 -1       115 6.33624E+01
 -1       116 6.30528E+01
 -1       117 6.41686E+01
 -1       118 6.56409E+01
 -1       119 6.56409E+01
 -1       120 6.05362E+01
 -1       121 5.79921E+01
 -1       122 6.11366E+01
 -1       123 6.51698E+01
 -1       124 6.51698E+01
 -1       125 6.51609E+01
 -1       126 6.71387E+01
 -3
    1PSTEP                       141          36           1          
  100CL  136 3.60000E-01         126                     1   36           1
 -4  DISP        4    1
 -5  D1          1    2    1    0
 -5  D2          1    2    2    0
 -5  D3          1    2    3    0
 -5  ALL         1    2    0    0    1ALL
 -1         1 0.00000E+00 0.00000E+00 0.00000E+00
 -1         2 0.00000E+00 0.00000E+00 0.00000E+00
 -1         3 7.58354E-02-1.88812E-03 0.00000E+00
 -1         4 7.58354E-02-1.88812E-03 0.00000E+00
 -1         5 7.57682E-02-5.54423E-03 0.00000E+00
 -1         6 7.57682E-02-5.54423E-03 0.00000E+00
 -1         7 0.00000E+00 0.00000E+00 0.00000E+00
 -1         8 0.00000E+00 0.00000E+00 0.00000E+00
 -1         9 7.58014E-02-3.70914E-03 0.00000E+00
 -1        10 7.58014E-02-3.70914E-03 0.00000E+00
 -1        11 0.00000E+00 0.00000E+00 0.00000E+00
 -1        12 0.00000E+00 0.00000E+00 0.00000E+00
 -1        13 2.05959E-03 1.94489E-03 0.00000E+00
 -1        14 5.52561E-03 3.35921E-03 0.00000E+00
 -1        15 1.02360E-02 4.14890E-03 0.00000E+00
 -1        16 1.56502E-02 4.48471E-03 0.00000E+00
 -1        17 2.14570E-02 4.48849E-03 0.00000E+00
 -1        18 2.74396E-02 4.25724E-03 0.00000E+00
 -1        19 3.34329E-02 3.84154E-03 0.00000E+00
 -1        20 3.92783E-02 3.25570E-03 0.00000E+00
 -1        21 4.47629E-02 2.52986E-03 0.00000E+00
 -1        22 4.97033E-02 1.73772E-03 0.00000E+00
 -1        23 5.40237E-02 9.65785E-04 0.00000E+00
 -1        24 5.77644E-02 2.70544E-04 0.00000E+00
 -1        25 6.09900E-02-3.25915E-04 0.00000E+00
 -1        26 6.37697E-02-8.14242E-04 0.00000E+00
 -1        27 6.61903E-02-1.19079E-03 0.00000E+00
 -1        28 6.83579E-02-1.46680E-03 0.00000E+00
 -1        29 7.03470E-02-1.65957E-03 0.00000E+00
 -1        30 7.22189E-02-1.78440E-03 0.00000E+00
 -1        31 7.40276E-02-1.85358E-03 0.00000E+00
 -1        32 2.05959E-03 1.94489E-03 0.00000E+00
 -1        33 5.52561E-03 3.35921E-03 0.00000E+00
 -1        34 1.02360E-02 4.14890E-03 0.00000E+00
 -1        35 1.56502E-02 4.48471E-03 0.00000E+00
 -1        36 2.14570E-02 4.48849E-03 0.00000E+00
 -1        37 2.74396E-02 4.25724E-03 0.00000E+00
 -1        38 3.34329E-02 3.84154E-03 0.00000E+00
 -1        39 3.92783E-02 3.25570E-03 0.00000E+00
 -1        40 4.47629E-02 2.52986E-03 0.00000E+00
 -1        41 4.97033E-02 1.73772E-03 0.00000E+00
 -1        42 5.40237E-02 9.65785E-04 0.00000E+00
 -1        43 5.77644E-02 2.70544E-04 0.00000E+00
 -1        44 6.09900E-02-3.25915E-04 0.00000E+00
 -1        45 6.37697E-02-8.14242E-04 0.00000E+00
 -1        46 6.61903E-02-1.19079E-03 0.00000E+00
 -1        47 6.83579E-02-1.46680E-03 0.00000E+00
 -1        48 7.03470E-02-1.65957E-03 0.00000E+00
 -1        49 7.22189E-02-1.78440E-03 0.00000E+00
 -1        50 7.40276E-02-1.85358E-03 0.00000E+00
 -1        51 7.39568E-02-5.52922E-03 0.00000E+00
 -1        52 7.21441E-02-5.55165E-03 0.00000E+00
 -1        53 7.02671E-02-5.62262E-03 0.00000E+00
 -1        54 6.82693E-02-5.74611E-03 0.00000E+00
 -1        55 6.60835E-02-5.92816E-03 0.00000E+00
 -1        56 6.36332E-02-6.17618E-03 0.00000E+00
 -1        57 6.08105E-02-6.48752E-03 0.00000E+00
 -1        58 5.75237E-02-6.84393E-03 0.00000E+00
 -1        59 5.37027E-02-7.21822E-03 0.00000E+00
 -1        60 4.92820E-02-7.56784E-03 0.00000E+00
 -1        61 4.42383E-02-7.82145E-03 0.00000E+00
 -1        62 3.86679E-02-7.90039E-03 0.00000E+00
 -1        63 3.27698E-02-7.76425E-03 0.00000E+00
 -1        64 2.67664E-02-7.42733E-03 0.00000E+00
 -1        65 2.08213E-02-6.91017E-03 0.00000E+00
 -1        66 1.50960E-02-6.19862E-03 0.00000E+00
 -1        67 9.81296E-03-5.23912E-03 0.00000E+00
 -1        68 5.27051E-03-3.95120E-03 0.00000E+00
 -1        69 1.99200E-03-2.18997E-03 0.00000E+00
 -1        70 7.39568E-02-5.52922E-03 0.00000E+00
 -1        71 7.21441E-02-5.55165E-03 0.00000E+00
 -1        72 7.02671E-02-5.62262E-03 0.00000E+00
 -1        73 6.82693E-02-5.74611E-03 0.00000E+00
 -1        74 6.60835E-02-5.92816E-03 0.00000E+00
 -1        75 6.36332E-02-6.17618E-03 0.00000E+00
 -1        76 6.08105E-02-6.48752E-03 0.00000E+00
 -1        77 5.75237E-02-6.84393E-03 0.00000E+00
 -1        78 5.37027E-02-7.21822E-03 0.00000E+00
 -1        79 4.92820E-02-7.56784E-03 0.00000E+00
 -1        80 4.42383E-02-7.82145E-03 0.00000E+00
 -1        81 3.86679E-02-7.90039E-03 0.00000E+00
 -1        82 3.27698E-02-7.76425E-03 0.00000E+00
 -1        83 2.67664E-02-7.42733E-03 0.00000E+00
 -1        84 2.08213E-02-6.91017E-03 0.00000E+00
 -1        85 1.50960E-02-6.19862E-03 0.00000E+00
 -1        86 9.81296E-03-5.23912E-03 0.00000E+00
 -1        87 5.27051E-03-3.95120E-03 0.00000E+00
 -1        88 1.99200E-03-2.18997E-03 0.00000E+00
 -1        89 1.52484E-03-9.28863E-05 0.00000E+00
 -1        90 5.13515E-03-2.67678E-04 0.00000E+00
 -1        91 9.84122E-03-5.22764E-04 0.00000E+00
 -1        92 1.52656E-02-8.43840E-04 0.00000E+00
 -1        93 2.10835E-02-1.20467E-03 0.00000E+00
 -1        94 2.70866E-02-1.58344E-03 0.00000E+00
 -1        95 3.31258E-02-1.96413E-03 0.00000E+00
 -1        96 3.90377E-02-2.33016E-03 0.00000E+00
 -1        97 4.45985E-02-2.65673E-03 0.00000E+00
 -1        98 4.96057E-02-2.92561E-03 0.00000E+00
 -1        99 5.39785E-02-3.13551E-03 0.00000E+00
 -1       100 5.77495E-02-3.29442E-03 0.00000E+00
 -1       101 6.09910E-02-3.41260E-03 0.00000E+00
 -1       102 6.37725E-02-3.49926E-03 0.00000E+00
 -1       103 6.61914E-02-3.56251E-03 0.00000E+00
 -1       104 6.83516E-02-3.60930E-03 0.00000E+00
 -1       105 7.03311E-02-3.64363E-03 0.00000E+00
 -1       106 7.21926E-02-3.66933E-03 0.00000E+00
 -1       107 7.39953E-02-3.69044E-03 0.00000E+00
 -1       108 7.39953E-02-3.69044E-03 0.00000E+00
 -1       109 7.21926E-02-3.66933E-03 0.00000E+00
 -1       110 7.03311E-02-3.64363E-03 0.00000E+00
 -1       111 6.83516E-02-3.60930E-03 0.00000E+00
 -1       112 6.61914E-02-3.56251E-03 0.00000E+00
 -1       113 6.37725E-02-3.49926E-03 0.00000E+00
 -1       114 6.09910E-02-3.41260E-03 0.00000E+00
 -1       115 5.77495E-02-3.29442E-03 0.00000E+00
 -1       116 5.39785E-02-3.13551E-03 0.00000E+00
 -1       117 4.96057E-02-2.92561E-03 0.00000E+00
 -1       118 4.45985E-02-2.65673E-03 0.00000E+00
 -1       119 3.90377E-02-2.33016E-03 0.00000E+00
 -1       120 3.31258E-02-1.96413E-03 0.00000E+00
 -1       121 2.70866E-02-1.58344E-03 0.00000E+00
 -1       122 2.10835E-02-1.20467E-03 0.00000E+00
 -1       123 1.52656E-02-8.43840E-04 0.00000E+00
 -1       124 9.84122E-03-5.22764E-04 0.00000E+00
 -1       125 5.13515E-03-2.67678E-04 0.00000E+00
 -1       126 1.52484E-03-9.28863E-05 0.00000E+00
 -3
    1PSTEP                       142          36           1          
  100CL  136 3.60000E-01         126                     1   36           1
 -4  STRESS      6    1
 -5  SXX         1    4    1    1
 -5  SYY         1    4    2    2
 -5  SZZ         1    4    3    3
 -5  SXY         1    4    1    2
 -5  SYZ         1    4    2    3
 -5  SZX         1    4    3    1
 -1         1 9.46832E+03 2.22983E+04 8.99505E+03 7.15254E+03-2.93245E-10-3.75461E-10
 -1         2 9.46832E+03 2.22983E+04 8.99505E+03 7.15254E+03-2.93245E-10-3.75461E-10
 -1         3-2.11489E+01-2.10785E+01-1.26683E+01-4.05638E+01-3.40776E-08 1.88790E-08
 -1         4-2.11489E+01-2.10785E+01-1.26683E+01-4.05638E+01-3.40776E-08 1.88780E-08
 -1         5 8.27354E+01 1.99686E+02 8.46635E+01-7.09943E+01 1.23458E-08 2.54339E-08
 -1         6 8.27354E+01 1.99686E+02 8.46635E+01-7.09943E+01 1.23460E-08 2.54479E-08
 -1         7-9.73702E+03-2.19942E+04-1.01450E+04 5.29360E+03-4.33276E-10 4.04278E-10
 -1         8-9.73702E+03-2.19942E+04-1.01450E+04 5.29360E+03-4.33276E-10 4.04278E-10
 -1         9 5.74328E+01 1.54125E+02 6.34261E+01-6.61491E+01-1.15119E-08 1.35694E-08
 -1        10 5.74328E+01 1.54125E+02 6.34261E+01-6.61491E+01-1.15120E-08 1.35691E-08
 -1        11-1.00130E+02-1.10019E+03-3.21359E+02 4.66110E+03-3.44406E-10-3.37657E-11
 -1        12-1.00130E+02-1.10019E+03-3.21359E+02 4.66110E+03-3.44406E-10-3.37657E-11
 -1        13 3.11241E+03 1.73083E+04 5.84717E+03 2.67976E+03-3.25373E-08-4.37869E-08
 -1        14 3.32843E+03 1.26959E+04 4.64842E+03 1.84464E+03-2.61865E-08-1.20963E-07
 -1        15 2.13110E+03 7.93714E+03 2.95410E+03 1.52365E+03 1.64669E-09-1.30308E-07
 -1        16 1.35539E+03 4.61856E+03 1.76777E+03 1.06672E+03 2.05853E-08-1.09793E-07
 -1        17 7.06363E+02 2.16572E+03 8.54765E+02 7.14744E+02 3.01929E-08-4.67164E-08
 -1        18 1.60251E+02 2.36061E+02 1.17275E+02 4.61566E+02 3.81487E-08 1.86275E-08
 -1        19-2.68541E+02-1.52437E+03-5.41496E+02 2.76455E+02 3.06591E-08 5.16048E-08
 -1        20-6.98360E+02-3.25901E+03-1.19913E+03 9.80642E+01-1.00788E-08 1.10276E-07
 -1        21-1.07950E+03-4.67171E+03-1.74861E+03-1.08429E+02-5.62979E-08 8.33380E-08
 -1        22-1.32358E+03-5.41385E+03-2.05203E+03-2.91195E+02-6.91447E-08 2.03223E-08
 -1        23-1.32807E+03-5.42914E+03-2.05786E+03-3.82495E+02-4.35670E-08-6.05780E-08
 -1        24-1.23488E+03-4.99974E+03-1.89630E+03-3.81740E+02 4.53494E-09-9.74768E-08
 -1        25-1.07294E+03-4.32469E+03-1.63873E+03-3.54968E+02 4.25790E-08-8.38262E-08
 -1        26-8.99524E+02-3.51061E+03-1.33592E+03-3.27863E+02 4.86923E-08-1.19271E-08
 -1        27-6.65586E+02-2.63485E+03-9.97385E+02-2.83072E+02 3.24465E-08 5.02059E-08
 -1        28-4.71872E+02-1.84706E+03-6.99279E+02-2.25473E+02 1.20542E-08 7.13151E-08
 -1        29-3.20178E+02-1.18196E+03-4.52161E+02-1.81192E+02 4.30829E-10 5.08659E-08
 -1        30-2.01553E+02-6.25102E+02-2.48483E+02-1.45013E+02-1.22643E-08 3.37273E-08
 -1        31-7.85515E+01-1.92595E+02-8.14198E+01-9.00434E+01-2.77762E-08 4.04633E-08
 -1        32 3.11241E+03 1.73083E+04 5.84717E+03 2.67976E+03-3.25373E-08-4.37869E-08
 -1        33 3.32843E+03 1.26959E+04 4.64842E+03 1.84464E+03-2.61865E-08-1.20963E-07
 -1        34 2.13110E+03 7.93714E+03 2.95410E+03 1.52365E+03 1.64668E-09-1.30308E-07
 -1        35 1.35539E+03 4.61856E+03 1.76777E+03 1.06672E+03 2.05853E-08-1.09793E-07
 -1        36 7.06363E+02 2.16572E+03 8.54765E+02 7.14744E+02 3.01930E-08-4.67164E-08
 -1        37 1.60251E+02 2.36061E+02 1.17275E+02 4.61566E+02 3.81487E-08 1.86272E-08
 -1        38-2.68541E+02-1.52437E+03-5.41496E+02 2.76455E+02 3.06591E-08 5.16091E-08
 -1        39-6.98360E+02-3.25901E+03-1.19913E+03 9.80642E+01-1.00788E-08 1.10276E-07
 -1        40-1.07950E+03-4.67171E+03-1.74861E+03-1.08429E+02-5.62979E-08 8.33377E-08
 -1        41-1.32358E+03-5.41385E+03-2.05203E+03-2.91195E+02-6.91446E-08 2.03232E-08
 -1        42-1.32807E+03-5.42914E+03-2.05786E+03-3.82495E+02-4.35670E-08-6.05770E-08
 -1        43-1.23488E+03-4.99974E+03-1.89630E+03-3.81740E+02 4.53492E-09-9.74788E-08
 -1        44-1.07294E+03-4.32469E+03-1.63873E+03-3.54968E+02 4.25790E-08-8.38262E-08
 -1        45-8.99524E+02-3.51061E+03-1.33592E+03-3.27863E+02 4.86923E-08-1.19271E-08
 -1        46-6.65586E+02-2.63485E+03-9.97385E+02-2.83072E+02 3.24465E-08 5.02077E-08
 -1        47-4.71872E+02-1.84706E+03-6.99279E+02-2.25473E+02 1.20543E-08 7.13146E-08
 -1        48-3.20178E+02-1.18196E+03-4.52161E+02-1.81192E+02 4.30594E-10 5.08625E-08
 -1        49-2.01553E+02-6.25102E+02-2.48483E+02-1.45013E+02-1.22641E-08 3.37182E-08
 -1        50-7.85515E+01-1.92595E+02-8.14198E+01-9.00434E+01-2.77762E-08 4.04661E-08
 -1        51 1.12401E+02 3.78481E+02 1.47062E+02-7.76369E+01 8.64096E-09 2.65263E-08
 -1        52 2.23424E+02 8.19602E+02 3.12139E+02-1.04621E+02 4.12299E-09 4.75044E-08
 -1        53 3.45090E+02 1.35169E+03 5.07142E+02-1.08947E+02-3.53130E-09 5.57906E-08
 -1        54 5.01795E+02 1.96943E+03 7.37514E+02-1.08420E+02-2.36008E-08 5.72004E-08
 -1        55 6.69047E+02 2.68761E+03 9.99980E+02-1.00612E+02-4.65307E-08 4.14320E-08
 -1        56 8.72661E+02 3.49350E+03 1.29808E+03-5.61399E+01-5.25245E-08-1.08242E-08
 -1        57 1.04276E+03 4.25823E+03 1.57298E+03 3.57506E+01-2.79929E-08-6.70986E-08
 -1        58 1.20300E+03 4.89265E+03 1.80600E+03 1.45033E+02 2.07317E-08-1.12057E-07
 -1        59 1.30918E+03 5.27320E+03 1.94812E+03 2.82754E+02 5.09246E-08-5.64681E-08
 -1        60 1.32673E+03 5.17452E+03 1.92399E+03 4.63247E+02 4.39851E-08 1.37037E-08
 -1        61 1.16714E+03 4.34745E+03 1.63468E+03 6.12824E+02 6.90164E-09 8.57116E-08
 -1        62 8.73648E+02 2.86917E+03 1.11304E+03 6.25636E+02-3.47749E-08 1.01283E-07
 -1        63 4.57122E+02 1.08386E+03 4.59509E+02 5.05679E+02-5.76840E-08 6.62638E-08
 -1        64 2.04799E+01-7.22823E+02-2.12719E+02 3.58857E+02-5.77398E-08-6.04398E-09
 -1        65-4.67307E+02-2.68646E+03-9.55033E+02 2.68863E+02-5.06716E-08-5.90275E-08
 -1        66-1.07174E+03-5.15852E+03-1.89844E+03 2.30204E+02-4.06757E-08-9.10029E-08
 -1        67-1.83430E+03-8.43268E+03-3.15731E+03 2.69412E+02-1.02976E-08-1.40154E-07
 -1        68-3.26528E+03-1.30139E+04-5.06984E+03 2.95793E+02 1.96035E-08-1.15096E-07
 -1        69-3.05520E+03-1.72272E+04-6.41387E+03 1.23534E+03 2.19916E-08-5.47276E-08
 -1        70 1.12401E+02 3.78481E+02 1.47062E+02-7.76369E+01 8.64061E-09 2.65235E-08
 -1        71 2.23424E+02 8.19602E+02 3.12139E+02-1.04621E+02 4.12310E-09 4.75048E-08
 -1        72 3.45090E+02 1.35169E+03 5.07142E+02-1.08947E+02-3.53131E-09 5.57911E-08
 -1        73 5.01795E+02 1.96943E+03 7.37514E+02-1.08420E+02-2.36011E-08 5.72004E-08
 -1        74 6.69047E+02 2.68761E+03 9.99980E+02-1.00612E+02-4.65308E-08 4.14320E-08
 -1        75 8.72661E+02 3.49350E+03 1.29808E+03-5.61399E+01-5.25245E-08-1.08242E-08
 -1        76 1.04276E+03 4.25823E+03 1.57298E+03 3.57506E+01-2.79929E-08-6.70981E-08
 -1        77 1.20300E+03 4.89265E+03 1.80600E+03 1.45033E+02 2.07317E-08-1.12061E-07
 -1        78 1.30918E+03 5.27320E+03 1.94812E+03 2.82754E+02 5.09245E-08-5.64667E-08
 -1        79 1.32673E+03 5.17452E+03 1.92399E+03 4.63247E+02 4.39842E-08 1.37027E-08
 -1        80 1.16714E+03 4.34745E+03 1.63468E+03 6.12824E+02 6.90187E-09 8.57155E-08
 -1        81 8.73648E+02 2.86917E+03 1.11304E+03 6.25636E+02-3.47749E-08 1.01279E-07
 -1        82 4.57122E+02 1.08386E+03 4.59509E+02 5.05679E+02-5.76840E-08 6.62614E-08
 -1        83 2.04799E+01-7.22823E+02-2.12719E+02 3.58857E+02-5.77393E-08-6.04317E-09
 -1        84-4.67307E+02-2.68646E+03-9.55033E+02 2.68863E+02-5.06729E-08-5.90279E-08
 -1        85-1.07174E+03-5.15852E+03-1.89844E+03 2.30204E+02-4.06764E-08-9.10033E-08
 -1        86-1.83430E+03-8.43268E+03-3.15731E+03 2.69412E+02-1.02974E-08-1.40154E-07
 -1        87-3.26528E+03-1.30139E+04-5.06984E+03 2.95793E+02 1.96036E-08-1.15096E-07
 -1        88-3.05520E+03-1.72272E+04-6.41387E+03 1.23534E+03 2.19916E-08-5.47276E-08
 -1        89 1.59160E+02-9.88026E+02-2.32859E+02 1.50465E+03-3.13817E-09-5.02352E-08
 -1        90 1.83998E+02-7.62516E+02-1.52539E+02 1.50654E+03-2.30286E-09-1.22202E-07
 -1        91 2.13767E+02-5.50344E+02-9.44587E+01 1.10569E+03-2.79499E-09-1.40873E-07
 -1        92 1.87563E+02-4.16880E+02-6.70308E+01 8.29656E+02-1.05666E-08-1.04456E-07
 -1        93 1.53132E+02-3.21825E+02-5.09497E+01 6.25579E+02-1.58864E-08-5.46026E-08
 -1        94 1.22766E+02-2.71893E+02-4.56899E+01 5.30301E+02-7.70863E-09 2.60133E-09
 -1        95 1.26102E+02-2.56351E+02-3.96986E+01 5.11804E+02-1.52366E-08 6.28593E-08
 -1        96 1.16993E+02-2.55073E+02-4.11035E+01 4.68226E+02-2.81400E-08 1.13311E-07
 -1        97 6.98508E+01-2.39884E+02-4.95080E+01 3.17431E+02-2.39268E-08 9.75054E-08
 -1        98 1.99393E+01-2.09078E+02-5.40342E+01 1.02665E+02-1.16369E-08 1.37829E-08
 -1        99-2.89162E-01-1.68574E+02-4.74302E+01-7.01875E+01 2.73872E-09-6.41657E-08
 -1       100-1.22585E+01-1.28356E+02-3.92076E+01-1.62286E+02 1.41784E-08-1.17578E-07
 -1       101-1.37038E+01-8.53352E+01-2.75469E+01-2.16446E+02 1.12467E-08-7.83409E-08
 -1       102-1.43102E+01-4.21806E+01-1.54828E+01-2.50070E+02-8.38442E-10-9.26120E-09
 -1       103-1.96339E+00 3.43912E+00 1.29507E+00-2.43926E+02-6.79958E-09 4.89172E-08
 -1       104 1.02549E+01 4.76617E+01 1.77836E+01-2.14253E+02-2.72717E-09 6.80399E-08
 -1       105 1.09478E+01 8.49394E+01 2.89010E+01-1.86484E+02 7.98712E-10 5.82296E-08
 -1       106 1.50419E+01 1.12318E+02 3.82134E+01-1.56892E+02-8.21076E-09 4.31327E-08
 -1       107 3.39499E+01 1.36513E+02 5.11080E+01-1.01218E+02-1.38074E-08 3.52454E-08
 -1       108 3.39499E+01 1.36513E+02 5.11080E+01-1.01218E+02-1.38073E-08 3.52430E-08
 -1       109 1.50419E+01 1.12318E+02 3.82134E+01-1.56892E+02-8.21080E-09 4.31363E-08
 -1       110 1.09478E+01 8.49394E+01 2.89010E+01-1.86484E+02 7.98762E-10 5.82291E-08
 -1       111 1.02549E+01 4.76617E+01 1.77836E+01-2.14253E+02-2.72727E-09 6.80409E-08
 -1       112-1.96339E+00 3.43912E+00 1.29507E+00-2.43926E+02-6.79966E-09 4.89138E-08
 -1       113-1.43102E+01-4.21806E+01-1.54828E+01-2.50070E+02-8.38397E-10-9.26120E-09
 -1       114-1.37038E+01-8.53352E+01-2.75469E+01-2.16446E+02 1.12467E-08-7.83417E-08
 -1       115-1.22585E+01-1.28356E+02-3.92076E+01-1.62286E+02 1.41784E-08-1.17573E-07
 -1       116-2.89162E-01-1.68574E+02-4.74302E+01-7.01875E+01 2.73876E-09-6.41685E-08
 -1       117 1.99393E+01-2.09078E+02-5.40342E+01 1.02665E+02-1.16369E-08 1.37816E-08
 -1       118 6.98508E+01-2.39884E+02-4.95080E+01 3.17431E+02-2.39268E-08 9.75045E-08
 -1       119 1.16993E+02-2.55073E+02-4.11035E+01 4.68226E+02-2.81400E-08 1.13311E-07
 -1       120 1.26102E+02-2.56351E+02-3.96986E+01 5.11804E+02-1.52366E-08 6.28584E-08
 -1       121 1.22766E+02-2.71893E+02-4.56899E+01 5.30301E+02-7.70870E-09 2.60166E-09
 -1       122 1.53132E+02-3.21825E+02-5.09497E+01 6.25579E+02-1.58863E-08-5.46023E-08
 -1       123 1.87563E+02-4.16880E+02-6.70308E+01 8.29656E+02-1.05664E-08-1.04456E-07
 -1       124 2.13767E+02-5.50344E+02-9.44587E+01 1.10569E+03-2.79509E-09-1.40873E-07
 -1       125 1.83998E+02-7.62516E+02-1.52539E+02 1.50654E+03-2.30289E-09-1.22202E-07
 -1       126 1.59160E+02-9.88026E+02-2.32859E+02 1.50465E+03-3.13820E-09-5.02352E-08
 -3
    1PSTEP                       143          36           1          
  100CL  136 3.60000E-01         126                     1   36           1
 -4  TOSTRAIN    6    1
 -5  EXX         1    4    1    1
 -5  EYY         1    4    2    2
 -5  EZZ         1    4    3    3
 -5  EXY         1    4    1    2
 -5  EYZ         1    4    2    3
 -5  EZX         1    4    3    1
 -1         1-1.47778E-04 4.03538E-02-9.22835E-27 2.05955E-02 9.64539E-19-8.98943E-16
 -1         2-1.47778E-04 4.03538E-02-9.22835E-27 2.05955E-02 9.64539E-19-8.98943E-16
 -1         3-1.80340E-05-3.68758E-05 2.84202E-26-1.31520E-04-1.08449E-13 6.53238E-14
 -1         4-1.80340E-05-3.68758E-05 2.84188E-26-1.31520E-04-1.08449E-13 6.53206E-14
 -1         5 1.09371E-05 3.56070E-04 1.45877E-26-2.43738E-04 4.31090E-14 8.11387E-14
 -1         6 1.09371E-05 3.56070E-04 1.46020E-26-2.43738E-04 4.31112E-14 8.11841E-14
 -1         7-1.54035E-04-4.21995E-02-1.21538E-26 1.99197E-02-4.37291E-19 8.39107E-16
 -1         8-1.54035E-04-4.21995E-02-1.21538E-26 1.99197E-02-4.37291E-19 8.39107E-16
 -1         9-3.54844E-06 2.78461E-04 2.95621E-27-2.25671E-04-3.57602E-14 4.54165E-14
 -1        10-3.54844E-06 2.78461E-04 2.95637E-27-2.25671E-04-3.57603E-14 4.54154E-14
 -1        11-1.50906E-04-1.54183E-03-8.41742E-27 1.52480E-02 2.45373E-19-7.63416E-17
 -1        12-1.50906E-04-1.54183E-03-8.41742E-27 1.52480E-02 2.45373E-19-7.63416E-17
 -1        13-9.92342E-03 3.56787E-02 4.02044E-26 6.27001E-03-1.06256E-13-1.35825E-13
 -1        14-5.20834E-03 2.56614E-02 3.05236E-25 3.49435E-03-1.09588E-13-3.82984E-13
 -1        15-3.52487E-03 1.64530E-02 3.55779E-25 2.98061E-03-3.35951E-14-4.20522E-13
 -1        16-1.99242E-03 9.70071E-03 2.52531E-25 2.20671E-03 2.80900E-14-3.61352E-13
 -1        17-9.62047E-04 4.67908E-03 4.32580E-26 1.70476E-03 7.96866E-14-1.62119E-13
 -1        18-2.13035E-04 7.23942E-04 2.01777E-26 1.42797E-03 1.30079E-13 4.52783E-14
 -1        19 6.16440E-04-2.95580E-03 5.75113E-26 1.35458E-03 1.18906E-13 1.54806E-13
 -1        20 1.43515E-03-6.60833E-03 2.44284E-25 1.25141E-03 7.41977E-15 3.60205E-13
 -1        21 2.08975E-03-9.62275E-03 2.00096E-25 8.74810E-04-1.56040E-13 2.89077E-13
 -1        22 2.38817E-03-1.12208E-02 8.25654E-26 3.09545E-04-2.21025E-13 8.69312E-14
 -1        23 2.45000E-03-1.13078E-02 9.32430E-26-1.42106E-04-1.59734E-13-1.85035E-13
 -1        24 2.23524E-03-1.04017E-02 1.90553E-25-3.67884E-04-7.98138E-15-3.17649E-13
 -1        25 1.91863E-03-8.98160E-03 1.72333E-25-5.04855E-04 1.22841E-13-2.80735E-13
 -1        26 1.49311E-03-7.25631E-03 2.93778E-26-6.15010E-04 1.57528E-13-4.70622E-14
 -1        27 1.14281E-03-5.45035E-03 6.20932E-26-6.20842E-04 1.13899E-13 1.58282E-13
 -1        28 7.89091E-04-3.81213E-03 1.07585E-25-5.43881E-04 4.92936E-14 2.30099E-13
 -1        29 4.68936E-04-2.42523E-03 5.28055E-26-4.78881E-04 7.96001E-15 1.65229E-13
 -1        30 1.85001E-04-1.26073E-03 2.56219E-26-4.19438E-04-3.57643E-14 1.11052E-13
 -1        31 3.00087E-05-3.82670E-04 4.87989E-26-2.78640E-04-8.54210E-14 1.34703E-13
 -1        32-9.92342E-03 3.56787E-02 4.02044E-26 6.27001E-03-1.06256E-13-1.35825E-13
 -1        33-5.20834E-03 2.56614E-02 3.05236E-25 3.49435E-03-1.09588E-13-3.82984E-13
 -1        34-3.52487E-03 1.64530E-02 3.55779E-25 2.98061E-03-3.35952E-14-4.20522E-13
 -1        35-1.99242E-03 9.70071E-03 2.52531E-25 2.20671E-03 2.80900E-14-3.61352E-13
 -1        36-9.62047E-04 4.67908E-03 4.32580E-26 1.70476E-03 7.96867E-14-1.62119E-13
 -1        37-2.13035E-04 7.23942E-04 2.01764E-26 1.42797E-03 1.30079E-13 4.52774E-14
 -1        38 6.16440E-04-2.95580E-03 5.75201E-26 1.35458E-03 1.18908E-13 1.54820E-13
 -1        39 1.43515E-03-6.60833E-03 2.44284E-25 1.25141E-03 7.41975E-15 3.60205E-13
 -1        40 2.08975E-03-9.62275E-03 2.00095E-25 8.74810E-04-1.56040E-13 2.89076E-13
 -1        41 2.38817E-03-1.12208E-02 8.25666E-26 3.09545E-04-2.21024E-13 8.69342E-14
 -1        42 2.45000E-03-1.13078E-02 9.32394E-26-1.42106E-04-1.59734E-13-1.85032E-13
 -1        43 2.23524E-03-1.04017E-02 1.90561E-25-3.67884E-04-7.98190E-15-3.17656E-13
 -1        44 1.91863E-03-8.98160E-03 1.72333E-25-5.04855E-04 1.22841E-13-2.80735E-13
 -1        45 1.49311E-03-7.25631E-03 2.93778E-26-6.15010E-04 1.57528E-13-4.70622E-14
 -1        46 1.14281E-03-5.45035E-03 6.20974E-26-6.20842E-04 1.13899E-13 1.58288E-13
 -1        47 7.89091E-04-3.81213E-03 1.07583E-25-5.43881E-04 4.92937E-14 2.30098E-13
 -1        48 4.68936E-04-2.42523E-03 5.27979E-26-4.78881E-04 7.95882E-15 1.65218E-13
 -1        49 1.85001E-04-1.26073E-03 2.56074E-26-4.19438E-04-3.57649E-14 1.11022E-13
 -1        50 3.00087E-05-3.82670E-04 4.88030E-26-2.78640E-04-8.54207E-14 1.34712E-13
 -1        51-9.32254E-05 7.30971E-04 1.37776E-26-2.82691E-04 3.12057E-14 8.51166E-14
 -1        52-2.60986E-04 1.61529E-03 4.65768E-26-4.10185E-04 1.91649E-14 1.53727E-13
 -1        53-4.95759E-04 2.69737E-03 6.51943E-26-4.79081E-04-4.28670E-15 1.81513E-13
 -1        54-7.31752E-04 3.93569E-03 7.68708E-26-5.49435E-04-6.83554E-14 1.88757E-13
 -1        55-1.03812E-03 5.38571E-03 6.92033E-26-6.27602E-04-1.43668E-13 1.41313E-13
 -1        56-1.35353E-03 7.00221E-03 3.86062E-26-6.27188E-04-1.70766E-13-2.61424E-14
 -1        57-1.72009E-03 8.57033E-03 9.19477E-26-5.17321E-04-1.03038E-13-2.11737E-13
 -1        58-1.99490E-03 9.86519E-03 2.60655E-25-3.76166E-04 4.07737E-14-3.67253E-13
 -1        59-2.17648E-03 1.06694E-02 9.69401E-26-1.41308E-04 1.47816E-13-1.95963E-13
 -1        60-2.15204E-03 1.05391E-02 1.24741E-26 3.13523E-04 1.44430E-13 3.08730E-14
 -1        61-1.85133E-03 8.97176E-03 1.37896E-25 8.68928E-04 5.04773E-14 2.74127E-13
 -1        62-1.16615E-03 6.00843E-03 2.36242E-25 1.24794E-03-7.50148E-14 3.39444E-13
 -1        63-3.67713E-04 2.36450E-03 1.45224E-25 1.35688E-03-1.60714E-13 2.35932E-13
 -1        64 4.46295E-04-1.36463E-03 4.84117E-26 1.41989E-03-1.88994E-13 2.93277E-15
 -1        65 1.27818E-03-5.39984E-03 1.17303E-25 1.69179E-03-1.86833E-13-1.71330E-13
 -1        66 2.33935E-03-1.05080E-02 1.98971E-25 2.20181E-03-1.65472E-13-2.79733E-13
 -1        67 3.85839E-03-1.73867E-02 4.06418E-25 2.99610E-03-7.79141E-14-4.51037E-13
 -1        68 5.36244E-03-2.69385E-02 2.77232E-25 3.49839E-03 3.78940E-14-3.79661E-13
 -1        69 1.01455E-02-3.73704E-02 6.04565E-26 6.45623E-03 6.81682E-14-1.81904E-13
 -1        70-9.32254E-05 7.30971E-04 1.37741E-26-2.82691E-04 3.12043E-14 8.51075E-14
 -1        71-2.60986E-04 1.61529E-03 4.65772E-26-4.10185E-04 1.91653E-14 1.53729E-13
 -1        72-4.95759E-04 2.69737E-03 6.51953E-26-4.79081E-04-4.28667E-15 1.81515E-13
 -1        73-7.31752E-04 3.93569E-03 7.68711E-26-5.49435E-04-6.83564E-14 1.88757E-13
 -1        74-1.03812E-03 5.38571E-03 6.92037E-26-6.27602E-04-1.43668E-13 1.41313E-13
 -1        75-1.35353E-03 7.00221E-03 3.86062E-26-6.27188E-04-1.70766E-13-2.61424E-14
 -1        76-1.72009E-03 8.57033E-03 9.19460E-26-5.17321E-04-1.03038E-13-2.11736E-13
 -1        77-1.99490E-03 9.86519E-03 2.60671E-25-3.76166E-04 4.07730E-14-3.67264E-13
 -1        78-2.17648E-03 1.06694E-02 9.69348E-26-1.41308E-04 1.47816E-13-1.95959E-13
 -1        79-2.15204E-03 1.05391E-02 1.24703E-26 3.13523E-04 1.44427E-13 3.08699E-14
 -1        80-1.85133E-03 8.97176E-03 1.37909E-25 8.68928E-04 5.04794E-14 2.74140E-13
 -1        81-1.16615E-03 6.00843E-03 2.36227E-25 1.24794E-03-7.50162E-14 3.39433E-13
 -1        82-3.67713E-04 2.36450E-03 1.45221E-25 1.35688E-03-1.60715E-13 2.35925E-13
 -1        83 4.46295E-04-1.36463E-03 4.84122E-26 1.41989E-03-1.88992E-13 2.93517E-15
 -1        84 1.27818E-03-5.39984E-03 1.17306E-25 1.69179E-03-1.86837E-13-1.71331E-13
 -1        85 2.33935E-03-1.05080E-02 1.98974E-25 2.20181E-03-1.65474E-13-2.79734E-13
 -1        86 3.85839E-03-1.73867E-02 4.06418E-25 2.99610E-03-7.79135E-14-4.51037E-13
 -1        87 5.36244E-03-2.69385E-02 2.77232E-25 3.49839E-03 3.78941E-14-3.79661E-13
 -1        88 1.01455E-02-3.73704E-02 6.04565E-26 6.45623E-03 6.81682E-14-1.81904E-13
 -1        89 1.11044E-04-1.25544E-03 3.72181E-26 5.03913E-03-1.65847E-14-1.62432E-13
 -1        90 7.70491E-05-8.32359E-04 3.03145E-25 5.08067E-03-3.62901E-14-3.95222E-13
 -1        91 1.66759E-04-6.13022E-04 4.14821E-25 3.76830E-03-5.19873E-14-4.54539E-13
 -1        92 1.73468E-04-4.77887E-04 2.21365E-25 2.84722E-03-7.04308E-14-3.33490E-13
 -1        93 1.58064E-04-3.82697E-04 5.16857E-26 2.15738E-03-7.15272E-14-1.70102E-13
 -1        94 1.16630E-04-3.15324E-04-1.94562E-26 1.82697E-03-2.38927E-14 1.14125E-14
 -1        95 1.24364E-04-2.97990E-04 7.05834E-26 1.76334E-03-2.55045E-14 2.08748E-13
 -1        96 1.34499E-04-3.18149E-04 2.83140E-25 1.61929E-03-4.98641E-14 3.76294E-13
 -1        97 1.19207E-04-3.44519E-04 1.96701E-25 1.11417E-03-4.46012E-14 3.23317E-13
 -1        98 1.18065E-04-3.66784E-04-2.80294E-26 3.97229E-04-3.34869E-14 4.81176E-14
 -1        99 1.36758E-04-3.57053E-04 6.32760E-26-1.80437E-04-8.17207E-15-2.08561E-13
 -1       100 1.20169E-04-3.02762E-04 2.88311E-25-4.95502E-04 1.87933E-14-3.84416E-13
 -1       101 9.92717E-05-2.28279E-04 1.16874E-25-6.84024E-04 2.08070E-14-2.56309E-13
 -1       102 6.97932E-05-1.43479E-04-2.17256E-26-8.03311E-04-4.37809E-15-2.99103E-14
 -1       103 5.23481E-05-5.05729E-05 3.94079E-26-7.89939E-04-1.45954E-14 1.59812E-13
 -1       104 2.86694E-05 4.63784E-05 9.59462E-26-6.98701E-04 5.65244E-16 2.21285E-13
 -1       105-1.34117E-05 1.37733E-04 7.09315E-26-6.13350E-04 1.00715E-14 1.88999E-13
 -1       106-3.79924E-05 2.03264E-04 3.96381E-26-5.19997E-04-2.13787E-14 1.41062E-13
 -1       107-3.16084E-05 2.53052E-04 2.79825E-26-3.40034E-04-4.06137E-14 1.16082E-13
 -1       108-3.16084E-05 2.53052E-04 2.79794E-26-3.40034E-04-4.06138E-14 1.16074E-13
 -1       109-3.79924E-05 2.03264E-04 3.96446E-26-5.19997E-04-2.13784E-14 1.41073E-13
 -1       110-1.34117E-05 1.37733E-04 7.09306E-26-6.13350E-04 1.00716E-14 1.88997E-13
 -1       111 2.86694E-05 4.63784E-05 9.59482E-26-6.98701E-04 5.65049E-16 2.21288E-13
 -1       112 5.23481E-05-5.05729E-05 3.94001E-26-7.89939E-04-1.45962E-14 1.59801E-13
 -1       113 6.97932E-05-1.43479E-04-2.17256E-26-8.03311E-04-4.37795E-15-2.99103E-14
 -1       114 9.92717E-05-2.28279E-04 1.16877E-25-6.84024E-04 2.08066E-14-2.56312E-13
 -1       115 1.20169E-04-3.02762E-04 2.88293E-25-4.95502E-04 1.87943E-14-3.84402E-13
 -1       116 1.36758E-04-3.57053E-04 6.32854E-26-1.80437E-04-8.17263E-15-2.08570E-13
 -1       117 1.18065E-04-3.66784E-04-2.80309E-26 3.97229E-04-3.34873E-14 4.81132E-14
 -1       118 1.19207E-04-3.44519E-04 1.96697E-25 1.11417E-03-4.46015E-14 3.23315E-13
 -1       119 1.34499E-04-3.18149E-04 2.83143E-25 1.61929E-03-4.98638E-14 3.76296E-13
 -1       120 1.24364E-04-2.97990E-04 7.05811E-26 1.76334E-03-2.55048E-14 2.08745E-13
 -1       121 1.16630E-04-3.15324E-04-1.94558E-26 1.82697E-03-2.38928E-14 1.14136E-14
 -1       122 1.58064E-04-3.82697E-04 5.16847E-26 2.15738E-03-7.15268E-14-1.70101E-13
 -1       123 1.73468E-04-4.77887E-04 2.21364E-25 2.84722E-03-7.04303E-14-3.33490E-13
 -1       124 1.66759E-04-6.13022E-04 4.14821E-25 3.76830E-03-5.19876E-14-4.54539E-13
 -1       125 7.70491E-05-8.32359E-04 3.03145E-25 5.08067E-03-3.62902E-14-3.95222E-13
 -1       126 1.11044E-04-1.25544E-03 3.72181E-26 5.03913E-03-1.65848E-14-1.62432E-13
 -3
    1PSTEP                       144          36           1          
  100CL  136 3.60000E-01         126                     1   36           1
 -4  ERROR       1    1
 -5  STR(%)      1    1    0    0
 -1         1 6.72740E+01
 -1         2 6.72740E+01
 -1         3 4.77967E+01
 -1         4 4.77967E+01
 -1         5 3.61450E+00
 -1         6 3.61450E+00
 -1         7 6.03827E+01
 -1         8 6.03827E+01
 -1         9 4.77967E+01
 -1        10 4.77967E+01
 -1        11 6.72740E+01
 -1        12 6.72740E+01
 -1        13 6.72740E+01
 -1        14 6.41291E+01
 -1        15 6.36409E+01
 -1        16 6.18124E+01
 -1        17 5.81269E+01
 -1        18 4.15074E+01
 -1        19 4.68870E+01
 -1        20 5.75822E+01
 -1        21 5.85152E+01
 -1        22 5.85152E+01
 -1        23 5.80514E+01
 -1        24 5.89278E+01
 -1        25 5.95516E+01
 -1        26 6.04982E+01
 -1        27 6.13132E+01
 -1        28 6.22610E+01
 -1        29 6.22610E+01
 -1        30 6.07356E+01
 -1        31 5.43573E+01
 -1        32 6.72740E+01
 -1        33 6.41291E+01
 -1        34 6.36409E+01
 -1        35 6.18124E+01
 -1        36 5.81269E+01
 -1        37 4.15074E+01
 -1        38 4.68870E+01
 -1        39 5.75822E+01
 -1        40 5.85152E+01
 -1        41 5.85152E+01
 -1        42 5.80514E+01
 -1        43 5.89278E+01
 -1        44 5.95516E+01
 -1        45 6.04982E+01
 -1        46 6.13132E+01
 -1        47 6.22610E+01
 -1        48 6.22610E+01
 -1        49 6.07356E+01
 -1        50 5.43573E+01
 -1        51 3.39177E+01
 -1        52 4.98210E+01
 -1        53 5.75211E+01
 -1        54 6.10640E+01
 -1        55 6.29090E+01
 -1        56 6.35441E+01
 -1        57 6.35441E+01
 -1        58 6.35226E+01
 -1        59 6.31255E+01
 -1        60 6.42990E+01
 -1        61 6.42990E+01
 -1        62 6.38376E+01
 -1        63 5.26301E+01
 -1        64 4.38241E+01
 -1        65 5.14518E+01
 -1        66 5.58836E+01
 -1        67 5.79166E+01
 -1        68 5.79166E+01
 -1        69 6.03827E+01
 -1        70 3.39177E+01
 -1        71 4.98210E+01
 -1        72 5.75211E+01
 -1        73 6.10640E+01
 -1        74 6.29090E+01
 -1        75 6.35441E+01
 -1        76 6.35441E+01
 -1        77 6.35226E+01
 -1        78 6.31255E+01
 -1        79 6.42990E+01
 -1        80 6.42990E+01
 -1        81 6.38376E+01
 -1        82 5.26301E+01
 -1        83 4.38241E+01
 -1        84 5.14518E+01
 -1        85 5.58836E+01
 -1        86 5.79166E+01
 -1        87 5.79166E+01
 -1        88 6.03827E+01
 -1        89 6.72740E+01
 -1        90 6.41291E+01
 -1        91 6.36409E+01
 -1        92 6.18124E+01
 -1        93 5.81269E+01
 -1        94 4.38241E+01
 -1        95 5.26301E+01
 -1        96 6.38376E+01
 -1        97 6.42990E+01
 -1        98 6.42990E+01
 -1        99 6.31255E+01
 -1       100 6.35226E+01
 -1       101 6.35441E+01
 -1       102 6.35441E+01
 -1       103 6.29090E+01
 -1       104 6.22610E+01
 -1       105 6.22610E+01
 -1       106 6.07356E+01
 -1       107 5.43573E+01
 -1       108 5.43573E+01
 -1       109 6.07356E+01
 -1       110 6.22610E+01
 -1       111 6.22610E+01
 -1       112 6.29090E+01
 -1       113 6.35441E+01
 -1       114 6.35441E+01
 -1       115 6.35226E+01
 -1       116 6.31255E+01
 -1       117 6.42990E+01
 -1       118 6.42990E+01
 -1       119 6.38376E+01
 -1       120 5.26301E+01
 -1       121 4.38241E+01
 -1       122 5.81269E+01
 -1       123 6.18124E+01
 -1       124 6.36409E+01
 -1       125 6.41291E+01
 -1       126 6.72740E+01
 -3
    1PSTEP                       145          37           1          
  100CL  137 3.70000E-01         126                     1   37           1
 -4  DISP        4    1
 -5  D1          1    2    1    0
 -5  D2          1    2    2    0
 -5  D3          1    2    3    0
 -5  ALL         1    2    0    0    1ALL
 -1         1 0.00000E+00 0.00000E+00 0.00000E+00
 -1         2 0.00000E+00 0.00000E+00 0.00000E+00
 -1         3 8.05997E-02-1.69524E-03 0.00000E+00
 -1         4 8.05997E-02-1.69524E-03 0.00000E+00
 -1         5 8.04946E-02-6.20810E-03 0.00000E+00
 -1         6 8.04946E-02-6.20810E-03 0.00000E+00
 -1         7 0.00000E+00 0.00000E+00 0.00000E+00
 -1         8 0.00000E+00 0.00000E+00 0.00000E+00
 -1         9 8.05459E-02-3.94430E-03 0.00000E+00
 -1        10 8.05459E-02-3.94430E-03 0.00000E+00
 -1        11 0.00000E+00 0.00000E+00 0.00000E+00
 -1        12 0.00000E+00 0.00000E+00 0.00000E+00
 -1        13 2.01495E-03 2.01683E-03 0.00000E+00
 -1        14 5.62469E-03 3.52676E-03 0.00000E+00
 -1        15 1.06273E-02 4.33354E-03 0.00000E+00
 -1        16 1.62948E-02 4.59549E-03 0.00000E+00
 -1        17 2.21998E-02 4.50570E-03 0.00000E+00
 -1        18 2.81608E-02 4.22870E-03 0.00000E+00
 -1        19 3.41144E-02 3.82643E-03 0.00000E+00
 -1        20 3.99645E-02 3.29729E-03 0.00000E+00
 -1        21 4.55402E-02 2.65107E-03 0.00000E+00
 -1        22 5.06897E-02 1.93317E-03 0.00000E+00
 -1        23 5.53144E-02 1.20452E-03 0.00000E+00
 -1        24 5.93925E-02 5.18271E-04 0.00000E+00
 -1        25 6.29551E-02-7.97739E-05 0.00000E+00
 -1        26 6.60912E-02-5.64786E-04 0.00000E+00
 -1        27 6.88957E-02-9.41538E-04 0.00000E+00
 -1        28 7.14594E-02-1.22904E-03 0.00000E+00
 -1        29 7.38427E-02-1.43807E-03 0.00000E+00
 -1        30 7.61161E-02-1.57231E-03 0.00000E+00
 -1        31 7.83546E-02-1.64823E-03 0.00000E+00
 -1        32 2.01495E-03 2.01683E-03 0.00000E+00
 -1        33 5.62469E-03 3.52676E-03 0.00000E+00
 -1        34 1.06273E-02 4.33354E-03 0.00000E+00
 -1        35 1.62948E-02 4.59549E-03 0.00000E+00
 -1        36 2.21998E-02 4.50570E-03 0.00000E+00
 -1        37 2.81608E-02 4.22870E-03 0.00000E+00
 -1        38 3.41144E-02 3.82643E-03 0.00000E+00
 -1        39 3.99645E-02 3.29729E-03 0.00000E+00
 -1        40 4.55402E-02 2.65107E-03 0.00000E+00
 -1        41 5.06897E-02 1.93317E-03 0.00000E+00
 -1        42 5.53144E-02 1.20452E-03 0.00000E+00
 -1        43 5.93925E-02 5.18271E-04 0.00000E+00
 -1        44 6.29551E-02-7.97739E-05 0.00000E+00
 -1        45 6.60912E-02-5.64786E-04 0.00000E+00
 -1        46 6.88957E-02-9.41538E-04 0.00000E+00
 -1        47 7.14594E-02-1.22904E-03 0.00000E+00
 -1        48 7.38427E-02-1.43807E-03 0.00000E+00
 -1        49 7.61161E-02-1.57231E-03 0.00000E+00
 -1        50 7.83546E-02-1.64823E-03 0.00000E+00
 -1        51 7.82477E-02-6.16958E-03 0.00000E+00
 -1        52 7.60064E-02-6.15877E-03 0.00000E+00
 -1        53 7.37239E-02-6.19786E-03 0.00000E+00
 -1        54 7.13263E-02-6.29782E-03 0.00000E+00
 -1        55 6.87404E-02-6.45508E-03 0.00000E+00
 -1        56 6.59017E-02-6.67088E-03 0.00000E+00
 -1        57 6.27192E-02-6.94638E-03 0.00000E+00
 -1        58 5.90923E-02-7.26536E-03 0.00000E+00
 -1        59 5.49298E-02-7.58519E-03 0.00000E+00
 -1        60 5.02132E-02-7.84892E-03 0.00000E+00
 -1        61 4.49764E-02-7.99840E-03 0.00000E+00
 -1        62 3.93279E-02-7.98747E-03 0.00000E+00
 -1        63 3.34370E-02-7.80416E-03 0.00000E+00
 -1        64 2.74741E-02-7.47655E-03 0.00000E+00
 -1        65 2.15327E-02-7.02683E-03 0.00000E+00
 -1        66 1.56891E-02-6.40637E-03 0.00000E+00
 -1        67 1.01486E-02-5.48551E-03 0.00000E+00
 -1        68 5.32970E-03-4.13693E-03 0.00000E+00
 -1        69 1.93097E-03-2.25851E-03 0.00000E+00
 -1        70 7.82477E-02-6.16958E-03 0.00000E+00
 -1        71 7.60064E-02-6.15877E-03 0.00000E+00
 -1        72 7.37239E-02-6.19786E-03 0.00000E+00
 -1        73 7.13263E-02-6.29782E-03 0.00000E+00
 -1        74 6.87404E-02-6.45508E-03 0.00000E+00
 -1        75 6.59017E-02-6.67088E-03 0.00000E+00
 -1        76 6.27192E-02-6.94638E-03 0.00000E+00
 -1        77 5.90923E-02-7.26536E-03 0.00000E+00
 -1        78 5.49298E-02-7.58519E-03 0.00000E+00
 -1        79 5.02132E-02-7.84892E-03 0.00000E+00
 -1        80 4.49764E-02-7.99840E-03 0.00000E+00
 -1        81 3.93279E-02-7.98747E-03 0.00000E+00
 -1        82 3.34370E-02-7.80416E-03 0.00000E+00
 -1        83 2.74741E-02-7.47655E-03 0.00000E+00
 -1        84 2.15327E-02-7.02683E-03 0.00000E+00
 -1        85 1.56891E-02-6.40637E-03 0.00000E+00
 -1        86 1.01486E-02-5.48551E-03 0.00000E+00
 -1        87 5.32970E-03-4.13693E-03 0.00000E+00
 -1        88 1.93097E-03-2.25851E-03 0.00000E+00
 -1        89 1.44868E-03-9.22248E-05 0.00000E+00
 -1        90 5.19630E-03-2.74688E-04 0.00000E+00
 -1        91 1.02069E-02-5.53122E-04 0.00000E+00
 -1        92 1.59027E-02-8.94023E-04 0.00000E+00
 -1        93 2.18280E-02-1.25549E-03 0.00000E+00
 -1        94 2.78070E-02-1.62246E-03 0.00000E+00
 -1        95 3.37935E-02-1.99108E-03 0.00000E+00
 -1        96 3.96952E-02-2.35057E-03 0.00000E+00
 -1        97 4.53363E-02-2.68237E-03 0.00000E+00
 -1        98 5.05472E-02-2.96815E-03 0.00000E+00
 -1        99 5.52269E-02-3.19997E-03 0.00000E+00
 -1       100 5.93431E-02-3.38172E-03 0.00000E+00
 -1       101 6.29238E-02-3.51979E-03 0.00000E+00
 -1       102 6.60635E-02-3.62260E-03 0.00000E+00
 -1       103 6.88697E-02-3.70166E-03 0.00000E+00
 -1       104 7.14300E-02-3.76568E-03 0.00000E+00
 -1       105 7.38059E-02-3.81883E-03 0.00000E+00
 -1       106 7.60693E-02-3.86509E-03 0.00000E+00
 -1       107 7.83020E-02-3.90714E-03 0.00000E+00
 -1       108 7.83020E-02-3.90714E-03 0.00000E+00
 -1       109 7.60693E-02-3.86509E-03 0.00000E+00
 -1       110 7.38059E-02-3.81883E-03 0.00000E+00
 -1       111 7.14300E-02-3.76568E-03 0.00000E+00
 -1       112 6.88697E-02-3.70166E-03 0.00000E+00
 -1       113 6.60635E-02-3.62260E-03 0.00000E+00
 -1       114 6.29238E-02-3.51979E-03 0.00000E+00
 -1       115 5.93431E-02-3.38172E-03 0.00000E+00
 -1       116 5.52269E-02-3.19997E-03 0.00000E+00
 -1       117 5.05472E-02-2.96815E-03 0.00000E+00
 -1       118 4.53363E-02-2.68237E-03 0.00000E+00
 -1       119 3.96952E-02-2.35057E-03 0.00000E+00
 -1       120 3.37935E-02-1.99108E-03 0.00000E+00
 -1       121 2.78070E-02-1.62246E-03 0.00000E+00
 -1       122 2.18280E-02-1.25549E-03 0.00000E+00
 -1       123 1.59027E-02-8.94023E-04 0.00000E+00
 -1       124 1.02069E-02-5.53122E-04 0.00000E+00
 -1       125 5.19630E-03-2.74688E-04 0.00000E+00
 -1       126 1.44868E-03-9.22248E-05 0.00000E+00
 -3
    1PSTEP                       146          37           1          
  100CL  137 3.70000E-01         126                     1   37           1
 -4  STRESS      6    1
 -5  SXX         1    4    1    1
 -5  SYY         1    4    2    2
 -5  SZZ         1    4    3    3
 -5  SXY         1    4    1    2
 -5  SYZ         1    4    2    3
 -5  SZX         1    4    3    1
 -1         1 9.75129E+03 2.31211E+04 9.30616E+03 7.01991E+03 1.14981E-10-1.09242E-10
 -1         2 9.75129E+03 2.31211E+04 9.30616E+03 7.01991E+03 1.14981E-10-1.09242E-10
 -1         3-1.99985E+01 2.30102E+01 9.03935E-01-1.13318E+01-1.89340E-08 1.58701E-08
 -1         4-1.99985E+01 2.30102E+01 9.03935E-01-1.13318E+01-1.89340E-08 1.58691E-08
 -1         5 5.02255E+01 1.33524E+02 5.50953E+01-5.04460E+01 2.05611E-08 1.31350E-08
 -1         6 5.02255E+01 1.33524E+02 5.50953E+01-5.04460E+01 2.05619E-08 1.31477E-08
 -1         7-1.01131E+04-2.26839E+04-1.04875E+04 5.11008E+03 2.11341E-10-5.12316E-11
 -1         8-1.01131E+04-2.26839E+04-1.04875E+04 5.11008E+03 2.11341E-10-5.12316E-11
 -1         9 3.99299E+01 1.38158E+02 5.33985E+01-3.66298E+01 4.44815E-09 1.02316E-08
 -1        10 3.99299E+01 1.38158E+02 5.33985E+01-3.66298E+01 4.44801E-09 1.02322E-08
 -1        11-1.40445E+02-1.14191E+03-3.28757E+02 4.42615E+03 2.35313E-10-7.46123E-11
 -1        12-1.40445E+02-1.14191E+03-3.28757E+02 4.42615E+03 2.35313E-10-7.46123E-11
 -1        13 3.22701E+03 1.82051E+04 6.12284E+03 2.63822E+03-3.09551E-08 1.86284E-08
 -1        14 3.45474E+03 1.34154E+04 4.87988E+03 2.02612E+03-6.41725E-08-2.24487E-08
 -1        15 2.12606E+03 7.86892E+03 2.92927E+03 1.71888E+03-6.00077E-08-1.03894E-07
 -1        16 1.18362E+03 3.95117E+03 1.52067E+03 1.09089E+03-2.24616E-08-1.70138E-07
 -1        17 4.88294E+02 1.52478E+03 6.00007E+02 5.97159E+02 1.13207E-08-1.58423E-07
 -1        18 4.36402E+01 5.42085E+01 2.85672E+01 3.29777E+02 2.45740E-08-1.20216E-07
 -1        19-2.71616E+02-1.21159E+03-4.47085E+02 2.04812E+02 2.78980E-08-6.26800E-08
 -1        20-6.03767E+02-2.57511E+03-9.61013E+02 8.72209E+01 1.46355E-08-4.26508E-09
 -1        21-9.10830E+02-3.81329E+03-1.43254E+03-6.67533E+01-1.11870E-08 5.28963E-09
 -1        22-1.16897E+03-4.65573E+03-1.76992E+03-2.14754E+02-3.12224E-08-6.11784E-09
 -1        23-1.25341E+03-4.95533E+03-1.88806E+03-3.24273E+02-1.98625E-08-6.34013E-08
 -1        24-1.20713E+03-4.74164E+03-1.80803E+03-3.79286E+02 2.39079E-08-8.63572E-08
 -1        25-1.07286E+03-4.11857E+03-1.57505E+03-3.79760E+02 6.38950E-08-3.64792E-08
 -1        26-9.00198E+02-3.31255E+03-1.27518E+03-3.39683E+02 5.88636E-08 6.13590E-08
 -1        27-6.82102E+02-2.51948E+03-9.67013E+02-2.82308E+02 1.71492E-08 1.28624E-07
 -1        28-5.04787E+02-1.82084E+03-7.01168E+02-2.26338E+02-1.46685E-08 1.02420E-07
 -1        29-3.42659E+02-1.15194E+03-4.49858E+02-1.79987E+02-2.86548E-08 8.89716E-08
 -1        30-1.97648E+02-5.44650E+02-2.23072E+02-1.21117E+02-2.83758E-08 7.27902E-08
 -1        31-7.28535E+01-1.22614E+02-5.86789E+01-5.37350E+01-2.39313E-08 4.77259E-08
 -1        32 3.22701E+03 1.82051E+04 6.12284E+03 2.63822E+03-3.09551E-08 1.86284E-08
 -1        33 3.45474E+03 1.34154E+04 4.87988E+03 2.02612E+03-6.41725E-08-2.24487E-08
 -1        34 2.12606E+03 7.86892E+03 2.92927E+03 1.71888E+03-6.00077E-08-1.03894E-07
 -1        35 1.18362E+03 3.95117E+03 1.52067E+03 1.09089E+03-2.24615E-08-1.70137E-07
 -1        36 4.88294E+02 1.52478E+03 6.00007E+02 5.97159E+02 1.13208E-08-1.58423E-07
 -1        37 4.36402E+01 5.42085E+01 2.85672E+01 3.29777E+02 2.45740E-08-1.20214E-07
 -1        38-2.71616E+02-1.21159E+03-4.47085E+02 2.04812E+02 2.78980E-08-6.26809E-08
 -1        39-6.03767E+02-2.57511E+03-9.61013E+02 8.72209E+01 1.46355E-08-4.26410E-09
 -1        40-9.10830E+02-3.81329E+03-1.43254E+03-6.67533E+01-1.11870E-08 5.28846E-09
 -1        41-1.16897E+03-4.65573E+03-1.76992E+03-2.14754E+02-3.12224E-08-6.11667E-09
 -1        42-1.25341E+03-4.95533E+03-1.88806E+03-3.24273E+02-1.98626E-08-6.34003E-08
 -1        43-1.20713E+03-4.74164E+03-1.80803E+03-3.79286E+02 2.39079E-08-8.63575E-08
 -1        44-1.07286E+03-4.11857E+03-1.57505E+03-3.79760E+02 6.38950E-08-3.64775E-08
 -1        45-9.00198E+02-3.31255E+03-1.27518E+03-3.39683E+02 5.88636E-08 6.13585E-08
 -1        46-6.82102E+02-2.51948E+03-9.67013E+02-2.82308E+02 1.71492E-08 1.28624E-07
 -1        47-5.04787E+02-1.82084E+03-7.01168E+02-2.26338E+02-1.46685E-08 1.02421E-07
 -1        48-3.42659E+02-1.15194E+03-4.49858E+02-1.79987E+02-2.86547E-08 8.89711E-08
 -1        49-1.97648E+02-5.44650E+02-2.23072E+02-1.21117E+02-2.83759E-08 7.27920E-08
 -1        50-7.28535E+01-1.22614E+02-5.86789E+01-5.37350E+01-2.39312E-08 4.77259E-08
 -1        51 8.02953E+01 2.67817E+02 1.04332E+02-5.23651E+01 2.51130E-08 4.79336E-08
 -1        52 1.81716E+02 6.65823E+02 2.53746E+02-8.71289E+01 2.51628E-08 5.38613E-08
 -1        53 2.89692E+02 1.23677E+03 4.56311E+02-9.82868E+01 2.17433E-08 8.68981E-08
 -1        54 4.42468E+02 1.89287E+03 6.96998E+02-8.86896E+01 7.90107E-09 1.12248E-07
 -1        55 6.11778E+02 2.58511E+03 9.52543E+02-7.37956E+01-2.38036E-08 1.21509E-07
 -1        56 7.99513E+02 3.34674E+03 1.23304E+03-4.01830E+01-5.37469E-08 5.71677E-08
 -1        57 9.65166E+02 4.09984E+03 1.50332E+03 3.89154E+01-4.76682E-08-3.99702E-08
 -1        58 1.11191E+03 4.66184E+03 1.71112E+03 1.73003E+02-1.20933E-08-9.03948E-08
 -1        59 1.16813E+03 4.80891E+03 1.77062E+03 3.31196E+02 1.66966E-08-6.20266E-08
 -1        60 1.13527E+03 4.43965E+03 1.65280E+03 4.63817E+02 1.41513E-08-1.38573E-08
 -1        61 9.51573E+02 3.52715E+03 1.33048E+03 5.34936E+02-1.49829E-08 1.20083E-08
 -1        62 6.62039E+02 2.23551E+03 8.63246E+02 5.04351E+02-4.72835E-08-1.56287E-08
 -1        63 3.40551E+02 8.79461E+02 3.64375E+02 3.85711E+02-5.80550E-08-7.92807E-08
 -1        64 3.74618E+01-3.72946E+02-1.01510E+02 2.79065E+02-4.95193E-08-1.21631E-07
 -1        65-3.52218E+02-1.89116E+03-6.77641E+02 2.81663E+02-1.91153E-08-1.62712E-07
 -1        66-9.43258E+02-4.40634E+03-1.62716E+03 3.50711E+02 2.78473E-08-1.62804E-07
 -1        67-1.82161E+03-8.33688E+03-3.12542E+03 4.11298E+02 5.15596E-08-9.77165E-08
 -1        68-3.44937E+03-1.36853E+04-5.35025E+03 3.18228E+02 3.78448E-08-1.62912E-08
 -1        69-3.27519E+03-1.80148E+04-6.74705E+03 1.09797E+03 9.56311E-09 2.97867E-08
 -1        70 8.02953E+01 2.67817E+02 1.04332E+02-5.23651E+01 2.51131E-08 4.79358E-08
 -1        71 1.81716E+02 6.65823E+02 2.53746E+02-8.71289E+01 2.51627E-08 5.38592E-08
 -1        72 2.89692E+02 1.23677E+03 4.56311E+02-9.82868E+01 2.17433E-08 8.68986E-08
 -1        73 4.42468E+02 1.89287E+03 6.96998E+02-8.86896E+01 7.90146E-09 1.12248E-07
 -1        74 6.11778E+02 2.58511E+03 9.52543E+02-7.37956E+01-2.38036E-08 1.21509E-07
 -1        75 7.99513E+02 3.34674E+03 1.23304E+03-4.01830E+01-5.37470E-08 5.71677E-08
 -1        76 9.65166E+02 4.09984E+03 1.50332E+03 3.89154E+01-4.76681E-08-3.99702E-08
 -1        77 1.11191E+03 4.66184E+03 1.71112E+03 1.73003E+02-1.20932E-08-9.03948E-08
 -1        78 1.16813E+03 4.80891E+03 1.77062E+03 3.31196E+02 1.66964E-08-6.20266E-08
 -1        79 1.13527E+03 4.43965E+03 1.65280E+03 4.63817E+02 1.41513E-08-1.38531E-08
 -1        80 9.51573E+02 3.52715E+03 1.33048E+03 5.34936E+02-1.49830E-08 1.20048E-08
 -1        81 6.62039E+02 2.23551E+03 8.63246E+02 5.04351E+02-4.72835E-08-1.56288E-08
 -1        82 3.40551E+02 8.79461E+02 3.64375E+02 3.85711E+02-5.80549E-08-7.92797E-08
 -1        83 3.74618E+01-3.72946E+02-1.01510E+02 2.79065E+02-4.95196E-08-1.21630E-07
 -1        84-3.52218E+02-1.89116E+03-6.77641E+02 2.81663E+02-1.91153E-08-1.62709E-07
 -1        85-9.43258E+02-4.40634E+03-1.62716E+03 3.50711E+02 2.78478E-08-1.62805E-07
 -1        86-1.82161E+03-8.33688E+03-3.12542E+03 4.11298E+02 5.15585E-08-9.77175E-08
 -1        87-3.44937E+03-1.36853E+04-5.35025E+03 3.18228E+02 3.78448E-08-1.62911E-08
 -1        88-3.27519E+03-1.80148E+04-6.74705E+03 1.09797E+03 9.56312E-09 2.97867E-08
 -1        89 1.25888E+02-1.02921E+03-2.56210E+02 1.38105E+03-1.11222E-08 3.24558E-08
 -1        90 1.82705E+02-7.95772E+02-1.63438E+02 1.63913E+03-1.08403E-08-1.45349E-08
 -1        91 2.36062E+02-5.46145E+02-8.78388E+01 1.32731E+03 4.56235E-10-1.04697E-07
 -1        92 1.73848E+02-3.55136E+02-5.35213E+01 9.27010E+02 6.12953E-09-1.73019E-07
 -1        93 9.70586E+01-2.27440E+02-3.95113E+01 5.56247E+02-1.41869E-09-1.67012E-07
 -1        94 6.04754E+01-1.83909E+02-3.75526E+01 3.88548E+02-1.32192E-08-1.21121E-07
 -1        95 5.73328E+01-1.91790E+02-4.06256E+01 3.84091E+02-1.57905E-08-6.78956E-08
 -1        96 5.32873E+01-2.10634E+02-4.69434E+01 3.83791E+02-1.46491E-08-6.08229E-09
 -1        97 3.98205E+01-2.06706E+02-4.89439E+01 2.99104E+02-1.65766E-08 1.59325E-08
 -1        98-4.44593E-01-1.82099E+02-5.26575E+01 1.57501E+02-1.11710E-08-7.72733E-09
 -1        99-3.04975E+01-1.47620E+02-5.08744E+01 3.05576E+00 4.11484E-10-6.92512E-08
 -1       100-4.37237E+01-1.07891E+02-4.30930E+01-1.37422E+02 9.70760E-09-9.48554E-08
 -1       101-5.44575E+01-5.77838E+01-3.17135E+01-2.26242E+02 1.00878E-08-4.19977E-08
 -1       102-5.13542E+01-9.87070E+00-1.69830E+01-2.45866E+02-1.41879E-10 6.31854E-08
 -1       103-3.64667E+01 1.89449E+01-4.45233E+00-2.25141E+02-4.20275E-09 1.29229E-07
 -1       104-3.22833E+01 3.34761E+01 7.22858E-01-2.02765E+02-5.42985E-09 1.13228E-07
 -1       105-2.70655E+01 4.85249E+01 6.55847E+00-1.83906E+02-8.13836E-09 8.70411E-08
 -1       106-7.00865E+00 7.10565E+01 1.92385E+01-1.37362E+02-1.12055E-09 6.21927E-08
 -1       107 1.74561E+01 1.08713E+02 3.78329E+01-6.69198E+01 4.16614E-09 4.83566E-08
 -1       108 1.74561E+01 1.08713E+02 3.78329E+01-6.69198E+01 4.16596E-09 4.83499E-08
 -1       109-7.00865E+00 7.10565E+01 1.92385E+01-1.37362E+02-1.12042E-09 6.21934E-08
 -1       110-2.70655E+01 4.85249E+01 6.55847E+00-1.83906E+02-8.13837E-09 8.70435E-08
 -1       111-3.22833E+01 3.34761E+01 7.22858E-01-2.02765E+02-5.42986E-09 1.13229E-07
 -1       112-3.64667E+01 1.89449E+01-4.45233E+00-2.25141E+02-4.20275E-09 1.29229E-07
 -1       113-5.13542E+01-9.87070E+00-1.69830E+01-2.45866E+02-1.41810E-10 6.31854E-08
 -1       114-5.44575E+01-5.77838E+01-3.17135E+01-2.26242E+02 1.00877E-08-4.19979E-08
 -1       115-4.37237E+01-1.07891E+02-4.30930E+01-1.37422E+02 9.70756E-09-9.48550E-08
 -1       116-3.04975E+01-1.47620E+02-5.08744E+01 3.05576E+00 4.11628E-10-6.92530E-08
 -1       117-4.44593E-01-1.82099E+02-5.26575E+01 1.57501E+02-1.11710E-08-7.73008E-09
 -1       118 3.98205E+01-2.06706E+02-4.89439E+01 2.99104E+02-1.65765E-08 1.59352E-08
 -1       119 5.32873E+01-2.10634E+02-4.69434E+01 3.83791E+02-1.46491E-08-6.08411E-09
 -1       120 5.73328E+01-1.91790E+02-4.06256E+01 3.84091E+02-1.57906E-08-6.78966E-08
 -1       121 6.04754E+01-1.83909E+02-3.75526E+01 3.88548E+02-1.32193E-08-1.21122E-07
 -1       122 9.70586E+01-2.27440E+02-3.95113E+01 5.56247E+02-1.41876E-09-1.67014E-07
 -1       123 1.73848E+02-3.55136E+02-5.35213E+01 9.27010E+02 6.12942E-09-1.73021E-07
 -1       124 2.36062E+02-5.46145E+02-8.78388E+01 1.32731E+03 4.56344E-10-1.04697E-07
 -1       125 1.82705E+02-7.95772E+02-1.63438E+02 1.63913E+03-1.08403E-08-1.45350E-08
 -1       126 1.25888E+02-1.02921E+03-2.56210E+02 1.38105E+03-1.11222E-08 3.24558E-08
 -3
    1PSTEP                       147          37           1          
  100CL  137 3.70000E-01         126                     1   37           1
 -4  TOSTRAIN    6    1
 -5  EXX         1    4    1    1
 -5  EYY         1    4    2    2
 -5  EZZ         1    4    3    3
 -5  EXY         1    4    1    2
 -5  EYZ         1    4    2    3
 -5  EZX         1    4    3    1
 -1         1-1.58778E-04 4.18023E-02-3.98827E-27 2.01491E-02 1.00697E-18-5.46396E-16
 -1         2-1.58778E-04 4.18023E-02-3.98827E-27 2.01491E-02 1.00697E-18-5.46396E-16
 -1         3-6.43550E-05 6.82655E-05 7.22977E-27-4.29583E-05-5.91487E-14 5.42922E-14
 -1         4-6.43550E-05 6.82655E-05 7.22808E-27-4.29584E-05-5.91489E-14 5.42890E-14
 -1         5-5.61865E-07 2.39364E-04 7.31099E-27-1.75376E-04 6.86631E-14 3.96378E-14
 -1         6-5.61865E-07 2.39364E-04 7.32127E-27-1.75376E-04 6.86676E-14 3.96787E-14
 -1         7-1.64353E-04-4.35675E-02-3.11823E-27 1.93094E-02-1.40959E-19 7.82669E-17
 -1         8-1.64353E-04-4.35675E-02-3.11823E-27 1.93094E-02-1.40959E-19 7.82669E-17
 -1         9-3.24584E-05 2.63903E-04-3.95089E-27-1.32833E-04 1.59363E-14 3.25673E-14
 -1        10-3.24584E-05 2.63903E-04-3.94839E-27-1.32833E-04 1.59359E-14 3.25693E-14
 -1        11-1.61566E-04-1.58458E-03-3.93911E-27 1.44865E-02 5.93245E-19-2.59314E-16
 -1        12-1.61566E-04-1.58458E-03-3.93911E-27 1.44865E-02 5.93245E-19-2.59314E-16
 -1        13-1.04988E-02 3.74830E-02 1.75705E-26 5.97030E-03-9.37272E-14 6.52428E-14
 -1        14-5.70831E-03 2.71975E-02 6.22167E-26 3.79737E-03-2.06311E-13-5.49862E-14
 -1        15-3.62293E-03 1.64478E-02 2.60141E-25 3.51288E-03-2.22364E-13-3.14380E-13
 -1        16-1.79203E-03 8.42072E-03 6.04490E-25 2.41896E-03-1.31843E-13-5.40074E-13
 -1        17-7.72138E-04 3.37938E-03 5.27845E-25 1.48796E-03-2.27089E-14-5.15322E-13
 -1        18-2.03906E-04 3.28927E-04 3.04968E-25 1.03754E-03 3.35842E-14-3.97481E-13
 -1        19 3.70636E-04-2.30346E-03 8.08343E-26 1.00672E-03 6.65724E-14-2.13118E-13
 -1        20 1.00542E-03-5.15475E-03-5.46970E-27 1.00631E-03 4.59890E-14-1.92422E-14
 -1        21 1.61457E-03-7.79205E-03 9.55141E-28 8.00163E-04-3.47320E-14 2.10736E-14
 -1        22 1.95251E-03-9.57750E-03 1.41078E-26 4.27481E-04-1.04373E-13-9.79871E-15
 -1        23 2.12378E-03-1.02551E-02 8.20823E-26 1.61212E-05-8.36974E-14-1.99964E-13
 -1        24 2.04674E-03-9.83539E-03 1.57549E-25-3.33415E-04 5.63216E-14-2.86336E-13
 -1        25 1.73452E-03-8.52430E-03 8.26673E-26-5.54856E-04 2.01393E-13-1.32540E-13
 -1        26 1.31134E-03-6.81360E-03 1.15455E-25-6.27779E-04 2.05100E-13 1.87874E-13
 -1        27 1.00157E-03-5.17843E-03 3.41152E-25-5.90588E-04 7.92817E-14 4.14850E-13
 -1        28 6.97405E-04-3.72856E-03 2.22066E-25-5.19926E-04-3.09049E-14 3.35105E-13
 -1        29 3.96051E-04-2.34222E-03 1.82055E-25-4.59794E-04-7.95007E-14 2.93355E-13
 -1        30 1.15768E-04-1.08146E-03 1.24401E-25-3.41354E-04-8.13909E-14 2.40577E-13
 -1        31-3.07467E-05-2.23422E-04 5.45181E-26-1.66822E-04-7.07107E-14 1.58467E-13
 -1        32-1.04988E-02 3.74830E-02 1.75705E-26 5.97030E-03-9.37272E-14 6.52428E-14
 -1        33-5.70831E-03 2.71975E-02 6.22167E-26 3.79737E-03-2.06311E-13-5.49862E-14
 -1        34-3.62293E-03 1.64478E-02 2.60142E-25 3.51288E-03-2.22364E-13-3.14380E-13
 -1        35-1.79203E-03 8.42072E-03 6.04480E-25 2.41896E-03-1.31843E-13-5.40069E-13
 -1        36-7.72138E-04 3.37938E-03 5.27841E-25 1.48796E-03-2.27087E-14-5.15320E-13
 -1        37-2.03906E-04 3.28927E-04 3.04958E-25 1.03754E-03 3.35849E-14-3.97474E-13
 -1        38 3.70636E-04-2.30346E-03 8.08371E-26 1.00672E-03 6.65720E-14-2.13121E-13
 -1        39 1.00542E-03-5.15475E-03-5.47056E-27 1.00631E-03 4.59893E-14-1.92390E-14
 -1        40 1.61457E-03-7.79205E-03 9.54810E-28 8.00163E-04-3.47324E-14 2.10698E-14
 -1        41 1.95251E-03-9.57750E-03 1.41078E-26 4.27481E-04-1.04373E-13-9.79491E-15
 -1        42 2.12378E-03-1.02551E-02 8.20794E-26 1.61212E-05-8.36974E-14-1.99961E-13
 -1        43 2.04674E-03-9.83539E-03 1.57550E-25-3.33415E-04 5.63216E-14-2.86337E-13
 -1        44 1.73452E-03-8.52430E-03 8.26661E-26-5.54856E-04 2.01394E-13-1.32535E-13
 -1        45 1.31134E-03-6.81360E-03 1.15455E-25-6.27779E-04 2.05100E-13 1.87872E-13
 -1        46 1.00157E-03-5.17843E-03 3.41152E-25-5.90588E-04 7.92817E-14 4.14850E-13
 -1        47 6.97405E-04-3.72856E-03 2.22068E-25-5.19926E-04-3.09048E-14 3.35106E-13
 -1        48 3.96051E-04-2.34222E-03 1.82052E-25-4.59794E-04-7.95005E-14 2.93353E-13
 -1        49 1.15768E-04-1.08146E-03 1.24404E-25-3.41354E-04-8.13911E-14 2.40582E-13
 -1        50-3.07467E-05-2.23422E-04 5.45161E-26-1.66822E-04-7.07106E-14 1.58467E-13
 -1        51-6.16293E-05 5.13977E-04 5.81236E-26-1.96646E-04 8.85219E-14 1.51941E-13
 -1        52-2.05414E-04 1.30617E-03 7.00222E-26-3.52759E-04 8.95668E-14 1.71112E-13
 -1        53-5.06231E-04 2.48687E-03 1.63134E-25-4.61570E-04 8.37604E-14 2.78672E-13
 -1        54-7.90455E-04 3.81789E-03 2.64093E-25-5.20561E-04 4.39072E-14 3.62810E-13
 -1        55-1.06919E-03 5.20983E-03 3.12112E-25-5.83925E-04-5.50735E-14 3.98087E-13
 -1        56-1.37530E-03 6.73985E-03 9.31500E-26-6.24052E-04-1.61495E-13 1.95651E-13
 -1        57-1.73929E-03 8.28472E-03 4.57986E-26-5.61786E-04-1.61680E-13-1.18927E-13
 -1        58-1.99426E-03 9.44865E-03 1.65375E-25-3.32709E-04-6.13523E-14-2.89320E-13
 -1        59-2.08686E-03 9.80157E-03 7.96215E-26 2.35532E-05 3.57897E-14-2.05170E-13
 -1        60-1.90174E-03 9.10087E-03-6.87544E-28 4.25237E-04 4.08402E-14-4.92823E-14
 -1        61-1.52555E-03 7.31567E-03 2.36853E-27 8.00757E-04-4.38394E-14 4.39864E-14
 -1        62-9.67129E-04 4.71942E-03 3.72300E-26 1.01359E-03-1.57427E-13-3.27964E-14
 -1        63-3.47985E-04 1.93014E-03 1.85141E-25 1.01235E-03-2.16786E-13-2.33442E-13
 -1        64 2.18321E-04-6.56819E-04 3.50788E-25 1.03922E-03-2.06280E-13-3.73323E-13
 -1        65 7.72325E-04-3.69959E-03 5.56517E-25 1.48095E-03-1.23305E-13-5.18114E-13
 -1        66 1.80794E-03-8.81253E-03 5.62571E-25 2.40322E-03 3.22077E-14-5.36867E-13
 -1        67 3.67549E-03-1.70611E-02 2.32653E-25 3.53215E-03 1.38948E-13-3.34332E-13
 -1        68 5.58483E-03-2.83269E-02 1.38461E-26 3.82152E-03 1.23436E-13-6.33740E-14
 -1        69 1.04985E-02-3.91095E-02 1.20792E-26 6.13857E-03 3.66096E-14 9.54244E-14
 -1        70-6.16293E-05 5.13977E-04 5.81298E-26-1.96646E-04 8.85225E-14 1.51948E-13
 -1        71-2.05414E-04 1.30617E-03 7.00175E-26-3.52759E-04 8.95663E-14 1.71105E-13
 -1        72-5.06231E-04 2.48687E-03 1.63136E-25-4.61570E-04 8.37605E-14 2.78673E-13
 -1        73-7.90455E-04 3.81789E-03 2.64090E-25-5.20561E-04 4.39083E-14 3.62808E-13
 -1        74-1.06919E-03 5.20983E-03 3.12113E-25-5.83925E-04-5.50735E-14 3.98088E-13
 -1        75-1.37530E-03 6.73985E-03 9.31501E-26-6.24052E-04-1.61495E-13 1.95651E-13
 -1        76-1.73929E-03 8.28472E-03 4.57986E-26-5.61786E-04-1.61680E-13-1.18927E-13
 -1        77-1.99426E-03 9.44865E-03 1.65375E-25-3.32709E-04-6.13521E-14-2.89320E-13
 -1        78-2.08686E-03 9.80157E-03 7.96215E-26 2.35532E-05 3.57890E-14-2.05170E-13
 -1        79-1.90174E-03 9.10087E-03-6.88372E-28 4.25237E-04 4.08416E-14-4.92690E-14
 -1        80-1.52555E-03 7.31567E-03 2.36803E-27 8.00757E-04-4.38408E-14 4.39751E-14
 -1        81-9.67129E-04 4.71942E-03 3.72301E-26 1.01359E-03-1.57427E-13-3.27964E-14
 -1        82-3.47985E-04 1.93014E-03 1.85138E-25 1.01235E-03-2.16786E-13-2.33439E-13
 -1        83 2.18321E-04-6.56819E-04 3.50784E-25 1.03922E-03-2.06280E-13-3.73321E-13
 -1        84 7.72325E-04-3.69959E-03 5.56495E-25 1.48095E-03-1.23304E-13-5.18103E-13
 -1        85 1.80794E-03-8.81253E-03 5.62573E-25 2.40322E-03 3.22094E-14-5.36867E-13
 -1        86 3.67549E-03-1.70611E-02 2.32656E-25 3.53215E-03 1.38945E-13-3.34335E-13
 -1        87 5.58483E-03-2.83269E-02 1.38461E-26 3.82152E-03 1.23436E-13-6.33739E-14
 -1        88 1.04985E-02-3.91095E-02 1.20792E-26 6.13857E-03 3.66096E-14 9.54244E-14
 -1        89-1.46546E-07-1.25812E-03 1.80656E-26 4.64145E-03-3.22282E-14 1.07207E-13
 -1        90-6.17400E-05-7.51496E-04-2.02342E-26 5.51963E-03-3.89693E-14-4.39466E-14
 -1        91 2.62831E-05-4.44853E-04 1.97430E-25 4.48426E-03-3.19560E-14-3.38487E-13
 -1        92 7.95728E-06-2.51129E-04 6.22024E-25 3.13044E-03-4.20430E-14-5.60874E-13
 -1        93 9.30446E-08-1.73426E-04 5.83767E-25 1.88169E-03-6.71815E-14-5.38426E-13
 -1        94 7.20747E-06-1.70216E-04 2.99309E-25 1.32128E-03-8.87625E-14-3.85703E-13
 -1        95 1.13255E-05-1.88327E-04 8.39556E-26 1.30889E-03-7.66620E-14-2.13011E-13
 -1        96 1.91440E-05-2.26030E-04-5.42731E-27 1.31265E-03-4.95818E-14-1.41409E-14
 -1        97 4.45110E-05-2.63871E-04 9.53145E-27 1.03568E-03-4.80982E-14 5.73324E-14
 -1        98 2.53819E-05-2.64422E-04-5.75407E-27 5.60126E-04-3.86577E-14-2.14153E-14
 -1        99 1.84625E-05-2.51213E-04 9.21481E-26 4.31986E-05-1.85465E-14-2.24327E-13
 -1       100 2.62400E-05-2.24403E-04 1.85272E-25-4.25141E-04 7.37899E-15-3.09809E-13
 -1       101-2.38523E-06-1.43902E-04 4.13974E-27-7.27631E-04 2.33077E-14-1.38393E-13
 -1       102-3.19821E-05-4.75942E-05 4.60865E-26-8.01292E-04 1.20937E-14 2.05030E-13
 -1       103-3.38106E-05 1.09865E-05 3.44206E-25-7.37103E-04 9.51902E-15 4.20135E-13
 -1       104-4.65248E-05 4.77468E-05 2.69578E-25-6.66312E-04 1.02348E-15 3.68435E-13
 -1       105-5.50903E-05 8.26523E-05 1.56848E-25-6.06516E-04-1.29374E-14 2.83817E-13
 -1       106-4.48231E-05 1.27928E-04 7.74191E-26-4.55984E-04 5.64312E-15 2.02083E-13
 -1       107-4.61880E-05 2.10121E-04 4.47179E-26-2.29857E-04 2.06302E-14 1.56389E-13
 -1       108-4.61880E-05 2.10121E-04 4.47053E-26-2.29857E-04 2.06287E-14 1.56368E-13
 -1       109-4.48231E-05 1.27928E-04 7.74208E-26-4.55984E-04 5.64363E-15 2.02085E-13
 -1       110-5.50903E-05 8.26523E-05 1.56858E-25-6.06516E-04-1.29371E-14 2.83824E-13
 -1       111-4.65248E-05 4.77468E-05 2.69580E-25-6.66312E-04 1.02349E-15 3.68435E-13
 -1       112-3.38106E-05 1.09865E-05 3.44204E-25-7.37103E-04 9.51895E-15 4.20134E-13
 -1       113-3.19821E-05-4.75942E-05 4.60865E-26-8.01292E-04 1.20939E-14 2.05030E-13
 -1       114-2.38523E-06-1.43902E-04 4.13992E-27-7.27631E-04 2.33074E-14-1.38393E-13
 -1       115 2.62400E-05-2.24403E-04 1.85271E-25-4.25141E-04 7.37899E-15-3.09808E-13
 -1       116 1.84625E-05-2.51213E-04 9.21535E-26 4.31986E-05-1.85465E-14-2.24333E-13
 -1       117 2.53819E-05-2.64422E-04-5.75393E-27 5.60126E-04-3.86586E-14-2.14242E-14
 -1       118 4.45110E-05-2.63871E-04 9.53206E-27 1.03568E-03-4.80969E-14 5.73410E-14
 -1       119 1.91440E-05-2.26030E-04-5.42577E-27 1.31265E-03-4.95825E-14-1.41467E-14
 -1       120 1.13255E-05-1.88327E-04 8.39605E-26 1.30889E-03-7.66627E-14-2.13014E-13
 -1       121 7.20747E-06-1.70216E-04 2.99312E-25 1.32128E-03-8.87630E-14-3.85704E-13
 -1       122 9.30446E-08-1.73426E-04 5.83775E-25 1.88169E-03-6.71822E-14-5.38430E-13
 -1       123 7.95728E-06-2.51129E-04 6.22043E-25 3.13044E-03-4.20443E-14-5.60882E-13
 -1       124 2.62831E-05-4.44853E-04 1.97427E-25 4.48426E-03-3.19555E-14-3.38485E-13
 -1       125-6.17400E-05-7.51496E-04-2.02340E-26 5.51963E-03-3.89694E-14-4.39468E-14
 -1       126-1.46546E-07-1.25812E-03 1.80656E-26 4.64145E-03-3.22283E-14 1.07207E-13
 -3
    1PSTEP                       148          37           1          
  100CL  137 3.70000E-01         126                     1   37           1
 -4  ERROR       1    1
 -5  STR(%)      1    1    0    0
 -1         1 6.71639E+01
 -1         2 6.71639E+01
 -1         3 4.16476E+01
 -1         4 4.16476E+01
 -1         5 4.37347E+00
 -1         6 4.37347E+00
 -1         7 6.01091E+01
 -1         8 6.01091E+01
 -1         9 4.16476E+01
 -1        10 4.16476E+01
 -1        11 6.71639E+01
 -1        12 6.71639E+01
 -1        13 6.71639E+01
 -1        14 6.42339E+01
 -1        15 6.18544E+01
 -1        16 5.68217E+01
 -1        17 5.13550E+01
 -1        18 3.60891E+01
 -1        19 4.62375E+01
 -1        20 5.66851E+01
 -1        21 5.87547E+01
 -1        22 5.87547E+01
 -1        23 5.77174E+01
 -1        24 5.92093E+01
 -1        25 6.02812E+01
 -1        26 6.12798E+01
 -1        27 6.14860E+01
 -1        28 6.14860E+01
 -1        29 6.04212E+01
 -1        30 5.45546E+01
 -1        31 4.77060E+01
 -1        32 6.71639E+01
 -1        33 6.42339E+01
 -1        34 6.18544E+01
 -1        35 5.68217E+01
 -1        36 5.13550E+01
 -1        37 3.60891E+01
 -1        38 4.62375E+01
 -1        39 5.66851E+01
 -1        40 5.87547E+01
 -1        41 5.87547E+01
 -1        42 5.77174E+01
 -1        43 5.92093E+01
 -1        44 6.02812E+01
 -1        45 6.12798E+01
 -1        46 6.14860E+01
 -1        47 6.14860E+01
 -1        48 6.04212E+01
 -1        49 5.45546E+01
 -1        50 4.77060E+01
 -1        51 3.24710E+01
 -1        52 4.92477E+01
 -1        53 5.83359E+01
 -1        54 6.11818E+01
 -1        55 6.21113E+01
 -1        56 6.29584E+01
 -1        57 6.35128E+01
 -1        58 6.35128E+01
 -1        59 6.24118E+01
 -1        60 6.45626E+01
 -1        61 6.45626E+01
 -1        62 6.35779E+01
 -1        63 5.26334E+01
 -1        64 5.11269E+01
 -1        65 4.71557E+01
 -1        66 5.26548E+01
 -1        67 5.69529E+01
 -1        68 5.79546E+01
 -1        69 6.01091E+01
 -1        70 3.24710E+01
 -1        71 4.92477E+01
 -1        72 5.83359E+01
 -1        73 6.11818E+01
 -1        74 6.21113E+01
 -1        75 6.29584E+01
 -1        76 6.35128E+01
 -1        77 6.35128E+01
 -1        78 6.24118E+01
 -1        79 6.45626E+01
 -1        80 6.45626E+01
 -1        81 6.35779E+01
 -1        82 5.26334E+01
 -1        83 5.11269E+01
 -1        84 4.71557E+01
 -1        85 5.26548E+01
 -1        86 5.69529E+01
 -1        87 5.79546E+01
 -1        88 6.01091E+01
 -1        89 6.71639E+01
 -1        90 6.42339E+01
 -1        91 6.18544E+01
 -1        92 5.68217E+01
 -1        93 5.13550E+01
 -1        94 5.11269E+01
 -1        95 5.26334E+01
 -1        96 6.35779E+01
 -1        97 6.45626E+01
 -1        98 6.45626E+01
 -1        99 6.24118E+01
 -1       100 6.35128E+01
 -1       101 6.35128E+01
 -1       102 6.29584E+01
 -1       103 6.21113E+01
 -1       104 6.14860E+01
 -1       105 6.04212E+01
 -1       106 5.45546E+01
 -1       107 4.77060E+01
 -1       108 4.77060E+01
 -1       109 5.45546E+01
 -1       110 6.04212E+01
 -1       111 6.14860E+01
 -1       112 6.21113E+01
 -1       113 6.29584E+01
 -1       114 6.35128E+01
 -1       115 6.35128E+01
 -1       116 6.24118E+01
 -1       117 6.45626E+01
 -1       118 6.45626E+01
 -1       119 6.35779E+01
 -1       120 5.26334E+01
 -1       121 5.11269E+01
 -1       122 5.13550E+01
 -1       123 5.68217E+01
 -1       124 6.18544E+01
 -1       125 6.42339E+01
 -1       126 6.71639E+01
 -3
    1PSTEP                       149          38           1          
  100CL  138 3.80000E-01         126                     1   38           1
 -4  DISP        4    1
 -5  D1          1    2    1    0
 -5  D2          1    2    2    0
 -5  D3          1    2    3    0
 -5  ALL         1    2    0    0    1ALL
 -1         1 0.00000E+00 0.00000E+00 0.00000E+00
 -1         2 0.00000E+00 0.00000E+00 0.00000E+00
 -1         3 8.54583E-02-1.48201E-03 0.00000E+00
 -1         4 8.54583E-02-1.48201E-03 0.00000E+00
 -1         5 8.53108E-02-6.86797E-03 0.00000E+00
 -1         6 8.53108E-02-6.86797E-03 0.00000E+00
 -1         7 0.00000E+00 0.00000E+00 0.00000E+00
 -1         8 0.00000E+00 0.00000E+00 0.00000E+00
 -1         9 8.53831E-02-4.16770E-03 0.00000E+00
 -1        10 8.53831E-02-4.16770E-03 0.00000E+00
 -1        11 0.00000E+00 0.00000E+00 0.00000E+00
 -1        12 0.00000E+00 0.00000E+00 0.00000E+00
 -1        13 1.99941E-03 2.05273E-03 0.00000E+00
 -1        14 5.65087E-03 3.62331E-03 0.00000E+00
 -1        15 1.07848E-02 4.48717E-03 0.00000E+00
 -1        16 1.66574E-02 4.76793E-03 0.00000E+00
 -1        17 2.27832E-02 4.63974E-03 0.00000E+00
 -1        18 2.88911E-02 4.28334E-03 0.00000E+00
 -1        19 3.48648E-02 3.81983E-03 0.00000E+00
 -1        20 4.06727E-02 3.30377E-03 0.00000E+00
 -1        21 4.62814E-02 2.74226E-03 0.00000E+00
 -1        22 5.16129E-02 2.12351E-03 0.00000E+00
 -1        23 5.65422E-02 1.45991E-03 0.00000E+00
 -1        24 6.09846E-02 8.02797E-04 0.00000E+00
 -1        25 6.49357E-02 2.10681E-04 0.00000E+00
 -1        26 6.84703E-02-2.86455E-04 0.00000E+00
 -1        27 7.16718E-02-6.83598E-04 0.00000E+00
 -1        28 7.46213E-02-9.83174E-04 0.00000E+00
 -1        29 7.74055E-02-1.19243E-03 0.00000E+00
 -1        30 8.01066E-02-1.32925E-03 0.00000E+00
 -1        31 8.27779E-02-1.41653E-03 0.00000E+00
 -1        32 1.99941E-03 2.05273E-03 0.00000E+00
 -1        33 5.65087E-03 3.62331E-03 0.00000E+00
 -1        34 1.07848E-02 4.48717E-03 0.00000E+00
 -1        35 1.66574E-02 4.76793E-03 0.00000E+00
 -1        36 2.27832E-02 4.63974E-03 0.00000E+00
 -1        37 2.88911E-02 4.28334E-03 0.00000E+00
 -1        38 3.48648E-02 3.81983E-03 0.00000E+00
 -1        39 4.06727E-02 3.30377E-03 0.00000E+00
 -1        40 4.62814E-02 2.74226E-03 0.00000E+00
 -1        41 5.16129E-02 2.12351E-03 0.00000E+00
 -1        42 5.65422E-02 1.45991E-03 0.00000E+00
 -1        43 6.09846E-02 8.02797E-04 0.00000E+00
 -1        44 6.49357E-02 2.10681E-04 0.00000E+00
 -1        45 6.84703E-02-2.86455E-04 0.00000E+00
 -1        46 7.16718E-02-6.83598E-04 0.00000E+00
 -1        47 7.46213E-02-9.83174E-04 0.00000E+00
 -1        48 7.74055E-02-1.19243E-03 0.00000E+00
 -1        49 8.01066E-02-1.32925E-03 0.00000E+00
 -1        50 8.27779E-02-1.41653E-03 0.00000E+00
 -1        51 8.26280E-02-6.80659E-03 0.00000E+00
 -1        52 7.99559E-02-6.76988E-03 0.00000E+00
 -1        53 7.72476E-02-6.77544E-03 0.00000E+00
 -1        54 7.44459E-02-6.83991E-03 0.00000E+00
 -1        55 7.14697E-02-6.97215E-03 0.00000E+00
 -1        56 6.82306E-02-7.16703E-03 0.00000E+00
 -1        57 6.46407E-02-7.41341E-03 0.00000E+00
 -1        58 6.06186E-02-7.68836E-03 0.00000E+00
 -1        59 5.60975E-02-7.93975E-03 0.00000E+00
 -1        60 5.10875E-02-8.10165E-03 0.00000E+00
 -1        61 4.56871E-02-8.13543E-03 0.00000E+00
 -1        62 4.00277E-02-8.05157E-03 0.00000E+00
 -1        63 3.41800E-02-7.87707E-03 0.00000E+00
 -1        64 2.81781E-02-7.61353E-03 0.00000E+00
 -1        65 2.20748E-02-7.21688E-03 0.00000E+00
 -1        66 1.60084E-02-6.59427E-03 0.00000E+00
 -1        67 1.02718E-02-5.62333E-03 0.00000E+00
 -1        68 5.33588E-03-4.20792E-03 0.00000E+00
 -1        69 1.90586E-03-2.27679E-03 0.00000E+00
 -1        70 8.26280E-02-6.80659E-03 0.00000E+00
 -1        71 7.99559E-02-6.76988E-03 0.00000E+00
 -1        72 7.72476E-02-6.77544E-03 0.00000E+00
 -1        73 7.44459E-02-6.83991E-03 0.00000E+00
 -1        74 7.14697E-02-6.97215E-03 0.00000E+00
 -1        75 6.82306E-02-7.16703E-03 0.00000E+00
 -1        76 6.46407E-02-7.41341E-03 0.00000E+00
 -1        77 6.06186E-02-7.68836E-03 0.00000E+00
 -1        78 5.60975E-02-7.93975E-03 0.00000E+00
 -1        79 5.10875E-02-8.10165E-03 0.00000E+00
 -1        80 4.56871E-02-8.13543E-03 0.00000E+00
 -1        81 4.00277E-02-8.05157E-03 0.00000E+00
 -1        82 3.41800E-02-7.87707E-03 0.00000E+00
 -1        83 2.81781E-02-7.61353E-03 0.00000E+00
 -1        84 2.20748E-02-7.21688E-03 0.00000E+00
 -1        85 1.60084E-02-6.59427E-03 0.00000E+00
 -1        86 1.02718E-02-5.62333E-03 0.00000E+00
 -1        87 5.33588E-03-4.20792E-03 0.00000E+00
 -1        88 1.90586E-03-2.27679E-03 0.00000E+00
 -1        89 1.41894E-03-8.38000E-05 0.00000E+00
 -1        90 5.19966E-03-2.60045E-04 0.00000E+00
 -1        91 1.03369E-02-5.43363E-04 0.00000E+00
 -1        92 1.62421E-02-9.01639E-04 0.00000E+00
 -1        93 2.24015E-02-1.28527E-03 0.00000E+00
 -1        94 2.85409E-02-1.66524E-03 0.00000E+00
 -1        95 3.45492E-02-2.03119E-03 0.00000E+00
 -1        96 4.03904E-02-2.37898E-03 0.00000E+00
 -1        97 4.60411E-02-2.70340E-03 0.00000E+00
 -1        98 5.14253E-02-2.99721E-03 0.00000E+00
 -1        99 5.64117E-02-3.24918E-03 0.00000E+00
 -1       100 6.08954E-02-3.45078E-03 0.00000E+00
 -1       101 6.48724E-02-3.60704E-03 0.00000E+00
 -1       102 6.84176E-02-3.73084E-03 0.00000E+00
 -1       103 7.16230E-02-3.83056E-03 0.00000E+00
 -1       104 7.45686E-02-3.91244E-03 0.00000E+00
 -1       105 7.73456E-02-3.98408E-03 0.00000E+00
 -1       106 8.00373E-02-4.04963E-03 0.00000E+00
 -1       107 8.27034E-02-4.11019E-03 0.00000E+00
 -1       108 8.27034E-02-4.11019E-03 0.00000E+00
 -1       109 8.00373E-02-4.04963E-03 0.00000E+00
 -1       110 7.73456E-02-3.98408E-03 0.00000E+00
 -1       111 7.45686E-02-3.91244E-03 0.00000E+00
 -1       112 7.16230E-02-3.83056E-03 0.00000E+00
 -1       113 6.84176E-02-3.73084E-03 0.00000E+00
 -1       114 6.48724E-02-3.60704E-03 0.00000E+00
 -1       115 6.08954E-02-3.45078E-03 0.00000E+00
 -1       116 5.64117E-02-3.24918E-03 0.00000E+00
 -1       117 5.14253E-02-2.99721E-03 0.00000E+00
 -1       118 4.60411E-02-2.70340E-03 0.00000E+00
 -1       119 4.03904E-02-2.37898E-03 0.00000E+00
 -1       120 3.45492E-02-2.03119E-03 0.00000E+00
 -1       121 2.85409E-02-1.66524E-03 0.00000E+00
 -1       122 2.24015E-02-1.28527E-03 0.00000E+00
 -1       123 1.62421E-02-9.01639E-04 0.00000E+00
 -1       124 1.03369E-02-5.43363E-04 0.00000E+00
 -1       125 5.19966E-03-2.60045E-04 0.00000E+00
 -1       126 1.41894E-03-8.38000E-05 0.00000E+00
 -3
    1PSTEP                       150          38           1          
  100CL  138 3.80000E-01         126                     1   38           1
 -4  STRESS      6    1
 -5  SXX         1    4    1    1
 -5  SYY         1    4    2    2
 -5  SZZ         1    4    3    3
 -5  SXY         1    4    1    2
 -5  SYZ         1    4    2    3
 -5  SZX         1    4    3    1
 -1         1 9.89757E+03 2.35386E+04 9.46250E+03 6.97762E+03 1.97932E-10 1.68157E-10
 -1         2 9.89757E+03 2.35386E+04 9.46250E+03 6.97762E+03 1.97932E-10 1.68157E-10
 -1         3-4.47474E+00 5.69774E+01 1.57470E+01-1.46966E+01-1.77262E-08-2.68662E-08
 -1         4-4.47474E+00 5.69774E+01 1.57470E+01-1.46966E+01-1.77262E-08-2.68625E-08
 -1         5 5.09728E+01 1.23643E+02 5.23579E+01-5.18518E+01 6.69149E-08-6.89150E-08
 -1         6 5.09728E+01 1.23643E+02 5.23579E+01-5.18518E+01 6.69155E-08-6.89150E-08
 -1         7-1.02193E+04-2.28737E+04-1.05805E+04 5.03874E+03 3.87247E-10-2.22358E-10
 -1         8-1.02193E+04-2.28737E+04-1.05805E+04 5.03874E+03 3.87254E-10-2.22358E-10
 -1         9 4.94353E+01 1.53543E+02 6.08601E+01-3.81198E+01 1.17054E-08-3.38654E-08
 -1        10 4.94353E+01 1.53543E+02 6.08601E+01-3.81198E+01 1.17053E-08-3.38723E-08
 -1        11-1.17963E+02-1.07053E+03-2.93771E+02 4.33667E+03 3.19973E-10 5.70341E-11
 -1        12-1.17963E+02-1.07053E+03-2.93771E+02 4.33667E+03 3.19959E-10 5.70342E-11
 -1        13 3.31697E+03 1.87294E+04 6.29116E+03 2.60825E+03 6.44781E-09 2.90660E-08
 -1        14 3.60002E+03 1.40995E+04 5.11073E+03 2.07408E+03-2.60645E-08 5.26771E-08
 -1        15 2.27220E+03 8.41489E+03 3.12661E+03 1.82851E+03-5.70306E-08-1.03452E-08
 -1        16 1.25408E+03 4.07715E+03 1.57678E+03 1.20402E+03-5.28251E-08-8.91768E-08
 -1        17 4.40296E+02 1.15652E+03 4.75235E+02 6.42240E+02-2.51108E-08-1.69061E-07
 -1        18-7.83666E+01-5.10211E+02-1.77605E+02 2.59895E+02-9.69915E-10-1.81837E-07
 -1        19-3.20335E+02-1.40782E+03-5.20642E+02 5.83924E+01 8.23163E-09-1.73572E-07
 -1        20-5.06306E+02-2.07983E+03-7.80207E+02-1.17315E+01 2.29398E-08-1.46593E-07
 -1        21-7.01017E+02-2.83389E+03-1.06856E+03-4.21591E+01 4.11461E-08-8.61136E-08
 -1        22-9.15946E+02-3.65999E+03-1.38647E+03-1.11680E+02 4.68059E-08-6.49987E-08
 -1        23-1.04637E+03-4.22872E+03-1.60091E+03-2.21159E+02 3.70574E-08-4.40667E-09
 -1        24-1.09500E+03-4.29725E+03-1.63668E+03-3.09305E+02 2.01343E-08 2.44768E-08
 -1        25-1.00324E+03-3.87933E+03-1.48019E+03-3.37569E+02 6.17195E-09 5.71060E-08
 -1        26-8.54873E+02-3.21534E+03-1.23167E+03-3.13756E+02 6.14907E-09 7.84884E-08
 -1        27-6.53670E+02-2.44879E+03-9.36979E+02-2.74709E+02 6.42809E-09 8.44203E-08
 -1        28-4.58201E+02-1.66698E+03-6.40532E+02-2.26557E+02-9.17503E-09 1.03601E-07
 -1        29-2.72069E+02-9.47997E+02-3.67048E+02-1.69273E+02-1.99364E-08 7.68533E-08
 -1        30-1.43247E+02-3.94363E+02-1.61509E+02-1.11923E+02-2.24386E-08 4.82928E-08
 -1        31-4.81232E+01-5.36759E+01-3.05610E+01-5.49784E+01-2.01404E-08 1.29159E-08
 -1        32 3.31697E+03 1.87294E+04 6.29116E+03 2.60825E+03 6.44781E-09 2.90660E-08
 -1        33 3.60002E+03 1.40995E+04 5.11073E+03 2.07408E+03-2.60645E-08 5.26771E-08
 -1        34 2.27220E+03 8.41489E+03 3.12661E+03 1.82851E+03-5.70306E-08-1.03454E-08
 -1        35 1.25408E+03 4.07715E+03 1.57678E+03 1.20402E+03-5.28251E-08-8.91766E-08
 -1        36 4.40296E+02 1.15652E+03 4.75235E+02 6.42240E+02-2.51107E-08-1.69061E-07
 -1        37-7.83666E+01-5.10211E+02-1.77605E+02 2.59895E+02-9.69865E-10-1.81837E-07
 -1        38-3.20335E+02-1.40782E+03-5.20642E+02 5.83924E+01 8.23164E-09-1.73568E-07
 -1        39-5.06306E+02-2.07983E+03-7.80207E+02-1.17315E+01 2.29398E-08-1.46593E-07
 -1        40-7.01017E+02-2.83389E+03-1.06856E+03-4.21591E+01 4.11461E-08-8.61127E-08
 -1        41-9.15946E+02-3.65999E+03-1.38647E+03-1.11680E+02 4.68060E-08-6.49989E-08
 -1        42-1.04637E+03-4.22872E+03-1.60091E+03-2.21159E+02 3.70574E-08-4.40574E-09
 -1        43-1.09500E+03-4.29725E+03-1.63668E+03-3.09305E+02 2.01343E-08 2.44765E-08
 -1        44-1.00324E+03-3.87933E+03-1.48019E+03-3.37569E+02 6.17192E-09 5.71060E-08
 -1        45-8.54873E+02-3.21534E+03-1.23167E+03-3.13756E+02 6.14907E-09 7.84884E-08
 -1        46-6.53670E+02-2.44879E+03-9.36979E+02-2.74709E+02 6.42809E-09 8.44189E-08
 -1        47-4.58201E+02-1.66698E+03-6.40532E+02-2.26557E+02-9.17503E-09 1.03604E-07
 -1        48-2.72069E+02-9.47997E+02-3.67048E+02-1.69273E+02-1.99363E-08 7.68555E-08
 -1        49-1.43247E+02-3.94363E+02-1.61509E+02-1.11923E+02-2.24387E-08 4.82880E-08
 -1        50-4.81232E+01-5.36759E+01-3.05610E+01-5.49784E+01-2.01403E-08 1.29118E-08
 -1        51 7.03301E+01 2.38555E+02 9.25781E+01-5.38793E+01 4.25213E-08 3.04926E-08
 -1        52 1.72457E+02 5.88382E+02 2.27842E+02-8.15888E+01 2.51967E-08 5.45063E-08
 -1        53 2.83902E+02 1.11736E+03 4.19047E+02-8.94440E+01 1.56752E-08 8.76549E-08
 -1        54 4.28817E+02 1.80969E+03 6.68205E+02-7.90567E+01 7.42161E-09 9.57520E-08
 -1        55 6.01736E+02 2.57952E+03 9.47774E+02-4.34484E+01-3.17292E-09 8.09956E-08
 -1        56 8.08659E+02 3.35102E+03 1.23695E+03 1.96714E+01-1.20904E-08 5.99604E-08
 -1        57 9.43183E+02 4.00756E+03 1.46959E+03 1.16002E+02-2.42678E-08 4.27762E-08
 -1        58 1.03614E+03 4.38072E+03 1.60618E+03 2.49310E+02-3.92902E-08 2.73382E-08
 -1        59 1.04266E+03 4.23755E+03 1.56609E+03 3.86005E+02-4.43855E-08-2.17041E-08
 -1        60 9.45296E+02 3.58268E+03 1.34528E+03 4.51344E+02-4.34679E-08-6.13590E-08
 -1        61 7.39184E+02 2.70561E+03 1.02588E+03 4.13940E+02-3.49288E-08-1.15702E-07
 -1        62 5.61319E+02 1.94289E+03 7.47289E+02 3.31767E+02-1.76013E-08-1.52955E-07
 -1        63 3.87991E+02 1.25296E+03 4.90333E+02 2.96756E+02-5.88263E-09-1.62773E-07
 -1        64 1.66805E+02 2.91367E+02 1.36507E+02 3.30863E+02 1.77374E-08-1.84860E-07
 -1        65-2.37477E+02-1.45696E+03-5.12322E+02 3.97426E+02 4.87422E-08-1.49257E-07
 -1        66-9.22417E+02-4.44254E+03-1.63333E+03 4.29973E+02 6.62478E-08-8.59714E-08
 -1        67-1.91314E+03-8.73245E+03-3.27949E+03 4.12612E+02 5.73200E-08 1.35013E-08
 -1        68-3.58960E+03-1.41670E+04-5.55142E+03 2.62078E+02 2.56331E-08 8.66894E-08
 -1        69-3.37847E+03-1.83259E+04-6.88213E+03 1.02069E+03-1.97093E-10 5.06532E-08
 -1        70 7.03301E+01 2.38555E+02 9.25781E+01-5.38793E+01 4.25215E-08 3.05001E-08
 -1        71 1.72457E+02 5.88382E+02 2.27842E+02-8.15888E+01 2.51973E-08 5.45068E-08
 -1        72 2.83902E+02 1.11736E+03 4.19047E+02-8.94440E+01 1.56750E-08 8.76555E-08
 -1        73 4.28817E+02 1.80969E+03 6.68205E+02-7.90567E+01 7.42161E-09 9.57604E-08
 -1        74 6.01736E+02 2.57952E+03 9.47774E+02-4.34484E+01-3.17285E-09 8.09885E-08
 -1        75 8.08659E+02 3.35102E+03 1.23695E+03 1.96714E+01-1.20904E-08 5.99604E-08
 -1        76 9.43183E+02 4.00756E+03 1.46959E+03 1.16002E+02-2.42678E-08 4.27762E-08
 -1        77 1.03614E+03 4.38072E+03 1.60618E+03 2.49310E+02-3.92893E-08 2.73442E-08
 -1        78 1.04266E+03 4.23755E+03 1.56609E+03 3.86005E+02-4.43858E-08-2.17025E-08
 -1        79 9.45296E+02 3.58268E+03 1.34528E+03 4.51344E+02-4.34679E-08-6.13578E-08
 -1        80 7.39184E+02 2.70561E+03 1.02588E+03 4.13940E+02-3.49288E-08-1.15706E-07
 -1        81 5.61319E+02 1.94289E+03 7.47289E+02 3.31767E+02-1.76013E-08-1.52955E-07
 -1        82 3.87991E+02 1.25296E+03 4.90333E+02 2.96756E+02-5.88270E-09-1.62774E-07
 -1        83 1.66805E+02 2.91367E+02 1.36507E+02 3.30863E+02 1.77376E-08-1.84861E-07
 -1        84-2.37477E+02-1.45696E+03-5.12322E+02 3.97426E+02 4.87419E-08-1.49260E-07
 -1        85-9.22417E+02-4.44254E+03-1.63333E+03 4.29973E+02 6.62476E-08-8.59722E-08
 -1        86-1.91314E+03-8.73245E+03-3.27949E+03 4.12612E+02 5.73204E-08 1.35013E-08
 -1        87-3.58960E+03-1.41670E+04-5.55142E+03 2.62078E+02 2.56332E-08 8.66894E-08
 -1        88-3.37847E+03-1.83259E+04-6.88213E+03 1.02069E+03-1.97129E-10 5.06532E-08
 -1        89 1.26666E+02-9.66863E+02-2.35828E+02 1.30417E+03 6.24418E-09 4.47861E-08
 -1        90 1.95246E+02-7.39953E+02-1.41298E+02 1.62804E+03-2.07161E-09 7.14508E-08
 -1        91 2.71801E+02-5.06348E+02-6.49744E+01 1.39566E+03-5.41847E-09 6.02058E-09
 -1        92 2.29397E+02-3.27048E+02-2.90743E+01 1.05385E+03 5.96594E-09-9.36742E-08
 -1        93 1.40768E+02-1.94352E+02-1.70755E+01 6.64602E+02 1.43459E-08-1.64454E-07
 -1        94 6.68846E+01-1.26864E+02-1.85832E+01 3.76882E+02 1.10292E-08-1.89046E-07
 -1        95 4.47289E+01-1.01108E+02-1.69333E+01 2.27592E+02 3.62192E-09-1.67321E-07
 -1        96 3.71623E+01-9.80651E+01-1.77897E+01 2.03327E+02 8.30371E-10-1.52408E-07
 -1        97 3.42838E+01-9.98658E+01-1.86994E+01 2.35278E+02 5.49268E-09-1.08419E-07
 -1        98 3.12334E+01-9.12726E+01-1.65445E+01 2.17735E+02 3.48838E-09-5.78409E-08
 -1        99 1.19119E+01-5.60042E+01-1.14664E+01 1.04707E+02-2.57136E-09-1.11684E-08
 -1       100-2.06835E+01-8.97821E+00-6.94476E+00-4.74563E+01-1.02725E-08 2.99504E-08
 -1       101-2.85046E+01 2.38447E+01 4.04578E-01-1.55931E+02-1.24418E-08 5.12252E-08
 -1       102-2.55569E+01 3.97134E+01 5.58183E+00-1.98628E+02-1.04294E-09 6.90392E-08
 -1       103-2.77687E+01 5.47687E+01 8.81539E+00-2.09757E+02 2.08023E-09 8.75360E-08
 -1       104-1.82744E+01 6.94110E+01 1.56646E+01-2.04225E+02-4.61859E-10 1.01366E-07
 -1       105-3.14239E-01 8.15167E+01 2.44559E+01-1.73871E+02 9.28388E-10 8.23157E-08
 -1       106 1.28427E+01 1.01962E+02 3.44380E+01-1.25330E+02 4.42026E-09 5.79837E-08
 -1       107 2.59013E+01 1.30997E+02 4.70401E+01-6.54595E+01 6.08089E-09 1.75693E-08
 -1       108 2.59013E+01 1.30997E+02 4.70401E+01-6.54595E+01 6.08087E-09 1.75661E-08
 -1       109 1.28427E+01 1.01962E+02 3.44380E+01-1.25330E+02 4.42006E-09 5.79902E-08
 -1       110-3.14239E-01 8.15167E+01 2.44559E+01-1.73871E+02 9.28669E-10 8.23135E-08
 -1       111-1.82744E+01 6.94110E+01 1.56646E+01-2.04225E+02-4.61866E-10 1.01358E-07
 -1       112-2.77687E+01 5.47687E+01 8.81539E+00-2.09757E+02 2.08012E-09 8.75399E-08
 -1       113-2.55569E+01 3.97134E+01 5.58183E+00-1.98628E+02-1.04300E-09 6.90392E-08
 -1       114-2.85046E+01 2.38447E+01 4.04578E-01-1.55931E+02-1.24419E-08 5.12252E-08
 -1       115-2.06835E+01-8.97821E+00-6.94476E+00-4.74563E+01-1.02727E-08 2.99500E-08
 -1       116 1.19119E+01-5.60042E+01-1.14664E+01 1.04707E+02-2.57132E-09-1.11704E-08
 -1       117 3.12334E+01-9.12726E+01-1.65445E+01 2.17735E+02 3.48816E-09-5.78406E-08
 -1       118 3.42838E+01-9.98658E+01-1.86994E+01 2.35278E+02 5.49274E-09-1.08420E-07
 -1       119 3.71623E+01-9.80651E+01-1.77897E+01 2.03327E+02 8.30378E-10-1.52408E-07
 -1       120 4.47289E+01-1.01108E+02-1.69333E+01 2.27592E+02 3.62204E-09-1.67320E-07
 -1       121 6.68846E+01-1.26864E+02-1.85832E+01 3.76882E+02 1.10289E-08-1.89048E-07
 -1       122 1.40768E+02-1.94352E+02-1.70755E+01 6.64602E+02 1.43459E-08-1.64452E-07
 -1       123 2.29397E+02-3.27048E+02-2.90743E+01 1.05385E+03 5.96595E-09-9.36745E-08
 -1       124 2.71801E+02-5.06348E+02-6.49744E+01 1.39566E+03-5.41846E-09 6.02101E-09
 -1       125 1.95246E+02-7.39953E+02-1.41298E+02 1.62804E+03-2.07171E-09 7.14508E-08
 -1       126 1.26666E+02-9.66863E+02-2.35828E+02 1.30417E+03 6.24425E-09 4.47861E-08
 -3
    1PSTEP                       151          38           1          
  100CL  138 3.80000E-01         126                     1   38           1
 -4  TOSTRAIN    6    1
 -5  EXX         1    4    1    1
 -5  EYY         1    4    2    2
 -5  EZZ         1    4    3    3
 -5  EXY         1    4    1    2
 -5  EYZ         1    4    2    3
 -5  EZX         1    4    3    1
 -1         1-1.63204E-04 4.25325E-02-2.93255E-27 1.99938E-02-2.50530E-19 3.03781E-16
 -1         2-1.63204E-04 4.25325E-02-2.93255E-27 1.99938E-02-2.50530E-19 3.03781E-16
 -1         3-6.00386E-05 1.28276E-04 1.31644E-26-5.81822E-05-6.22070E-14-8.41040E-14
 -1         4-6.00386E-05 1.28276E-04 1.31609E-26-5.81822E-05-6.22063E-14-8.40920E-14
 -1         5 1.42330E-05 2.12701E-04 1.44314E-25-1.80136E-04 2.04995E-13-2.35290E-13
 -1         6 1.42330E-05 2.12701E-04 1.44315E-25-1.80136E-04 2.04997E-13-2.35291E-13
 -1         7-1.68385E-04-4.39398E-02-8.80955E-27 1.90583E-02-4.14808E-19-2.86557E-16
 -1         8-1.68385E-04-4.39398E-02-8.80955E-27 1.90583E-02-3.89926E-19-2.86558E-16
 -1         9-2.29028E-05 2.86698E-04 9.37784E-27-1.41224E-04 3.20450E-14-1.11930E-13
 -1        10-2.29028E-05 2.86698E-04 9.38407E-27-1.41224E-04 3.20435E-14-1.11953E-13
 -1        11-1.65795E-04-1.43767E-03-7.04088E-27 1.41891E-02-2.06746E-19 1.53626E-16
 -1        12-1.65795E-04-1.43767E-03-7.04088E-27 1.41891E-02-2.53179E-19 1.53627E-16
 -1        13-1.07616E-02 3.85005E-02 1.36073E-26 5.78665E-03 2.32802E-14 9.24842E-14
 -1        14-6.04023E-03 2.85609E-02 5.92055E-26 3.75122E-03-6.88245E-14 1.76607E-13
 -1        15-3.88524E-03 1.75841E-02 3.71819E-26 3.65853E-03-1.83525E-13-1.34566E-14
 -1        16-1.85087E-03 8.72843E-03 1.86547E-25 2.71137E-03-2.01120E-13-2.66934E-13
 -1        17-5.83910E-04 2.65046E-03 5.95765E-25 1.73838E-03-1.45623E-13-5.35167E-13
 -1        18 9.79921E-05-8.65928E-04 6.96300E-25 9.86979E-04-7.35068E-14-5.86420E-13
 -1        19 5.54712E-04-2.80656E-03 6.35782E-25 5.99043E-04-3.95399E-14-5.63626E-13
 -1        20 8.28003E-04-4.19991E-03 4.54818E-25 5.45589E-04 2.01155E-14-4.82235E-13
 -1        21 1.13340E-03-5.74713E-03 1.79411E-25 6.24350E-04 1.03262E-13-2.93242E-13
 -1        22 1.49296E-03-7.47346E-03 1.22711E-25 5.60756E-04 1.31022E-13-2.26138E-13
 -1        23 1.82124E-03-8.72284E-03 1.61241E-26 2.66813E-04 1.19959E-13-2.56862E-14
 -1        24 1.83076E-03-8.88591E-03 1.40813E-26-1.11809E-04 7.28058E-14 7.38573E-14
 -1        25 1.64403E-03-8.02759E-03 6.54878E-26-3.80140E-04 3.45385E-14 1.83809E-13
 -1        26 1.31590E-03-6.63163E-03 1.29801E-25-4.90621E-04 3.78526E-14 2.53454E-13
 -1        27 1.00208E-03-5.04969E-03 1.50432E-25-5.25424E-04 3.83925E-14 2.72822E-13
 -1        28 6.61361E-04-3.43085E-03 2.25763E-25-5.05491E-04-1.00718E-14 3.38096E-13
 -1        29 3.61741E-04-1.95010E-03 1.28654E-25-4.26288E-04-5.08850E-14 2.53070E-13
 -1        30 9.59856E-05-7.95334E-04 5.33832E-26-3.17960E-04-6.43469E-14 1.60690E-13
 -1        31-3.80357E-05-9.43552E-05 4.63336E-27-1.76793E-04-6.31092E-14 4.54262E-14
 -1        32-1.07616E-02 3.85005E-02 1.36073E-26 5.78665E-03 2.32802E-14 9.24842E-14
 -1        33-6.04023E-03 2.85609E-02 5.92055E-26 3.75122E-03-6.88245E-14 1.76607E-13
 -1        34-3.88524E-03 1.75841E-02 3.71820E-26 3.65853E-03-1.83525E-13-1.34573E-14
 -1        35-1.85087E-03 8.72843E-03 1.86546E-25 2.71137E-03-2.01120E-13-2.66934E-13
 -1        36-5.83910E-04 2.65046E-03 5.95769E-25 1.73838E-03-1.45623E-13-5.35169E-13
 -1        37 9.79921E-05-8.65928E-04 6.96303E-25 9.86979E-04-7.35068E-14-5.86421E-13
 -1        38 5.54712E-04-2.80656E-03 6.35755E-25 5.99043E-04-3.95385E-14-5.63614E-13
 -1        39 8.28003E-04-4.19991E-03 4.54818E-25 5.45589E-04 2.01155E-14-4.82235E-13
 -1        40 1.13340E-03-5.74713E-03 1.79408E-25 6.24350E-04 1.03262E-13-2.93239E-13
 -1        41 1.49296E-03-7.47346E-03 1.22712E-25 5.60756E-04 1.31022E-13-2.26139E-13
 -1        42 1.82124E-03-8.72284E-03 1.61241E-26 2.66813E-04 1.19959E-13-2.56832E-14
 -1        43 1.83076E-03-8.88591E-03 1.40813E-26-1.11809E-04 7.28057E-14 7.38565E-14
 -1        44 1.64403E-03-8.02759E-03 6.54878E-26-3.80140E-04 3.45384E-14 1.83809E-13
 -1        45 1.31590E-03-6.63163E-03 1.29801E-25-4.90621E-04 3.78527E-14 2.53454E-13
 -1        46 1.00208E-03-5.04969E-03 1.50426E-25-5.25424E-04 3.83923E-14 2.72817E-13
 -1        47 6.61361E-04-3.43085E-03 2.25778E-25-5.05491E-04-1.00711E-14 3.38109E-13
 -1        48 3.61741E-04-1.95010E-03 1.28661E-25-4.26288E-04-5.08844E-14 2.53078E-13
 -1        49 9.59856E-05-7.95334E-04 5.33724E-26-3.17960E-04-6.43479E-14 1.60675E-13
 -1        50-3.80357E-05-9.43552E-05 4.63185E-27-1.76793E-04-6.31096E-14 4.54127E-14
 -1        51-5.20266E-05 4.53396E-04 3.34863E-26-2.03163E-04 1.43249E-13 9.15471E-14
 -1        52-1.47700E-04 1.13599E-03 7.11450E-26-3.35918E-04 9.12584E-14 1.72425E-13
 -1        53-3.99834E-04 2.21859E-03 1.64423E-25-4.37422E-04 6.65736E-14 2.81502E-13
 -1        54-7.36449E-04 3.63879E-03 1.93894E-25-5.13302E-04 4.21297E-14 3.09060E-13
 -1        55-1.08936E-03 5.20936E-03 1.37186E-25-5.37299E-04 6.24538E-15 2.63100E-13
 -1        56-1.37461E-03 6.75642E-03 7.66018E-26-4.96518E-04-2.55491E-14 1.96805E-13
 -1        57-1.72959E-03 8.12775E-03 4.85675E-26-3.78156E-04-6.72987E-14 1.44342E-13
 -1        58-1.93703E-03 8.93233E-03 3.95732E-26-1.19030E-04-1.18288E-13 9.91768E-14
 -1        59-1.86957E-03 8.68945E-03 3.66713E-26 2.56395E-04-1.48555E-13-5.65176E-14
 -1        60-1.52619E-03 7.38110E-03 1.02016E-25 5.55887E-04-1.59388E-13-1.83483E-13
 -1        61-1.15590E-03 5.61639E-03 2.93091E-25 6.14437E-04-1.52597E-13-3.60876E-13
 -1        62-7.94753E-04 4.04102E-03 4.95514E-25 5.38530E-04-1.12644E-13-4.86863E-13
 -1        63-5.22329E-04 2.65076E-03 5.57379E-25 6.07831E-04-8.05688E-14-5.22758E-13
 -1        64-1.55028E-04 7.47942E-04 7.22785E-25 9.96964E-04-1.42084E-14-6.03267E-13
 -1        65 5.21966E-04-2.73410E-03 5.06294E-25 1.73876E-03 1.00186E-13-5.01067E-13
 -1        66 1.81084E-03-8.83922E-03 2.15377E-25 2.71957E-03 1.84474E-13-3.03499E-13
 -1        67 3.83212E-03-1.78700E-02 3.54138E-26 3.70586E-03 1.94601E-13 2.34932E-14
 -1        68 5.76956E-03-2.93540E-02 1.54695E-25 3.78589E-03 1.09127E-13 2.74704E-13
 -1        69 1.06099E-02-3.97847E-02 4.51953E-26 5.93182E-03 5.99184E-15 1.64824E-13
 -1        70-5.20266E-05 4.53396E-04 3.34960E-26-2.03163E-04 1.43251E-13 9.15713E-14
 -1        71-1.47700E-04 1.13599E-03 7.11471E-26-3.35918E-04 9.12605E-14 1.72426E-13
 -1        72-3.99834E-04 2.21859E-03 1.64424E-25-4.37422E-04 6.65729E-14 2.81504E-13
 -1        73-7.36449E-04 3.63879E-03 1.93927E-25-5.13302E-04 4.21314E-14 3.09087E-13
 -1        74-1.08936E-03 5.20936E-03 1.37159E-25-5.37299E-04 6.24419E-15 2.63077E-13
 -1        75-1.37461E-03 6.75642E-03 7.66018E-26-4.96518E-04-2.55490E-14 1.96805E-13
 -1        76-1.72959E-03 8.12775E-03 4.85674E-26-3.78156E-04-6.72986E-14 1.44342E-13
 -1        77-1.93703E-03 8.93233E-03 3.95776E-26-1.19030E-04-1.18283E-13 9.91959E-14
 -1        78-1.86957E-03 8.68945E-03 3.66688E-26 2.56395E-04-1.48556E-13-5.65123E-14
 -1        79-1.52619E-03 7.38110E-03 1.02011E-25 5.55887E-04-1.59388E-13-1.83479E-13
 -1        80-1.15590E-03 5.61639E-03 2.93110E-25 6.14437E-04-1.52599E-13-3.60889E-13
 -1        81-7.94753E-04 4.04102E-03 4.95516E-25 5.38530E-04-1.12644E-13-4.86863E-13
 -1        82-5.22329E-04 2.65076E-03 5.57380E-25 6.07831E-04-8.05692E-14-5.22758E-13
 -1        83-1.55028E-04 7.47942E-04 7.22790E-25 9.96964E-04-1.42081E-14-6.03269E-13
 -1        84 5.21966E-04-2.73410E-03 5.06310E-25 1.73876E-03 1.00184E-13-5.01076E-13
 -1        85 1.81084E-03-8.83922E-03 2.15380E-25 2.71957E-03 1.84474E-13-3.03501E-13
 -1        86 3.83212E-03-1.78700E-02 3.54147E-26 3.70586E-03 1.94602E-13 2.34931E-14
 -1        87 5.76956E-03-2.93540E-02 1.54695E-25 3.78589E-03 1.09127E-13 2.74704E-13
 -1        88 1.06099E-02-3.97847E-02 4.51953E-26 5.93182E-03 5.99173E-15 1.64824E-13
 -1        89-7.58610E-05-1.10104E-03 3.76108E-26 4.38241E-03 2.59194E-14 1.44183E-13
 -1        90-1.35335E-04-5.90248E-04 9.59769E-26 5.47271E-03 1.09805E-14 2.31854E-13
 -1        91-2.65647E-05-2.97538E-04-3.57503E-26 4.70076E-03-1.56425E-14 2.13741E-14
 -1        92-2.00116E-05-1.18362E-04 1.46815E-25 3.54206E-03-1.53158E-14-3.04565E-13
 -1        93-3.09718E-05-4.49650E-05 5.60642E-25 2.22793E-03-1.70623E-14-5.36191E-13
 -1        94-2.85179E-05-5.23924E-05 7.55135E-25 1.26484E-03-3.74886E-14-6.14244E-13
 -1        95 1.61918E-05-9.06193E-05 5.89926E-25 7.74680E-04-5.19096E-14-5.41361E-13
 -1        96 1.66250E-05-9.59725E-05 4.85309E-25 6.93584E-04-5.35687E-14-4.92364E-13
 -1        97-1.12520E-05-7.39928E-05 2.35202E-25 7.93934E-04-2.06218E-14-3.52211E-13
 -1        98-1.66175E-05-6.21330E-05 5.54261E-26 7.33518E-04-8.01901E-15-1.88138E-13
 -1        99-2.41611E-05-3.47908E-05-1.01713E-26 3.55150E-04-1.18161E-14-3.53545E-14
 -1       100-5.31340E-05 1.33497E-05 1.43165E-26-1.55071E-04-2.50589E-14 9.98277E-14
 -1       101-4.27819E-05 3.64279E-05 5.61641E-26-5.13766E-04-2.76422E-14 1.69043E-13
 -1       102-2.93552E-05 4.77715E-05 9.87965E-26-6.53853E-04 1.20669E-14 2.24080E-13
 -1       103-4.36402E-05 7.84255E-05 1.61010E-25-6.92958E-04 2.46610E-14 2.83540E-13
 -1       104-3.75443E-05 1.03712E-04 2.15964E-25-6.75620E-04 1.78193E-14 3.28982E-13
 -1       105-1.90465E-05 1.24368E-04 1.40329E-25-5.76126E-04 1.79526E-14 2.66954E-13
 -1       106-2.58570E-05 1.74929E-04 6.54132E-26-4.20397E-04 2.45952E-14 1.87398E-13
 -1       107-4.50311E-05 2.48891E-04-3.67382E-27-2.29721E-04 2.28047E-14 5.59598E-14
 -1       108-4.50311E-05 2.48891E-04-3.68029E-27-2.29721E-04 2.28041E-14 5.59493E-14
 -1       109-2.58570E-05 1.74929E-04 6.54280E-26-4.20397E-04 2.45957E-14 1.87419E-13
 -1       110-1.90465E-05 1.24368E-04 1.40322E-25-5.76126E-04 1.79531E-14 2.66946E-13
 -1       111-3.75443E-05 1.03712E-04 2.15929E-25-6.75620E-04 1.78177E-14 3.28955E-13
 -1       112-4.36402E-05 7.84255E-05 1.61025E-25-6.92958E-04 2.46614E-14 2.83553E-13
 -1       113-2.93552E-05 4.77715E-05 9.87965E-26-6.53853E-04 1.20667E-14 2.24080E-13
 -1       114-4.27819E-05 3.64279E-05 5.61641E-26-5.13766E-04-2.76424E-14 1.69043E-13
 -1       115-5.31340E-05 1.33497E-05 1.43159E-26-1.55071E-04-2.50594E-14 9.98266E-14
 -1       116-2.41611E-05-3.47908E-05-1.01708E-26 3.55150E-04-1.18166E-14-3.53608E-14
 -1       117-1.66175E-05-6.21330E-05 5.54248E-26 7.33518E-04-8.01960E-15-1.88137E-13
 -1       118-1.12520E-05-7.39928E-05 2.35206E-25 7.93934E-04-2.06220E-14-3.52215E-13
 -1       119 1.66250E-05-9.59725E-05 4.85308E-25 6.93584E-04-5.35686E-14-4.92363E-13
 -1       120 1.61918E-05-9.06193E-05 5.89918E-25 7.74680E-04-5.19089E-14-5.41358E-13
 -1       121-2.85179E-05-5.23924E-05 7.55151E-25 1.26484E-03-3.74904E-14-6.14251E-13
 -1       122-3.09718E-05-4.49650E-05 5.60631E-25 2.22793E-03-1.70618E-14-5.36186E-13
 -1       123-2.00116E-05-1.18362E-04 1.46816E-25 3.54206E-03-1.53158E-14-3.04566E-13
 -1       124-2.65647E-05-2.97538E-04-3.57507E-26 4.70076E-03-1.56423E-14 2.13755E-14
 -1       125-1.35335E-04-5.90248E-04 9.59768E-26 5.47271E-03 1.09801E-14 2.31854E-13
 -1       126-7.58610E-05-1.10104E-03 3.76108E-26 4.38241E-03 2.59196E-14 1.44183E-13
 -3
    1PSTEP                       152          38           1          
  100CL  138 3.80000E-01         126                     1   38           1
 -4  ERROR       1    1
 -5  STR(%)      1    1    0    0
 -1         1 6.67429E+01
 -1         2 6.67429E+01
 -1         3 2.75221E+01
 -1         4 2.75221E+01
 -1         5 1.14676E+01
 -1         6 1.14676E+01
 -1         7 6.02459E+01
 -1         8 6.02459E+01
 -1         9 2.75221E+01
 -1        10 2.75221E+01
 -1        11 6.67429E+01
 -1        12 6.67429E+01
 -1        13 6.67429E+01
 -1        14 6.40339E+01
 -1        15 6.15996E+01
 -1        16 5.52722E+01
 -1        17 4.25519E+01
 -1        18 4.33008E+01
 -1        19 5.78478E+01
 -1        20 5.98772E+01
 -1        21 6.06255E+01
 -1        22 6.06255E+01
 -1        23 6.03772E+01
 -1        24 6.08473E+01
 -1        25 6.16283E+01
 -1        26 6.23159E+01
 -1        27 6.26940E+01
 -1        28 6.26940E+01
 -1        29 6.11478E+01
 -1        30 7.27606E+01
 -1        31 7.27606E+01
 -1        32 6.67429E+01
 -1        33 6.40339E+01
 -1        34 6.15996E+01
 -1        35 5.52722E+01
 -1        36 4.25519E+01
 -1        37 4.33008E+01
 -1        38 5.78478E+01
 -1        39 5.98772E+01
 -1        40 6.06255E+01
 -1        41 6.06255E+01
 -1        42 6.03772E+01
 -1        43 6.08473E+01
 -1        44 6.16283E+01
 -1        45 6.23159E+01
 -1        46 6.26940E+01
 -1        47 6.26940E+01
 -1        48 6.11478E+01
 -1        49 7.27606E+01
 -1        50 7.27606E+01
 -1        51 2.56215E+01
 -1        52 4.57574E+01
 -1        53 5.51525E+01
 -1        54 5.93092E+01
 -1        55 6.11125E+01
 -1        56 6.11757E+01
 -1        57 6.11757E+01
 -1        58 6.06897E+01
 -1        59 6.20840E+01
 -1        60 6.27918E+01
 -1        61 6.29717E+01
 -1        62 6.32182E+01
 -1        63 6.32182E+01
 -1        64 4.85023E+01
 -1        65 4.06051E+01
 -1        66 5.26345E+01
 -1        67 5.78065E+01
 -1        68 5.86139E+01
 -1        69 6.02459E+01
 -1        70 2.56215E+01
 -1        71 4.57574E+01
 -1        72 5.51525E+01
 -1        73 5.93092E+01
 -1        74 6.11125E+01
 -1        75 6.11757E+01
 -1        76 6.11757E+01
 -1        77 6.06897E+01
 -1        78 6.20840E+01
 -1        79 6.27918E+01
 -1        80 6.29717E+01
 -1        81 6.32182E+01
 -1        82 6.32182E+01
 -1        83 4.85023E+01
 -1        84 4.06051E+01
 -1        85 5.26345E+01
 -1        86 5.78065E+01
 -1        87 5.86139E+01
 -1        88 6.02459E+01
 -1        89 6.67429E+01
 -1        90 6.40339E+01
 -1        91 6.15996E+01
 -1        92 5.52722E+01
 -1        93 4.25519E+01
 -1        94 4.85023E+01
 -1        95 6.32182E+01
 -1        96 6.32182E+01
 -1        97 6.29717E+01
 -1        98 6.27918E+01
 -1        99 6.20840E+01
 -1       100 6.08473E+01
 -1       101 6.16283E+01
 -1       102 6.23159E+01
 -1       103 6.26940E+01
 -1       104 6.26940E+01
 -1       105 6.11478E+01
 -1       106 7.27606E+01
 -1       107 7.27606E+01
 -1       108 7.27606E+01
 -1       109 7.27606E+01
 -1       110 6.11478E+01
 -1       111 6.26940E+01
 -1       112 6.26940E+01
 -1       113 6.23159E+01
 -1       114 6.16283E+01
 -1       115 6.08473E+01
 -1       116 6.20840E+01
 -1       117 6.27918E+01
 -1       118 6.29717E+01
 -1       119 6.32182E+01
 -1       120 6.32182E+01
 -1       121 4.85023E+01
 -1       122 4.25519E+01
 -1       123 5.52722E+01
 -1       124 6.15996E+01
 -1       125 6.40339E+01
 -1       126 6.67429E+01
 -3
    1PSTEP                       153          39           1          
  100CL  139 3.90000E-01         126                     1   39           1
 -4  DISP        4    1
 -5  D1          1    2    1    0
 -5  D2          1    2    2    0
 -5  D3          1    2    3    0
 -5  ALL         1    2    0    0    1ALL
 -1         1 0.00000E+00 0.00000E+00 0.00000E+00
 -1         2 0.00000E+00 0.00000E+00 0.00000E+00
 -1         3 9.04026E-02-1.27201E-03 0.00000E+00
 -1         4 9.04026E-02-1.27201E-03 0.00000E+00
 -1         5 9.02044E-02-7.51976E-03 0.00000E+00
 -1         6 9.02044E-02-7.51976E-03 0.00000E+00
 -1         7 0.00000E+00 0.00000E+00 0.00000E+00
 -1         8 0.00000E+00 0.00000E+00 0.00000E+00
 -1         9 9.03025E-02-4.38864E-03 0.00000E+00
 -1        10 9.03025E-02-4.38864E-03 0.00000E+00
 -1        11 0.00000E+00 0.00000E+00 0.00000E+00
 -1        12 0.00000E+00 0.00000E+00 0.00000E+00
 -1        13 2.04992E-03 2.06094E-03 0.00000E+00
 -1        14 5.66803E-03 3.64376E-03 0.00000E+00
 -1        15 1.07721E-02 4.57543E-03 0.00000E+00
 -1        16 1.67608E-02 4.94484E-03 0.00000E+00
 -1        17 2.31477E-02 4.84249E-03 0.00000E+00
 -1        18 2.95146E-02 4.42796E-03 0.00000E+00
 -1        19 3.56229E-02 3.88446E-03 0.00000E+00
 -1        20 4.14618E-02 3.33733E-03 0.00000E+00
 -1        21 4.70981E-02 2.81315E-03 0.00000E+00
 -1        22 5.25447E-02 2.27892E-03 0.00000E+00
 -1        23 5.77169E-02 1.71106E-03 0.00000E+00
 -1        24 6.25266E-02 1.12086E-03 0.00000E+00
 -1        25 6.69200E-02 5.45304E-04 0.00000E+00
 -1        26 7.08952E-02 2.84870E-05 0.00000E+00
 -1        27 7.45033E-02-3.93070E-04 0.00000E+00
 -1        28 7.78569E-02-7.06164E-04 0.00000E+00
 -1        29 8.10610E-02-9.23324E-04 0.00000E+00
 -1        30 8.41932E-02-1.07278E-03 0.00000E+00
 -1        31 8.72949E-02-1.18125E-03 0.00000E+00
 -1        32 2.04992E-03 2.06094E-03 0.00000E+00
 -1        33 5.66803E-03 3.64376E-03 0.00000E+00
 -1        34 1.07721E-02 4.57543E-03 0.00000E+00
 -1        35 1.67608E-02 4.94484E-03 0.00000E+00
 -1        36 2.31477E-02 4.84249E-03 0.00000E+00
 -1        37 2.95146E-02 4.42796E-03 0.00000E+00
 -1        38 3.56229E-02 3.88446E-03 0.00000E+00
 -1        39 4.14618E-02 3.33733E-03 0.00000E+00
 -1        40 4.70981E-02 2.81315E-03 0.00000E+00
 -1        41 5.25447E-02 2.27892E-03 0.00000E+00
 -1        42 5.77169E-02 1.71106E-03 0.00000E+00
 -1        43 6.25266E-02 1.12086E-03 0.00000E+00
 -1        44 6.69200E-02 5.45304E-04 0.00000E+00
 -1        45 7.08952E-02 2.84870E-05 0.00000E+00
 -1        46 7.45033E-02-3.93070E-04 0.00000E+00
 -1        47 7.78569E-02-7.06164E-04 0.00000E+00
 -1        48 8.10610E-02-9.23324E-04 0.00000E+00
 -1        49 8.41932E-02-1.07278E-03 0.00000E+00
 -1        50 8.72949E-02-1.18125E-03 0.00000E+00
 -1        51 8.70920E-02-7.43620E-03 0.00000E+00
 -1        52 8.39833E-02-7.37903E-03 0.00000E+00
 -1        53 8.08428E-02-7.36125E-03 0.00000E+00
 -1        54 7.76250E-02-7.40030E-03 0.00000E+00
 -1        55 7.42425E-02-7.51083E-03 0.00000E+00
 -1        56 7.05861E-02-7.69059E-03 0.00000E+00
 -1        57 6.65502E-02-7.90816E-03 0.00000E+00
 -1        58 6.20873E-02-8.11337E-03 0.00000E+00
 -1        59 5.72070E-02-8.25612E-03 0.00000E+00
 -1        60 5.19718E-02-8.30266E-03 0.00000E+00
 -1        61 4.64753E-02-8.25498E-03 0.00000E+00
 -1        62 4.07922E-02-8.15157E-03 0.00000E+00
 -1        63 3.49046E-02-8.01988E-03 0.00000E+00
 -1        64 2.87559E-02-7.81700E-03 0.00000E+00
 -1        65 2.23901E-02-7.42384E-03 0.00000E+00
 -1        66 1.60757E-02-6.71983E-03 0.00000E+00
 -1        67 1.02435E-02-5.64154E-03 0.00000E+00
 -1        68 5.34574E-03-4.17637E-03 0.00000E+00
 -1        69 1.94547E-03-2.26079E-03 0.00000E+00
 -1        70 8.70920E-02-7.43620E-03 0.00000E+00
 -1        71 8.39833E-02-7.37903E-03 0.00000E+00
 -1        72 8.08428E-02-7.36125E-03 0.00000E+00
 -1        73 7.76250E-02-7.40030E-03 0.00000E+00
 -1        74 7.42425E-02-7.51083E-03 0.00000E+00
 -1        75 7.05861E-02-7.69059E-03 0.00000E+00
 -1        76 6.65502E-02-7.90816E-03 0.00000E+00
 -1        77 6.20873E-02-8.11337E-03 0.00000E+00
 -1        78 5.72070E-02-8.25612E-03 0.00000E+00
 -1        79 5.19718E-02-8.30266E-03 0.00000E+00
 -1        80 4.64753E-02-8.25498E-03 0.00000E+00
 -1        81 4.07922E-02-8.15157E-03 0.00000E+00
 -1        82 3.49046E-02-8.01988E-03 0.00000E+00
 -1        83 2.87559E-02-7.81700E-03 0.00000E+00
 -1        84 2.23901E-02-7.42384E-03 0.00000E+00
 -1        85 1.60757E-02-6.71983E-03 0.00000E+00
 -1        86 1.02435E-02-5.64154E-03 0.00000E+00
 -1        87 5.34574E-03-4.17637E-03 0.00000E+00
 -1        88 1.94547E-03-2.26079E-03 0.00000E+00
 -1        89 1.46498E-03-7.19312E-05 0.00000E+00
 -1        90 5.20687E-03-2.32277E-04 0.00000E+00
 -1        91 1.02963E-02-5.03523E-04 0.00000E+00
 -1        92 1.63080E-02-8.71107E-04 0.00000E+00
 -1        93 2.27380E-02-1.28663E-03 0.00000E+00
 -1        94 2.91535E-02-1.69757E-03 0.00000E+00
 -1        95 3.53027E-02-2.07269E-03 0.00000E+00
 -1        96 4.11675E-02-2.41194E-03 0.00000E+00
 -1        97 4.68298E-02-2.72633E-03 0.00000E+00
 -1        98 5.23108E-02-3.01819E-03 0.00000E+00
 -1        99 5.75308E-02-3.27990E-03 0.00000E+00
 -1       100 6.23857E-02-3.50385E-03 0.00000E+00
 -1       101 6.68139E-02-3.68804E-03 0.00000E+00
 -1       102 7.08080E-02-3.83576E-03 0.00000E+00
 -1       103 7.44245E-02-3.95551E-03 0.00000E+00
 -1       104 7.77734E-02-4.05645E-03 0.00000E+00
 -1       105 8.09685E-02-4.14464E-03 0.00000E+00
 -1       106 8.40933E-02-4.22635E-03 0.00000E+00
 -1       107 8.71939E-02-4.30706E-03 0.00000E+00
 -1       108 8.71939E-02-4.30706E-03 0.00000E+00
 -1       109 8.40933E-02-4.22635E-03 0.00000E+00
 -1       110 8.09685E-02-4.14464E-03 0.00000E+00
 -1       111 7.77734E-02-4.05645E-03 0.00000E+00
 -1       112 7.44245E-02-3.95551E-03 0.00000E+00
 -1       113 7.08080E-02-3.83576E-03 0.00000E+00
 -1       114 6.68139E-02-3.68804E-03 0.00000E+00
 -1       115 6.23857E-02-3.50385E-03 0.00000E+00
 -1       116 5.75308E-02-3.27990E-03 0.00000E+00
 -1       117 5.23108E-02-3.01819E-03 0.00000E+00
 -1       118 4.68298E-02-2.72633E-03 0.00000E+00
 -1       119 4.11675E-02-2.41194E-03 0.00000E+00
 -1       120 3.53027E-02-2.07269E-03 0.00000E+00
 -1       121 2.91535E-02-1.69757E-03 0.00000E+00
 -1       122 2.27380E-02-1.28663E-03 0.00000E+00
 -1       123 1.63080E-02-8.71107E-04 0.00000E+00
 -1       124 1.02963E-02-5.03523E-04 0.00000E+00
 -1       125 5.20687E-03-2.32277E-04 0.00000E+00
 -1       126 1.46498E-03-7.19312E-05 0.00000E+00
 -3
    1PSTEP                       154          39           1          
  100CL  139 3.90000E-01         126                     1   39           1
 -4  STRESS      6    1
 -5  SXX         1    4    1    1
 -5  SYY         1    4    2    2
 -5  SZZ         1    4    3    3
 -5  SXY         1    4    1    2
 -5  SYZ         1    4    2    3
 -5  SZX         1    4    3    1
 -1         1 9.96879E+03 2.36623E+04 9.50796E+03 7.16015E+03 1.78556E-10 2.52085E-10
 -1         2 9.96879E+03 2.36623E+04 9.50796E+03 7.16015E+03 1.78556E-10 2.52085E-10
 -1         3-7.31817E+00 5.36461E+01 1.38937E+01-2.57678E+01-4.52311E-08-8.76546E-08
 -1         4-7.31817E+00 5.36461E+01 1.38937E+01-2.57678E+01-4.52310E-08-8.76549E-08
 -1         5 5.49895E+01 1.51460E+02 6.18978E+01-5.49197E+01 6.82784E-08-8.19628E-08
 -1         6 5.49895E+01 1.51460E+02 6.18978E+01-5.49197E+01 6.82784E-08-8.19487E-08
 -1         7-1.01155E+04-2.27072E+04-1.04958E+04 5.14762E+03 4.23786E-11-1.31959E-10
 -1         8-1.01155E+04-2.27072E+04-1.04958E+04 5.14762E+03 4.23862E-11-1.31959E-10
 -1         9 4.86302E+01 1.62241E+02 6.32234E+01-4.35835E+01 4.76260E-09-1.00931E-07
 -1        10 4.86302E+01 1.62241E+02 6.32234E+01-4.35835E+01 4.76240E-09-1.00933E-07
 -1        11-4.04074E+01-9.27741E+02-2.32817E+02 4.48079E+03 9.05868E-11 3.04844E-11
 -1        12-4.04074E+01-9.27741E+02-2.32817E+02 4.48079E+03 9.05727E-11 3.04845E-11
 -1        13 3.31159E+03 1.88280E+04 6.31666E+03 2.65396E+03 2.21211E-08 2.52686E-08
 -1        14 3.64459E+03 1.44913E+04 5.23429E+03 2.01191E+03 2.52856E-08 5.67312E-08
 -1        15 2.41665E+03 9.24373E+03 3.40496E+03 1.85290E+03-6.72036E-09 8.68096E-08
 -1        16 1.44536E+03 4.82855E+03 1.85075E+03 1.37692E+03-4.88956E-08 4.43403E-08
 -1        17 5.30424E+02 1.27425E+03 5.35303E+02 8.21516E+02-5.92046E-08-3.94805E-08
 -1        18-1.50321E+02-9.52790E+02-3.33306E+02 2.97948E+02-3.03073E-08-1.30688E-07
 -1        19-4.59491E+02-1.83790E+03-6.92850E+02-3.22695E+01 1.26664E-08-1.93339E-07
 -1        20-5.49300E+02-2.00559E+03-7.70348E+02-1.20337E+02 4.40252E-08-2.01829E-07
 -1        21-5.90104E+02-2.17390E+03-8.33627E+02-8.24710E+01 6.49981E-08-1.59594E-07
 -1        22-7.13124E+02-2.64282E+03-1.01358E+03-6.54511E+01 8.02197E-08-6.19023E-08
 -1        23-8.26669E+02-3.20489E+03-1.21968E+03-1.19264E+02 6.36364E-08 3.97133E-08
 -1        24-9.24440E+02-3.58461E+03-1.36559E+03-1.93989E+02 1.61174E-08 1.16895E-07
 -1        25-9.37770E+02-3.57613E+03-1.36711E+03-2.61422E+02-2.74256E-08 1.06596E-07
 -1        26-8.57918E+02-3.14030E+03-1.20964E+03-3.09757E+02-3.71056E-08 3.67408E-08
 -1        27-6.48266E+02-2.36784E+03-9.10744E+02-3.10760E+02-1.40646E-08 9.33046E-09
 -1        28-4.43695E+02-1.52308E+03-5.92563E+02-2.55078E+02 1.17962E-08 2.14830E-08
 -1        29-2.80061E+02-8.14944E+02-3.29266E+02-1.80470E+02 7.77333E-09 3.73637E-08
 -1        30-1.64063E+02-3.28097E+02-1.47807E+02-1.17842E+02-1.78272E-08 3.14781E-09
 -1        31-5.75874E+01-4.05586E+01-2.94630E+01-6.45686E+01-4.25204E-08-3.89381E-08
 -1        32 3.31159E+03 1.88280E+04 6.31666E+03 2.65396E+03 2.21211E-08 2.52686E-08
 -1        33 3.64459E+03 1.44913E+04 5.23429E+03 2.01191E+03 2.52856E-08 5.67312E-08
 -1        34 2.41665E+03 9.24373E+03 3.40496E+03 1.85290E+03-6.72036E-09 8.68095E-08
 -1        35 1.44536E+03 4.82855E+03 1.85075E+03 1.37692E+03-4.88956E-08 4.43406E-08
 -1        36 5.30424E+02 1.27425E+03 5.35303E+02 8.21516E+02-5.92045E-08-3.94796E-08
 -1        37-1.50321E+02-9.52790E+02-3.33306E+02 2.97948E+02-3.03073E-08-1.30689E-07
 -1        38-4.59491E+02-1.83790E+03-6.92850E+02-3.22695E+01 1.26664E-08-1.93334E-07
 -1        39-5.49300E+02-2.00559E+03-7.70348E+02-1.20337E+02 4.40252E-08-2.01829E-07
 -1        40-5.90104E+02-2.17390E+03-8.33627E+02-8.24710E+01 6.49981E-08-1.59594E-07
 -1        41-7.13124E+02-2.64282E+03-1.01358E+03-6.54511E+01 8.02197E-08-6.19023E-08
 -1        42-8.26669E+02-3.20489E+03-1.21968E+03-1.19264E+02 6.36363E-08 3.97128E-08
 -1        43-9.24440E+02-3.58461E+03-1.36559E+03-1.93989E+02 1.61174E-08 1.16897E-07
 -1        44-9.37770E+02-3.57613E+03-1.36711E+03-2.61422E+02-2.74256E-08 1.06596E-07
 -1        45-8.57918E+02-3.14030E+03-1.20964E+03-3.09757E+02-3.71056E-08 3.67408E-08
 -1        46-6.48266E+02-2.36784E+03-9.10744E+02-3.10760E+02-1.40647E-08 9.33227E-09
 -1        47-4.43695E+02-1.52308E+03-5.92563E+02-2.55078E+02 1.17963E-08 2.14842E-08
 -1        48-2.80061E+02-8.14944E+02-3.29266E+02-1.80470E+02 7.77333E-09 3.73655E-08
 -1        49-1.64063E+02-3.28097E+02-1.47807E+02-1.17842E+02-1.78272E-08 3.14732E-09
 -1        50-5.75874E+01-4.05586E+01-2.94630E+01-6.45686E+01-4.25204E-08-3.89376E-08
 -1        51 7.37646E+01 2.74484E+02 1.04365E+02-5.12082E+01 5.97399E-08-3.28050E-08
 -1        52 1.54154E+02 6.11532E+02 2.29260E+02-7.24400E+01 3.81551E-08 7.70846E-09
 -1        53 2.62558E+02 1.11856E+03 4.12975E+02-8.84608E+01 1.23401E-08 2.81626E-08
 -1        54 4.37296E+02 1.83578E+03 6.78428E+02-8.89611E+01-5.76889E-09 1.67599E-08
 -1        55 6.29917E+02 2.67411E+03 9.83983E+02-3.90802E+01 2.74986E-09-1.22429E-09
 -1        56 8.11807E+02 3.42843E+03 1.26032E+03 7.41527E+01 1.55834E-08 5.22483E-08
 -1        57 9.09667E+02 3.84808E+03 1.41257E+03 2.16401E+02-1.20831E-10 1.15432E-07
 -1        58 9.29506E+02 3.82840E+03 1.41264E+03 3.29027E+02-3.96185E-08 1.00120E-07
 -1        59 8.57263E+02 3.40112E+03 1.26570E+03 3.82955E+02-7.54992E-08 2.71546E-08
 -1        60 7.46119E+02 2.78577E+03 1.05162E+03 3.63229E+02-7.06641E-08-9.14552E-08
 -1        61 6.20950E+02 2.30017E+03 8.71102E+02 2.84767E+02-3.29760E-08-1.68052E-07
 -1        62 5.54897E+02 2.11067E+03 7.95224E+02 2.33044E+02 1.14036E-08-1.82515E-07
 -1        63 4.92556E+02 1.85985E+03 7.01733E+02 3.03521E+02 5.96303E-08-1.77582E-07
 -1        64 3.10493E+02 8.17628E+02 3.35955E+02 4.58892E+02 9.24146E-08-1.19664E-07
 -1        65-1.85418E+02-1.55083E+03-5.26902E+02 5.38683E+02 8.97186E-08-2.38080E-08
 -1        66-1.03082E+03-5.12985E+03-1.88023E+03 4.38029E+02 5.35798E-08 6.82266E-08
 -1        67-2.07386E+03-9.39998E+03-3.53984E+03 2.94206E+02 8.05132E-09 9.39093E-08
 -1        68-3.67435E+03-1.43491E+04-5.63297E+03 1.68109E+02-1.69239E-08 5.26137E-08
 -1        69-3.38273E+03-1.82129E+04-6.84172E+03 1.04795E+03-1.43807E-08 2.50749E-09
 -1        70 7.37646E+01 2.74484E+02 1.04365E+02-5.12082E+01 5.97402E-08-3.28061E-08
 -1        71 1.54154E+02 6.11532E+02 2.29260E+02-7.24400E+01 3.81549E-08 7.70205E-09
 -1        72 2.62558E+02 1.11856E+03 4.12975E+02-8.84608E+01 1.23399E-08 2.81625E-08
 -1        73 4.37296E+02 1.83578E+03 6.78428E+02-8.89611E+01-5.76933E-09 1.67526E-08
 -1        74 6.29917E+02 2.67411E+03 9.83983E+02-3.90802E+01 2.74997E-09-1.22232E-09
 -1        75 8.11807E+02 3.42843E+03 1.26032E+03 7.41527E+01 1.55834E-08 5.22487E-08
 -1        76 9.09667E+02 3.84808E+03 1.41257E+03 2.16401E+02-1.20889E-10 1.15433E-07
 -1        77 9.29506E+02 3.82840E+03 1.41264E+03 3.29027E+02-3.96183E-08 1.00120E-07
 -1        78 8.57263E+02 3.40112E+03 1.26570E+03 3.82955E+02-7.55001E-08 2.71546E-08
 -1        79 7.46119E+02 2.78577E+03 1.05162E+03 3.63229E+02-7.06632E-08-9.14543E-08
 -1        80 6.20950E+02 2.30017E+03 8.71102E+02 2.84767E+02-3.29763E-08-1.68055E-07
 -1        81 5.54897E+02 2.11067E+03 7.95224E+02 2.33044E+02 1.14037E-08-1.82515E-07
 -1        82 4.92556E+02 1.85985E+03 7.01733E+02 3.03521E+02 5.96301E-08-1.77583E-07
 -1        83 3.10493E+02 8.17628E+02 3.35955E+02 4.58892E+02 9.24146E-08-1.19663E-07
 -1        84-1.85418E+02-1.55083E+03-5.26902E+02 5.38683E+02 8.97191E-08-2.38106E-08
 -1        85-1.03082E+03-5.12985E+03-1.88023E+03 4.38029E+02 5.35795E-08 6.82270E-08
 -1        86-2.07386E+03-9.39998E+03-3.53984E+03 2.94206E+02 8.05192E-09 9.39097E-08
 -1        87-3.67435E+03-1.43491E+04-5.63297E+03 1.68109E+02-1.69239E-08 5.26138E-08
 -1        88-3.38273E+03-1.82129E+04-6.84172E+03 1.04795E+03-1.43808E-08 2.50748E-09
 -1        89 1.16944E+02-8.53501E+02-2.01372E+02 1.33034E+03 3.34134E-09 1.26630E-08
 -1        90 1.74304E+02-6.38087E+02-1.13968E+02 1.51691E+03 5.81243E-09 5.70858E-08
 -1        91 2.65595E+02-4.59766E+02-5.17892E+01 1.32362E+03 2.05518E-09 9.90204E-08
 -1        92 2.77745E+02-3.37956E+02-1.81220E+01 1.16486E+03 1.41453E-09 6.61101E-08
 -1        93 2.19820E+02-2.17259E+02-1.10329E+00 8.70246E+02 1.18908E-08-3.12361E-08
 -1        94 1.08172E+02-9.94698E+01 1.39792E+00 4.82588E+02 3.12699E-08-1.32135E-07
 -1        95 2.79517E+01-4.52836E+00 6.97743E+00 1.67692E+02 3.74249E-08-1.94135E-07
 -1        96 5.15430E+00 3.61725E+01 1.30082E+01 6.07946E+01 2.62488E-08-2.01422E-07
 -1        97 2.00944E+01 4.02705E+01 1.89512E+01 1.17235E+02 1.52665E-08-1.66931E-07
 -1        98 2.82146E+01 4.07373E+01 2.17027E+01 1.85010E+02 7.37952E-09-8.39117E-08
 -1        99 2.88358E+01 5.77949E+01 2.72131E+01 1.67448E+02-6.12839E-09 4.09130E-08
 -1       100 1.21487E+01 7.84274E+01 2.86406E+01 7.79160E+01-1.20291E-08 1.19716E-07
 -1       101-9.57344E+00 9.94598E+01 2.83895E+01-4.42058E+01-1.13204E-08 1.15068E-07
 -1       102-2.48173E+01 1.16639E+02 2.86523E+01-1.62519E+02-1.20812E-08 4.23727E-08
 -1       103-1.72578E+01 1.32231E+02 3.51404E+01-2.30107E+02-4.42331E-09 1.13490E-09
 -1       104-1.19938E+01 1.47082E+02 4.07978E+01-2.26395E+02 5.66687E-09 1.43568E-08
 -1       105-1.13801E+01 1.59269E+02 4.44193E+01-1.76595E+02 9.26738E-09 3.87220E-08
 -1       106-1.05119E+00 1.60168E+02 4.77071E+01-1.19747E+02 7.35269E-09 9.84804E-09
 -1       107 2.37844E+01 1.57324E+02 5.42949E+01-6.64611E+01 3.05117E-09-2.79378E-08
 -1       108 2.37844E+01 1.57324E+02 5.42949E+01-6.64611E+01 3.05169E-09-2.79398E-08
 -1       109-1.05119E+00 1.60168E+02 4.77071E+01-1.19747E+02 7.35286E-09 9.84817E-09
 -1       110-1.13801E+01 1.59269E+02 4.44193E+01-1.76595E+02 9.26734E-09 3.87249E-08
 -1       111-1.19938E+01 1.47082E+02 4.07978E+01-2.26395E+02 5.66671E-09 1.43560E-08
 -1       112-1.72578E+01 1.32231E+02 3.51404E+01-2.30107E+02-4.42326E-09 1.13102E-09
 -1       113-2.48173E+01 1.16639E+02 2.86523E+01-1.62519E+02-1.20812E-08 4.23721E-08
 -1       114-9.57344E+00 9.94598E+01 2.83895E+01-4.42058E+01-1.13203E-08 1.15067E-07
 -1       115 1.21487E+01 7.84274E+01 2.86406E+01 7.79160E+01-1.20290E-08 1.19712E-07
 -1       116 2.88358E+01 5.77949E+01 2.72131E+01 1.67448E+02-6.12819E-09 4.09140E-08
 -1       117 2.82146E+01 4.07373E+01 2.17027E+01 1.85010E+02 7.37937E-09-8.39117E-08
 -1       118 2.00944E+01 4.02705E+01 1.89512E+01 1.17235E+02 1.52666E-08-1.66932E-07
 -1       119 5.15430E+00 3.61725E+01 1.30082E+01 6.07946E+01 2.62488E-08-2.01422E-07
 -1       120 2.79517E+01-4.52836E+00 6.97743E+00 1.67692E+02 3.74249E-08-1.94135E-07
 -1       121 1.08172E+02-9.94698E+01 1.39792E+00 4.82588E+02 3.12698E-08-1.32135E-07
 -1       122 2.19820E+02-2.17259E+02-1.10329E+00 8.70246E+02 1.18906E-08-3.12374E-08
 -1       123 2.77745E+02-3.37956E+02-1.81220E+01 1.16486E+03 1.41454E-09 6.61092E-08
 -1       124 2.65595E+02-4.59766E+02-5.17892E+01 1.32362E+03 2.05497E-09 9.90207E-08
 -1       125 1.74304E+02-6.38087E+02-1.13968E+02 1.51691E+03 5.81250E-09 5.70857E-08
 -1       126 1.16944E+02-8.53501E+02-2.01372E+02 1.33034E+03 3.34141E-09 1.26630E-08
 -3
    1PSTEP                       155          39           1          
  100CL  139 3.90000E-01         126                     1   39           1
 -4  TOSTRAIN    6    1
 -5  EXX         1    4    1    1
 -5  EYY         1    4    2    2
 -5  EZZ         1    4    3    3
 -5  EXY         1    4    1    2
 -5  EYZ         1    4    2    3
 -5  EZX         1    4    3    1
 -1         1-1.62856E-04 4.27448E-02-3.36261E-27 2.04988E-02-6.92150E-19 6.20582E-16
 -1         2-1.62856E-04 4.27448E-02-3.36261E-27 2.04988E-02-6.92150E-19 6.20582E-16
 -1         3-5.77895E-05 1.17993E-04 1.88171E-25-9.53896E-05-1.64447E-13-2.75200E-13
 -1         4-5.77895E-05 1.17993E-04 1.88171E-25-9.53896E-05-1.64446E-13-2.75201E-13
 -1         5 9.37220E-07 2.67357E-04 2.16218E-25-1.96502E-04 2.04705E-13-2.79635E-13
 -1         6 9.37220E-07 2.67357E-04 2.16175E-25-1.96502E-04 2.04708E-13-2.79589E-13
 -1         7-1.67572E-04-4.36030E-02-6.26334E-28 1.94543E-02 2.97797E-19-3.88157E-16
 -1         8-1.67572E-04-4.36030E-02-6.26334E-28 1.94543E-02 3.22686E-19-3.88158E-16
 -1         9-2.84261E-05 3.02467E-04 1.84825E-25-1.63392E-04-5.04459E-15-3.28319E-13
 -1        10-2.84261E-05 3.02467E-04 1.84831E-25-1.63392E-04-5.04562E-15-3.28325E-13
 -1        11-1.65214E-04-1.17354E-03-3.38629E-28 1.46495E-02-1.25387E-19 8.52486E-17
 -1        12-1.65214E-04-1.17354E-03-3.38628E-28 1.46495E-02-1.71831E-19 8.52502E-17
 -1        13-1.08526E-02 3.87089E-02 1.67876E-26 5.90244E-03 7.17426E-14 7.78420E-14
 -1        14-6.25070E-03 2.93207E-02 7.26606E-26 3.47320E-03 9.26370E-14 1.75679E-13
 -1        15-4.34290E-03 1.92692E-02 1.51265E-25 3.48544E-03 6.69809E-15 2.81772E-13
 -1        16-2.25992E-03 1.03401E-02 6.35314E-26 3.00292E-03-1.39204E-13 1.62096E-13
 -1        17-6.49334E-04 2.98067E-03 5.88497E-26 2.27198E-03-2.05897E-13-1.02790E-13
 -1        18 3.08400E-04-1.74915E-03 3.40048E-25 1.25711E-03-1.50119E-13-4.09292E-13
 -1        19 7.11943E-04-3.70760E-03 7.79627E-25 4.31563E-04-3.41119E-14-6.29248E-13
 -1        20 7.41081E-04-4.07106E-03 8.95802E-25 1.61637E-04 6.71256E-14-6.68664E-13
 -1        21 7.83643E-04-4.38636E-03 5.99063E-25 3.08490E-04 1.53469E-13-5.39510E-13
 -1        22 9.43243E-04-5.32092E-03 1.63669E-25 4.57838E-04 2.39731E-13-2.28155E-13
 -1        23 1.26408E-03-6.52878E-03 7.13024E-26 3.92344E-04 2.20641E-13 1.07800E-13
 -1        24 1.45860E-03-7.35072E-03 2.74347E-25 1.78241E-04 8.81350E-14 3.73961E-13
 -1        25 1.45946E-03-7.35810E-03 2.43014E-25-1.16646E-04-6.01968E-14 3.53240E-13
 -1        26 1.23941E-03-6.46084E-03 4.49827E-26-4.29353E-04-1.12087E-13 1.28445E-13
 -1        27 9.59942E-04-4.89463E-03 1.98493E-27-6.09331E-04-4.37376E-14 3.34681E-14
 -1        28 5.75214E-04-3.13771E-03 1.06415E-26-5.91559E-04 4.31222E-14 6.71847E-14
 -1        29 2.26743E-04-1.65184E-03 2.73257E-26-4.72004E-04 3.31141E-14 1.19643E-13
 -1        30-7.31184E-06-6.32805E-04-2.58000E-27-3.47029E-04-5.72295E-14 1.38324E-14
 -1        31-6.51931E-05-6.24595E-05 5.44829E-26-2.11752E-04-1.45846E-13-1.17737E-13
 -1        32-1.08526E-02 3.87089E-02 1.67876E-26 5.90244E-03 7.17426E-14 7.78420E-14
 -1        33-6.25070E-03 2.93207E-02 7.26606E-26 3.47320E-03 9.26370E-14 1.75679E-13
 -1        34-4.34290E-03 1.92692E-02 1.51265E-25 3.48544E-03 6.69804E-15 2.81771E-13
 -1        35-2.25992E-03 1.03401E-02 6.35328E-26 3.00292E-03-1.39204E-13 1.62097E-13
 -1        36-6.49334E-04 2.98067E-03 5.88484E-26 2.27198E-03-2.05896E-13-1.02787E-13
 -1        37 3.08400E-04-1.74915E-03 3.40052E-25 1.25711E-03-1.50119E-13-4.09293E-13
 -1        38 7.11943E-04-3.70760E-03 7.79589E-25 4.31563E-04-3.41099E-14-6.29232E-13
 -1        39 7.41081E-04-4.07106E-03 8.95802E-25 1.61637E-04 6.71256E-14-6.68664E-13
 -1        40 7.83643E-04-4.38636E-03 5.99063E-25 3.08490E-04 1.53469E-13-5.39510E-13
 -1        41 9.43243E-04-5.32092E-03 1.63669E-25 4.57838E-04 2.39731E-13-2.28155E-13
 -1        42 1.26408E-03-6.52878E-03 7.13002E-26 3.92344E-04 2.20641E-13 1.07799E-13
 -1        43 1.45860E-03-7.35072E-03 2.74355E-25 1.78241E-04 8.81354E-14 3.73967E-13
 -1        44 1.45946E-03-7.35810E-03 2.43014E-25-1.16646E-04-6.01968E-14 3.53240E-13
 -1        45 1.23941E-03-6.46084E-03 4.49827E-26-4.29353E-04-1.12087E-13 1.28445E-13
 -1        46 9.59942E-04-4.89463E-03 1.98520E-27-6.09331E-04-4.37373E-14 3.34740E-14
 -1        47 5.75214E-04-3.13771E-03 1.06424E-26-5.91559E-04 4.31228E-14 6.71887E-14
 -1        48 2.26743E-04-1.65184E-03 2.73266E-26-4.72004E-04 3.31145E-14 1.19649E-13
 -1        49-7.31184E-06-6.32805E-04-2.58408E-27-3.47029E-04-5.72297E-14 1.38308E-14
 -1        50-6.51931E-05-6.24595E-05 5.44805E-26-2.11752E-04-1.45846E-13-1.17736E-13
 -1        51-7.62621E-05 5.28760E-04 7.88015E-26-2.05472E-04 1.86966E-13-1.18465E-13
 -1        52-2.09021E-04 1.20347E-03 2.33487E-26-3.25952E-04 1.25135E-13 1.72563E-14
 -1        53-4.41747E-04 2.23418E-03 1.71902E-26-4.60985E-04 4.57743E-14 8.87526E-14
 -1        54-7.28544E-04 3.67563E-03 4.86877E-27-5.84754E-04-1.49872E-14 5.55474E-14
 -1        55-1.10761E-03 5.38591E-03-5.75156E-27-5.90348E-04 8.53165E-15-4.59729E-15
 -1        56-1.45906E-03 6.94313E-03 4.71333E-26-4.10661E-04 6.29397E-14 1.65225E-13
 -1        57-1.70345E-03 7.85244E-03 2.71407E-25-1.09767E-04 3.09566E-14 3.73304E-13
 -1        58-1.70495E-03 7.85424E-03 2.27177E-25 1.81551E-04-9.71256E-14 3.35401E-13
 -1        59-1.50627E-03 7.01367E-03 8.00109E-26 3.93922E-04-2.33144E-13 1.12283E-13
 -1        60-1.17520E-03 5.74823E-03 2.20007E-25 4.50495E-04-2.57810E-13-2.70727E-13
 -1        61-9.53777E-04 4.73942E-03 5.94348E-25 2.98743E-04-1.65918E-13-5.30342E-13
 -1        62-8.91611E-04 4.34650E-03 6.97590E-25 1.58156E-04-3.11678E-14-5.92960E-13
 -1        63-8.58062E-04 3.90585E-03 7.28028E-25 4.29301E-04 1.23074E-13-5.95783E-13
 -1        64-4.32109E-04 1.89157E-03 4.47140E-25 1.24522E-03 2.49854E-13-4.23219E-13
 -1        65 5.97373E-04-2.86877E-03 1.30279E-25 2.26097E-03 2.80987E-13-1.13842E-13
 -1        66 2.19523E-03-1.02789E-02 1.29022E-25 3.00564E-03 2.01550E-13 1.99069E-13
 -1        67 4.19037E-03-1.93362E-02 1.77850E-25 3.51942E-03 5.85694E-14 3.01406E-13
 -1        68 5.81452E-03-2.97479E-02 5.48379E-26 3.49768E-03-4.35448E-14 1.75906E-13
 -1        69 1.04769E-02-3.94871E-02-9.22243E-28 6.01086E-03-4.90536E-14 1.07479E-14
 -1        70-7.62621E-05 5.28760E-04 7.88088E-26-2.05472E-04 1.86966E-13-1.18469E-13
 -1        71-2.09021E-04 1.20347E-03 2.33476E-26-3.25952E-04 1.25133E-13 1.72356E-14
 -1        72-4.41747E-04 2.23418E-03 1.71892E-26-4.60985E-04 4.57737E-14 8.87524E-14
 -1        73-7.28544E-04 3.67563E-03 4.86506E-27-5.84754E-04-1.49902E-14 5.55240E-14
 -1        74-1.10761E-03 5.38591E-03-5.75052E-27-5.90348E-04 8.53246E-15-4.59092E-15
 -1        75-1.45906E-03 6.94313E-03 4.71340E-26-4.10661E-04 6.29399E-14 1.65226E-13
 -1        76-1.70345E-03 7.85244E-03 2.71411E-25-1.09767E-04 3.09566E-14 3.73307E-13
 -1        77-1.70495E-03 7.85424E-03 2.27176E-25 1.81551E-04-9.71248E-14 3.35401E-13
 -1        78-1.50627E-03 7.01367E-03 8.00129E-26 3.93922E-04-2.33147E-13 1.12283E-13
 -1        79-1.17520E-03 5.74823E-03 2.19999E-25 4.50495E-04-2.57807E-13-2.70724E-13
 -1        80-9.53777E-04 4.73942E-03 5.94366E-25 2.98743E-04-1.65920E-13-5.30351E-13
 -1        81-8.91611E-04 4.34650E-03 6.97591E-25 1.58156E-04-3.11677E-14-5.92961E-13
 -1        82-8.58062E-04 3.90585E-03 7.28031E-25 4.29301E-04 1.23073E-13-5.95785E-13
 -1        83-4.32109E-04 1.89157E-03 4.47138E-25 1.24522E-03 2.49854E-13-4.23218E-13
 -1        84 5.97373E-04-2.86877E-03 1.30283E-25 2.26097E-03 2.80988E-13-1.13851E-13
 -1        85 2.19523E-03-1.02789E-02 1.29021E-25 3.00564E-03 2.01549E-13 1.99071E-13
 -1        86 4.19037E-03-1.93362E-02 1.77852E-25 3.51942E-03 5.85716E-14 3.01407E-13
 -1        87 5.81452E-03-2.97479E-02 5.48380E-26 3.49768E-03-4.35450E-14 1.75906E-13
 -1        88 1.04769E-02-3.94871E-02-9.22257E-28 6.01086E-03-4.90537E-14 1.07479E-14
 -1        89-1.87861E-04-8.39575E-04-1.57136E-27 4.44843E-03 1.26631E-14 4.06273E-14
 -1        90-2.18089E-04-3.91875E-04 6.12544E-26 5.08233E-03 3.31708E-14 1.83190E-13
 -1        91-7.62655E-05-1.96402E-04 2.01669E-25 4.45354E-03 3.92649E-14 3.19116E-13
 -1        92-3.23444E-05-6.25049E-05 6.37956E-26 3.91523E-03 2.94819E-14 2.12619E-13
 -1        93-2.59804E-05 1.82276E-05-3.13316E-26 2.91603E-03 2.58769E-14-1.05642E-13
 -1        94-6.18545E-05 6.69690E-05 3.51714E-25 1.60325E-03 4.82983E-14-4.38826E-13
 -1        95-7.30598E-05 1.01460E-04 8.17607E-25 5.41962E-04 4.56559E-14-6.41007E-13
 -1        96-7.52651E-05 1.29352E-04 8.68529E-25 1.80837E-04 9.51011E-15-6.60107E-13
 -1        97-8.50670E-05 1.64460E-04 5.71279E-25 3.64331E-04-1.07702E-14-5.44699E-13
 -1        98-1.15978E-04 2.05970E-04 8.93185E-26 5.83274E-04-5.03417E-15-2.73740E-13
 -1        99-1.21092E-04 2.33239E-04-1.93156E-26 5.23772E-04-6.57773E-15 1.34306E-13
 -1       100-1.23174E-04 2.40159E-04 2.92560E-25 2.28957E-04-3.02238E-15 3.91030E-13
 -1       101-1.21996E-04 2.37883E-04 2.72977E-25-1.71342E-04-5.10826E-15 3.75763E-13
 -1       102-1.09827E-04 2.28253E-04 2.60970E-26-5.56901E-04-2.85730E-14 1.40314E-13
 -1       103-7.38336E-05 2.22645E-04-3.29324E-27-7.74172E-04-1.40927E-14 4.67147E-15
 -1       104-7.66650E-05 2.51841E-04 3.25768E-27-7.63062E-04 2.14986E-14 4.53516E-14
 -1       105-1.07502E-04 2.99428E-04 3.10606E-26-6.04260E-04 3.81536E-14 1.23691E-13
 -1       106-1.08166E-04 3.14777E-04-3.31903E-27-4.18668E-04 2.58618E-14 3.04572E-14
 -1       107-7.07276E-05 3.06036E-04-4.45733E-27-2.41166E-04 4.22060E-15-9.12343E-14
 -1       108-7.07276E-05 3.06036E-04-4.45478E-27-2.41166E-04 4.22187E-15-9.12410E-14
 -1       109-1.08166E-04 3.14777E-04-3.31835E-27-4.18668E-04 2.58624E-14 3.04576E-14
 -1       110-1.07502E-04 2.99428E-04 3.10653E-26-6.04260E-04 3.81541E-14 1.23700E-13
 -1       111-7.66650E-05 2.51841E-04 3.25661E-27-7.63062E-04 2.14979E-14 4.53492E-14
 -1       112-7.38336E-05 2.22645E-04-3.29399E-27-7.74172E-04-1.40934E-14 4.65892E-15
 -1       113-1.09827E-04 2.28253E-04 2.60958E-26-5.56901E-04-2.85732E-14 1.40312E-13
 -1       114-1.21996E-04 2.37883E-04 2.72970E-25-1.71342E-04-5.10832E-15 3.75759E-13
 -1       115-1.23174E-04 2.40159E-04 2.92547E-25 2.28957E-04-3.02324E-15 3.91019E-13
 -1       116-1.21092E-04 2.33239E-04-1.93118E-26 5.23772E-04-6.57681E-15 1.34309E-13
 -1       117-1.15978E-04 2.05970E-04 8.93188E-26 5.83274E-04-5.03466E-15-2.73740E-13
 -1       118-8.50670E-05 1.64460E-04 5.71285E-25 3.64331E-04-1.07700E-14-5.44702E-13
 -1       119-7.52651E-05 1.29352E-04 8.68526E-25 1.80837E-04 9.51022E-15-6.60106E-13
 -1       120-7.30598E-05 1.01460E-04 8.17604E-25 5.41962E-04 4.56562E-14-6.41006E-13
 -1       121-6.18545E-05 6.69690E-05 3.51716E-25 1.60325E-03 4.82980E-14-4.38827E-13
 -1       122-2.59804E-05 1.82276E-05-3.13301E-26 2.91603E-03 2.58758E-14-1.05646E-13
 -1       123-3.23444E-05-6.25049E-05 6.37924E-26 3.91523E-03 2.94816E-14 2.12616E-13
 -1       124-7.62655E-05-1.96402E-04 2.01670E-25 4.45354E-03 3.92643E-14 3.19117E-13
 -1       125-2.18089E-04-3.91875E-04 6.12542E-26 5.08233E-03 3.31710E-14 1.83190E-13
 -1       126-1.87861E-04-8.39575E-04-1.57133E-27 4.44843E-03 1.26633E-14 4.06274E-14
 -3
    1PSTEP                       156          39           1          
  100CL  139 3.90000E-01         126                     1   39           1
 -4  ERROR       1    1
 -5  STR(%)      1    1    0    0
 -1         1 6.64540E+01
 -1         2 6.64540E+01
 -1         3 2.75327E+01
 -1         4 2.75327E+01
 -1         5 5.21521E+00
 -1         6 5.21521E+00
 -1         7 6.08355E+01
 -1         8 6.08355E+01
 -1         9 2.75327E+01
 -1        10 2.75327E+01
 -1        11 6.64540E+01
 -1        12 6.64540E+01
 -1        13 6.64540E+01
 -1        14 6.36583E+01
 -1        15 6.25058E+01
 -1        16 5.72369E+01
 -1        17 4.09063E+01
 -1        18 5.71759E+01
 -1        19 6.14400E+01
 -1        20 6.28593E+01
 -1        21 6.46867E+01
 -1        22 6.46867E+01
 -1        23 6.41582E+01
 -1        24 6.32394E+01
 -1        25 6.29019E+01
 -1        26 6.46306E+01
 -1        27 6.46306E+01
 -1        28 6.41084E+01
 -1        29 6.26704E+01
 -1        30 6.74046E+01
 -1        31 6.74046E+01
 -1        32 6.64540E+01
 -1        33 6.36583E+01
 -1        34 6.25058E+01
 -1        35 5.72369E+01
 -1        36 4.09063E+01
 -1        37 5.71759E+01
 -1        38 6.14400E+01
 -1        39 6.28593E+01
 -1        40 6.46867E+01
 -1        41 6.46867E+01
 -1        42 6.41582E+01
 -1        43 6.32394E+01
 -1        44 6.29019E+01
 -1        45 6.46306E+01
 -1        46 6.46306E+01
 -1        47 6.41084E+01
 -1        48 6.26704E+01
 -1        49 6.74046E+01
 -1        50 6.74046E+01
 -1        51 2.19095E+01
 -1        52 3.97013E+01
 -1        53 5.05033E+01
 -1        54 5.63851E+01
 -1        55 5.87416E+01
 -1        56 5.87416E+01
 -1        57 5.83519E+01
 -1        58 5.86509E+01
 -1        59 5.88123E+01
 -1        60 5.89095E+01
 -1        61 5.89095E+01
 -1        62 5.82236E+01
 -1        63 5.80958E+01
 -1        64 5.49217E+01
 -1        65 3.97846E+01
 -1        66 5.54194E+01
 -1        67 5.96310E+01
 -1        68 5.96310E+01
 -1        69 6.08355E+01
 -1        70 2.19095E+01
 -1        71 3.97013E+01
 -1        72 5.05033E+01
 -1        73 5.63851E+01
 -1        74 5.87416E+01
 -1        75 5.87416E+01
 -1        76 5.83519E+01
 -1        77 5.86509E+01
 -1        78 5.88123E+01
 -1        79 5.89095E+01
 -1        80 5.89095E+01
 -1        81 5.82236E+01
 -1        82 5.80958E+01
 -1        83 5.49217E+01
 -1        84 3.97846E+01
 -1        85 5.54194E+01
 -1        86 5.96310E+01
 -1        87 5.96310E+01
 -1        88 6.08355E+01
 -1        89 6.64540E+01
 -1        90 6.36583E+01
 -1        91 6.25058E+01
 -1        92 5.72369E+01
 -1        93 4.09063E+01
 -1        94 5.71759E+01
 -1        95 6.14400E+01
 -1        96 6.28593E+01
 -1        97 6.46867E+01
 -1        98 6.46867E+01
 -1        99 6.41582E+01
 -1       100 6.32394E+01
 -1       101 6.29019E+01
 -1       102 6.46306E+01
 -1       103 6.46306E+01
 -1       104 6.41084E+01
 -1       105 6.26704E+01
 -1       106 6.74046E+01
 -1       107 6.74046E+01
 -1       108 6.74046E+01
 -1       109 6.74046E+01
 -1       110 6.26704E+01
 -1       111 6.41084E+01
 -1       112 6.46306E+01
 -1       113 6.46306E+01
 -1       114 6.29019E+01
 -1       115 6.32394E+01
 -1       116 6.41582E+01
 -1       117 6.46867E+01
 -1       118 6.46867E+01
 -1       119 6.28593E+01
 -1       120 6.14400E+01
 -1       121 5.71759E+01
 -1       122 4.09063E+01
 -1       123 5.72369E+01
 -1       124 6.25058E+01
 -1       125 6.36583E+01
 -1       126 6.64540E+01
 -3
    1PSTEP                       157          40           1          
  100CL  140 4.00000E-01         126                     1   40           1
 -4  DISP        4    1
 -5  D1          1    2    1    0
 -5  D2          1    2    2    0
 -5  D3          1    2    3    0
 -5  ALL         1    2    0    0    1ALL
 -1         1 0.00000E+00 0.00000E+00 0.00000E+00
 -1         2 0.00000E+00 0.00000E+00 0.00000E+00
 -1         3 9.54358E-02-1.08060E-03 0.00000E+00
 -1         4 9.54358E-02-1.08060E-03 0.00000E+00
 -1         5 9.51777E-02-8.18143E-03 0.00000E+00
 -1         6 9.51777E-02-8.18143E-03 0.00000E+00
 -1         7 0.00000E+00 0.00000E+00 0.00000E+00
 -1         8 0.00000E+00 0.00000E+00 0.00000E+00
 -1         9 9.53057E-02-4.62247E-03 0.00000E+00
 -1        10 9.53057E-02-4.62247E-03 0.00000E+00
 -1        11 0.00000E+00 0.00000E+00 0.00000E+00
 -1        12 0.00000E+00 0.00000E+00 0.00000E+00
 -1        13 2.05504E-03 2.06120E-03 0.00000E+00
 -1        14 5.63941E-03 3.65389E-03 0.00000E+00
 -1        15 1.07069E-02 4.63194E-03 0.00000E+00
 -1        16 1.67364E-02 5.07918E-03 0.00000E+00
 -1        17 2.32860E-02 5.04678E-03 0.00000E+00
 -1        18 2.99052E-02 4.65538E-03 0.00000E+00
 -1        19 3.62800E-02 4.07760E-03 0.00000E+00
 -1        20 4.23125E-02 3.46736E-03 0.00000E+00
 -1        21 4.80432E-02 2.90993E-03 0.00000E+00
 -1        22 5.35606E-02 2.41310E-03 0.00000E+00
 -1        23 5.89044E-02 1.93560E-03 0.00000E+00
 -1        24 6.40410E-02 1.43125E-03 0.00000E+00
 -1        25 6.88661E-02 8.97561E-04 0.00000E+00
 -1        26 7.33076E-02 3.80324E-04 0.00000E+00
 -1        27 7.73780E-02-6.33276E-05 0.00000E+00
 -1        28 8.11783E-02-4.06475E-04 0.00000E+00
 -1        29 8.48134E-02-6.55587E-04 0.00000E+00
 -1        30 8.83667E-02-8.32474E-04 0.00000E+00
 -1        31 9.18972E-02-9.64529E-04 0.00000E+00
 -1        32 2.05504E-03 2.06120E-03 0.00000E+00
 -1        33 5.63941E-03 3.65389E-03 0.00000E+00
 -1        34 1.07069E-02 4.63194E-03 0.00000E+00
 -1        35 1.67364E-02 5.07918E-03 0.00000E+00
 -1        36 2.32860E-02 5.04678E-03 0.00000E+00
 -1        37 2.99052E-02 4.65538E-03 0.00000E+00
 -1        38 3.62800E-02 4.07760E-03 0.00000E+00
 -1        39 4.23125E-02 3.46736E-03 0.00000E+00
 -1        40 4.80432E-02 2.90993E-03 0.00000E+00
 -1        41 5.35606E-02 2.41310E-03 0.00000E+00
 -1        42 5.89044E-02 1.93560E-03 0.00000E+00
 -1        43 6.40410E-02 1.43125E-03 0.00000E+00
 -1        44 6.88661E-02 8.97561E-04 0.00000E+00
 -1        45 7.33076E-02 3.80324E-04 0.00000E+00
 -1        46 7.73780E-02-6.33276E-05 0.00000E+00
 -1        47 8.11783E-02-4.06475E-04 0.00000E+00
 -1        48 8.48134E-02-6.55587E-04 0.00000E+00
 -1        49 8.83667E-02-8.32474E-04 0.00000E+00
 -1        50 9.18972E-02-9.64529E-04 0.00000E+00
 -1        51 9.16325E-02-8.07031E-03 0.00000E+00
 -1        52 8.80932E-02-7.98883E-03 0.00000E+00
 -1        53 8.45244E-02-7.95482E-03 0.00000E+00
 -1        54 8.08658E-02-7.98516E-03 0.00000E+00
 -1        55 7.70298E-02-8.08664E-03 0.00000E+00
 -1        56 7.29087E-02-8.24431E-03 0.00000E+00
 -1        57 6.84061E-02-8.40877E-03 0.00000E+00
 -1        58 6.35197E-02-8.51601E-03 0.00000E+00
 -1        59 5.83287E-02-8.53203E-03 0.00000E+00
 -1        60 5.29390E-02-8.47880E-03 0.00000E+00
 -1        61 4.73759E-02-8.40459E-03 0.00000E+00
 -1        62 4.15886E-02-8.33628E-03 0.00000E+00
 -1        63 3.54959E-02-8.24315E-03 0.00000E+00
 -1        64 2.90784E-02-8.02919E-03 0.00000E+00
 -1        65 2.24714E-02-7.56769E-03 0.00000E+00
 -1        66 1.60157E-02-6.76899E-03 0.00000E+00
 -1        67 1.01604E-02-5.61770E-03 0.00000E+00
 -1        68 5.30660E-03-4.13161E-03 0.00000E+00
 -1        69 1.94125E-03-2.23504E-03 0.00000E+00
 -1        70 9.16325E-02-8.07031E-03 0.00000E+00
 -1        71 8.80932E-02-7.98883E-03 0.00000E+00
 -1        72 8.45244E-02-7.95482E-03 0.00000E+00
 -1        73 8.08658E-02-7.98516E-03 0.00000E+00
 -1        74 7.70298E-02-8.08664E-03 0.00000E+00
 -1        75 7.29087E-02-8.24431E-03 0.00000E+00
 -1        76 6.84061E-02-8.40877E-03 0.00000E+00
 -1        77 6.35197E-02-8.51601E-03 0.00000E+00
 -1        78 5.83287E-02-8.53203E-03 0.00000E+00
 -1        79 5.29390E-02-8.47880E-03 0.00000E+00
 -1        80 4.73759E-02-8.40459E-03 0.00000E+00
 -1        81 4.15886E-02-8.33628E-03 0.00000E+00
 -1        82 3.54959E-02-8.24315E-03 0.00000E+00
 -1        83 2.90784E-02-8.02919E-03 0.00000E+00
 -1        84 2.24714E-02-7.56769E-03 0.00000E+00
 -1        85 1.60157E-02-6.76899E-03 0.00000E+00
 -1        86 1.01604E-02-5.61770E-03 0.00000E+00
 -1        87 5.30660E-03-4.13161E-03 0.00000E+00
 -1        88 1.94125E-03-2.23504E-03 0.00000E+00
 -1        89 1.46957E-03-6.20640E-05 0.00000E+00
 -1        90 5.17167E-03-2.07625E-04 0.00000E+00
 -1        91 1.02110E-02-4.63779E-04 0.00000E+00
 -1        92 1.62483E-02-8.26283E-04 0.00000E+00
 -1        93 2.28342E-02-1.25413E-03 0.00000E+00
 -1        94 2.95076E-02-1.68991E-03 0.00000E+00
 -1        95 3.59360E-02-2.08983E-03 0.00000E+00
 -1        96 4.20032E-02-2.44110E-03 0.00000E+00
 -1        97 4.77550E-02-2.75259E-03 0.00000E+00
 -1        98 5.32890E-02-3.03739E-03 0.00000E+00
 -1        99 5.86631E-02-3.30324E-03 0.00000E+00
 -1       100 6.38401E-02-3.54862E-03 0.00000E+00
 -1       101 6.87059E-02-3.76252E-03 0.00000E+00
 -1       102 7.31743E-02-3.93779E-03 0.00000E+00
 -1       103 7.72579E-02-4.07901E-03 0.00000E+00
 -1       104 8.10580E-02-4.19775E-03 0.00000E+00
 -1       105 8.46885E-02-4.30498E-03 0.00000E+00
 -1       106 8.82364E-02-4.40882E-03 0.00000E+00
 -1       107 9.17656E-02-4.51421E-03 0.00000E+00
 -1       108 9.17656E-02-4.51421E-03 0.00000E+00
 -1       109 8.82364E-02-4.40882E-03 0.00000E+00
 -1       110 8.46885E-02-4.30498E-03 0.00000E+00
 -1       111 8.10580E-02-4.19775E-03 0.00000E+00
 -1       112 7.72579E-02-4.07901E-03 0.00000E+00
 -1       113 7.31743E-02-3.93779E-03 0.00000E+00
 -1       114 6.87059E-02-3.76252E-03 0.00000E+00
 -1       115 6.38401E-02-3.54862E-03 0.00000E+00
 -1       116 5.86631E-02-3.30324E-03 0.00000E+00
 -1       117 5.32890E-02-3.03739E-03 0.00000E+00
 -1       118 4.77550E-02-2.75259E-03 0.00000E+00
 -1       119 4.20032E-02-2.44110E-03 0.00000E+00
 -1       120 3.59360E-02-2.08983E-03 0.00000E+00
 -1       121 2.95076E-02-1.68991E-03 0.00000E+00
 -1       122 2.28342E-02-1.25413E-03 0.00000E+00
 -1       123 1.62483E-02-8.26283E-04 0.00000E+00
 -1       124 1.02110E-02-4.63779E-04 0.00000E+00
 -1       125 5.17167E-03-2.07625E-04 0.00000E+00
 -1       126 1.46957E-03-6.20640E-05 0.00000E+00
 -3
    1PSTEP                       158          40           1          
  100CL  140 4.00000E-01         126                     1   40           1
 -4  STRESS      6    1
 -5  SXX         1    4    1    1
 -5  SYY         1    4    2    2
 -5  SZZ         1    4    3    3
 -5  SXY         1    4    1    2
 -5  SYZ         1    4    2    3
 -5  SZX         1    4    3    1
 -1         1 9.97386E+03 2.36712E+04 9.51002E+03 7.17881E+03-4.43610E-11 4.86034E-11
 -1         2 9.97386E+03 2.36712E+04 9.51002E+03 7.17881E+03-4.43610E-11 4.86034E-11
 -1         3-6.74172E+00 8.07937E+01 2.22076E+01-7.00832E+00-3.11184E-08-1.22206E-07
 -1         4-6.74172E+00 8.07937E+01 2.22076E+01-7.00832E+00-3.11185E-08-1.22210E-07
 -1         5 4.92221E+01 1.58866E+02 6.23929E+01-3.85618E+01 2.49313E-08-1.06105E-07
 -1         6 4.92221E+01 1.58866E+02 6.23929E+01-3.85618E+01 2.49312E-08-1.06107E-07
 -1         7-9.99223E+03-2.24626E+04-1.03722E+04 5.14495E+03-1.55946E-11-9.41751E-11
 -1         8-9.99223E+03-2.24626E+04-1.03722E+04 5.14495E+03-1.55946E-11-9.41751E-11
 -1         9 4.44091E+01 1.76568E+02 6.62527E+01-2.71679E+01 7.18301E-09-1.05570E-07
 -1        10 4.44091E+01 1.76568E+02 6.62527E+01-2.71679E+01 7.18316E-09-1.05563E-07
 -1        11 8.35730E+00-8.15986E+02-1.86642E+02 4.49723E+03-7.64305E-11-2.22877E-11
 -1        12 8.35730E+00-8.15986E+02-1.86642E+02 4.49723E+03-7.64305E-11-2.22877E-11
 -1        13 3.31362E+03 1.88762E+04 6.33067E+03 2.63915E+03 1.30849E-08-7.25451E-09
 -1        14 3.66457E+03 1.47569E+04 5.31462E+03 1.95459E+03 3.51459E-08 2.86792E-08
 -1        15 2.50176E+03 9.87087E+03 3.60821E+03 1.83795E+03 3.77548E-08 9.09114E-08
 -1        16 1.59683E+03 5.65584E+03 2.13532E+03 1.46232E+03 5.84837E-09 1.46754E-07
 -1        17 6.82716E+02 1.94118E+03 7.77678E+02 9.69709E+02-3.59355E-08 1.08104E-07
 -1        18-8.43512E+01-7.31535E+02-2.47568E+02 4.29756E+02-4.93786E-08 9.53224E-09
 -1        19-5.15331E+02-2.05916E+03-7.77113E+02 1.55196E+01-2.04712E-08-7.62323E-08
 -1        20-6.63493E+02-2.30776E+03-8.96747E+02-1.80701E+02 2.57798E-08-1.20118E-07
 -1        21-6.30076E+02-2.05320E+03-8.08990E+02-1.99395E+02 5.97940E-08-1.08197E-07
 -1        22-6.09109E+02-1.90515E+03-7.57512E+02-1.32115E+02 6.03390E-08-1.98715E-08
 -1        23-6.25919E+02-2.14195E+03-8.34546E+02-7.57453E+01 4.21425E-08 4.33300E-08
 -1        24-7.27514E+02-2.65744E+03-1.02234E+03-9.35227E+01 1.30297E-08 6.71546E-08
 -1        25-8.20735E+02-3.02032E+03-1.16140E+03-1.84493E+02-1.88216E-08 5.69726E-08
 -1        26-8.30120E+02-2.90373E+03-1.12872E+03-2.79667E+02-3.52746E-08 4.48303E-09
 -1        27-6.88708E+02-2.31205E+03-9.05713E+02-3.11142E+02-3.21408E-08-4.19915E-08
 -1        28-5.04643E+02-1.54374E+03-6.17015E+02-2.64967E+02-1.70763E-08-7.27753E-08
 -1        29-3.18816E+02-8.33061E+02-3.46339E+02-1.88316E+02-1.10076E-08-5.50435E-08
 -1        30-1.72166E+02-3.05103E+02-1.43317E+02-1.10841E+02-1.82042E-08-4.95098E-08
 -1        31-6.01648E+01-7.37318E+00-2.02723E+01-4.48730E+01-2.62130E-08-8.36124E-08
 -1        32 3.31362E+03 1.88762E+04 6.33067E+03 2.63915E+03 1.30849E-08-7.25451E-09
 -1        33 3.66457E+03 1.47569E+04 5.31462E+03 1.95459E+03 3.51459E-08 2.86792E-08
 -1        34 2.50176E+03 9.87087E+03 3.60821E+03 1.83795E+03 3.77548E-08 9.09114E-08
 -1        35 1.59683E+03 5.65584E+03 2.13532E+03 1.46232E+03 5.84838E-09 1.46754E-07
 -1        36 6.82716E+02 1.94118E+03 7.77678E+02 9.69709E+02-3.59355E-08 1.08105E-07
 -1        37-8.43512E+01-7.31535E+02-2.47568E+02 4.29756E+02-4.93782E-08 9.53316E-09
 -1        38-5.15331E+02-2.05916E+03-7.77113E+02 1.55196E+01-2.04712E-08-7.62390E-08
 -1        39-6.63493E+02-2.30776E+03-8.96747E+02-1.80701E+02 2.57798E-08-1.20118E-07
 -1        40-6.30076E+02-2.05320E+03-8.08990E+02-1.99395E+02 5.97940E-08-1.08196E-07
 -1        41-6.09109E+02-1.90515E+03-7.57512E+02-1.32115E+02 6.03390E-08-1.98718E-08
 -1        42-6.25919E+02-2.14195E+03-8.34546E+02-7.57453E+01 4.21424E-08 4.33291E-08
 -1        43-7.27514E+02-2.65744E+03-1.02234E+03-9.35227E+01 1.30298E-08 6.71553E-08
 -1        44-8.20735E+02-3.02032E+03-1.16140E+03-1.84493E+02-1.88217E-08 5.69712E-08
 -1        45-8.30120E+02-2.90373E+03-1.12872E+03-2.79667E+02-3.52746E-08 4.48177E-09
 -1        46-6.88708E+02-2.31205E+03-9.05713E+02-3.11142E+02-3.21408E-08-4.19905E-08
 -1        47-5.04643E+02-1.54374E+03-6.17015E+02-2.64967E+02-1.70763E-08-7.27790E-08
 -1        48-3.18816E+02-8.33061E+02-3.46339E+02-1.88316E+02-1.10076E-08-5.50451E-08
 -1        49-1.72166E+02-3.05103E+02-1.43317E+02-1.10841E+02-1.82042E-08-4.95071E-08
 -1        50-6.01648E+01-7.37318E+00-2.02723E+01-4.48730E+01-2.62129E-08-8.36137E-08
 -1        51 5.94429E+01 2.91710E+02 1.05223E+02-3.44921E+01 2.57008E-08-7.08718E-08
 -1        52 1.44805E+02 6.82730E+02 2.47697E+02-6.10311E+01 1.88111E-08-5.71709E-08
 -1        53 2.47669E+02 1.26514E+03 4.52053E+02-7.49025E+01 1.00291E-08-6.08604E-08
 -1        54 4.10497E+02 2.02630E+03 7.26685E+02-6.36503E+01 1.90706E-08-6.59948E-08
 -1        55 5.92485E+02 2.82401E+03 1.01672E+03-1.11878E+00 3.29476E-08-2.91092E-08
 -1        56 7.48643E+02 3.39414E+03 1.23101E+03 1.31058E+02 3.17079E-08 2.46190E-08
 -1        57 7.77596E+02 3.45252E+03 1.25672E+03 2.75778E+02 1.24192E-08 5.76820E-08
 -1        58 7.16990E+02 3.03864E+03 1.11706E+03 3.39082E+02-2.19410E-08 7.89950E-08
 -1        59 5.99136E+02 2.51030E+03 9.26398E+02 2.93058E+02-4.21259E-08 2.49483E-08
 -1        60 5.44906E+02 2.28773E+03 8.44596E+02 2.04864E+02-3.80228E-08-3.56574E-08
 -1        61 5.45734E+02 2.42879E+03 8.86400E+02 1.79896E+02-5.79398E-09-9.84440E-08
 -1        62 5.85121E+02 2.61165E+03 9.51803E+02 2.60836E+02 4.37160E-08-1.08204E-07
 -1        63 5.36919E+02 2.22298E+03 8.21781E+02 4.22699E+02 8.45275E-08-6.90064E-08
 -1        64 2.68379E+02 6.95299E+02 2.85862E+02 5.64099E+02 8.82800E-08 3.26427E-08
 -1        65-3.51576E+02-2.13143E+03-7.53681E+02 5.54926E+02 5.10101E-08 1.23886E-07
 -1        66-1.25574E+03-5.83756E+03-2.16763E+03 3.68348E+02-5.14345E-10 1.36588E-07
 -1        67-2.26788E+03-9.85717E+03-3.74271E+03 1.99553E+02-3.48020E-08 8.19434E-08
 -1        68-3.76752E+03-1.44147E+04-5.67964E+03 1.13657E+02-3.38886E-08 1.36579E-08
 -1        69-3.39504E+03-1.80553E+04-6.78939E+03 1.04340E+03-1.37733E-08-4.88588E-09
 -1        70 5.94429E+01 2.91710E+02 1.05223E+02-3.44921E+01 2.57010E-08-7.08676E-08
 -1        71 1.44805E+02 6.82730E+02 2.47697E+02-6.10311E+01 1.88110E-08-5.71692E-08
 -1        72 2.47669E+02 1.26514E+03 4.52053E+02-7.49025E+01 1.00290E-08-6.08594E-08
 -1        73 4.10497E+02 2.02630E+03 7.26685E+02-6.36503E+01 1.90706E-08-6.60088E-08
 -1        74 5.92485E+02 2.82401E+03 1.01672E+03-1.11878E+00 3.29476E-08-2.91048E-08
 -1        75 7.48643E+02 3.39414E+03 1.23101E+03 1.31058E+02 3.17079E-08 2.46182E-08
 -1        76 7.77596E+02 3.45252E+03 1.25672E+03 2.75778E+02 1.24184E-08 5.76825E-08
 -1        77 7.16990E+02 3.03864E+03 1.11706E+03 3.39082E+02-2.19416E-08 7.90021E-08
 -1        78 5.99136E+02 2.51030E+03 9.26398E+02 2.93058E+02-4.21257E-08 2.49455E-08
 -1        79 5.44906E+02 2.28773E+03 8.44596E+02 2.04864E+02-3.80228E-08-3.56565E-08
 -1        80 5.45734E+02 2.42879E+03 8.86400E+02 1.79896E+02-5.79396E-09-9.84471E-08
 -1        81 5.85121E+02 2.61165E+03 9.51803E+02 2.60836E+02 4.37160E-08-1.08204E-07
 -1        82 5.36919E+02 2.22298E+03 8.21781E+02 4.22699E+02 8.45275E-08-6.90074E-08
 -1        83 2.68379E+02 6.95299E+02 2.85862E+02 5.64099E+02 8.82798E-08 3.26406E-08
 -1        84-3.51576E+02-2.13143E+03-7.53681E+02 5.54926E+02 5.10104E-08 1.23890E-07
 -1        85-1.25574E+03-5.83756E+03-2.16763E+03 3.68348E+02-5.14993E-10 1.36588E-07
 -1        86-2.26788E+03-9.85717E+03-3.74271E+03 1.99553E+02-3.48019E-08 8.19434E-08
 -1        87-3.76752E+03-1.44147E+04-5.67964E+03 1.13657E+02-3.38887E-08 1.36580E-08
 -1        88-3.39504E+03-1.80553E+04-6.78939E+03 1.04340E+03-1.37733E-08-4.88589E-09
 -1        89 1.01613E+02-7.55649E+02-1.74945E+02 1.31879E+03-2.82875E-09-1.07742E-08
 -1        90 1.34932E+02-5.40311E+02-9.43014E+01 1.43773E+03 5.12908E-10 1.70099E-08
 -1        91 2.14072E+02-3.87245E+02-4.37879E+01 1.24142E+03 2.24939E-09 9.24102E-08
 -1        92 2.48758E+02-2.93462E+02-1.27305E+01 1.16565E+03 3.47833E-09 1.48876E-07
 -1        93 2.22168E+02-1.89532E+02 7.82915E+00 9.73269E+02 1.03586E-08 1.27672E-07
 -1        94 1.28628E+02-6.59113E+01 1.71554E+01 6.34590E+02 1.96206E-08 2.49482E-08
 -1        95 2.89980E+01 5.64588E+01 2.52287E+01 2.72394E+02 3.51886E-08-8.03394E-08
 -1        96-3.54396E+01 1.38956E+02 3.14970E+01 3.36278E+01 3.97964E-08-1.24635E-07
 -1        97-4.46618E+01 1.77326E+02 4.04900E+01-3.21492E+01 2.32588E-08-1.08628E-07
 -1        98-3.02882E+01 1.77156E+02 4.48202E+01 3.62217E+01 6.12110E-09-2.80954E-08
 -1        99-4.63046E+00 1.60535E+02 4.75959E+01 1.37658E+02 3.03156E-09 3.73627E-08
 -1       100 4.64911E+00 1.56323E+02 4.91801E+01 1.55090E+02-2.20479E-09 8.10896E-08
 -1       101-1.50068E+01 1.81915E+02 5.09591E+01 5.17334E+01-3.89677E-09 6.53564E-08
 -1       102-3.91902E+01 2.21815E+02 5.56016E+01-1.01533E+02-3.25336E-09 1.66163E-08
 -1       103-5.04226E+01 2.47159E+02 5.95854E+01-2.03988E+02-4.23908E-09-3.90316E-08
 -1       104-5.02556E+01 2.46379E+02 5.90847E+01-2.17658E+02-4.01889E-09-7.20786E-08
 -1       105-3.80109E+01 2.27178E+02 5.67829E+01-1.76966E+02-2.83078E-09-5.99512E-08
 -1       106-1.38823E+01 2.00850E+02 5.60552E+01-1.14646E+02 4.60690E-09-4.83694E-08
 -1       107 1.22414E+01 1.76913E+02 5.67045E+01-5.05054E+01 8.92727E-09-7.54557E-08
 -1       108 1.22414E+01 1.76913E+02 5.67045E+01-5.05054E+01 8.92677E-09-7.54561E-08
 -1       109-1.38823E+01 2.00850E+02 5.60552E+01-1.14646E+02 4.60717E-09-4.83721E-08
 -1       110-3.80109E+01 2.27178E+02 5.67829E+01-1.76966E+02-2.83062E-09-5.99557E-08
 -1       111-5.02556E+01 2.46379E+02 5.90847E+01-2.17658E+02-4.01886E-09-7.20696E-08
 -1       112-5.04226E+01 2.47159E+02 5.95854E+01-2.03988E+02-4.23908E-09-3.90352E-08
 -1       113-3.91902E+01 2.21815E+02 5.56016E+01-1.01533E+02-3.25333E-09 1.66180E-08
 -1       114-1.50068E+01 1.81915E+02 5.09591E+01 5.17334E+01-3.89684E-09 6.53557E-08
 -1       115 4.64911E+00 1.56323E+02 4.91801E+01 1.55090E+02-2.20482E-09 8.10869E-08
 -1       116-4.63046E+00 1.60535E+02 4.75959E+01 1.37658E+02 3.03175E-09 3.73664E-08
 -1       117-3.02882E+01 1.77156E+02 4.48202E+01 3.62217E+01 6.12110E-09-2.80954E-08
 -1       118-4.46618E+01 1.77326E+02 4.04900E+01-3.21492E+01 2.32588E-08-1.08628E-07
 -1       119-3.54396E+01 1.38956E+02 3.14970E+01 3.36278E+01 3.97965E-08-1.24635E-07
 -1       120 2.89980E+01 5.64588E+01 2.52287E+01 2.72394E+02 3.51886E-08-8.03368E-08
 -1       121 1.28628E+02-6.59113E+01 1.71554E+01 6.34590E+02 1.96207E-08 2.49480E-08
 -1       122 2.22168E+02-1.89532E+02 7.82915E+00 9.73269E+02 1.03585E-08 1.27671E-07
 -1       123 2.48758E+02-2.93462E+02-1.27305E+01 1.16565E+03 3.47844E-09 1.48876E-07
 -1       124 2.14072E+02-3.87245E+02-4.37879E+01 1.24142E+03 2.24933E-09 9.24102E-08
 -1       125 1.34932E+02-5.40311E+02-9.43014E+01 1.43773E+03 5.12921E-10 1.70098E-08
 -1       126 1.01613E+02-7.55649E+02-1.74945E+02 1.31879E+03-2.82875E-09-1.07742E-08
 -3
    1PSTEP                       159          40           1          
  100CL  140 4.00000E-01         126                     1   40           1
 -4  TOSTRAIN    6    1
 -5  EXX         1    4    1    1
 -5  EYY         1    4    2    2
 -5  EZZ         1    4    3    3
 -5  EXY         1    4    1    2
 -5  EYZ         1    4    2    3
 -5  EZX         1    4    3    1
 -1         1-1.61513E-04 4.27556E-02-5.95243E-28 2.05500E-02-1.32066E-19 2.35255E-16
 -1         2-1.61513E-04 4.27556E-02-5.95243E-28 2.05500E-02-1.32066E-19 2.35255E-16
 -1         3-8.94570E-05 1.85695E-04 3.24634E-25-4.26284E-05-1.28986E-13-3.89035E-13
 -1         4-8.94570E-05 1.85695E-04 3.24650E-25-4.26284E-05-1.28987E-13-3.89047E-13
 -1         5-2.32837E-05 2.93724E-04 2.45414E-25-1.49211E-04 5.62511E-14-3.49679E-13
 -1         6-2.32837E-05 2.93724E-04 2.45423E-25-1.49211E-04 5.62504E-14-3.49688E-13
 -1         7-1.64980E-04-4.31118E-02-7.57592E-28 1.94122E-02 5.94945E-19-3.29066E-16
 -1         8-1.64980E-04-4.31118E-02-7.57592E-28 1.94122E-02 5.94945E-19-3.29066E-16
 -1         9-5.63703E-05 3.43546E-04 2.29737E-25-1.17689E-04-1.07691E-15-3.43865E-13
 -1        10-5.63703E-05 3.43546E-04 2.29706E-25-1.17689E-04-1.07476E-15-3.43842E-13
 -1        11-1.63246E-04-9.71815E-04-3.05986E-28 1.46954E-02 8.54680E-20-6.56972E-17
 -1        12-1.63246E-04-9.71815E-04-3.05986E-28 1.46954E-02 8.54680E-20-6.56972E-17
 -1        13-1.08704E-02 3.87922E-02 3.93157E-28 5.85821E-03 3.96908E-14-2.55686E-14
 -1        14-6.40449E-03 2.98328E-02 2.57335E-26 3.24649E-03 1.16566E-13 8.28857E-14
 -1        15-4.71138E-03 2.05351E-02 1.81342E-25 3.25079E-03 1.48140E-13 2.79364E-13
 -1        16-2.75174E-03 1.20799E-02 4.42719E-25 2.98212E-03 7.40020E-14 4.69926E-13
 -1        17-1.05804E-03 4.44590E-03 2.44573E-25 2.50719E-03-7.11813E-14 3.63334E-13
 -1        18 1.30327E-04-1.19860E-03 4.69694E-27 1.61504E-03-1.55511E-13 5.15836E-14
 -1        19 7.49442E-04-4.10844E-03 9.96065E-26 6.67834E-04-9.70819E-14-2.37777E-13
 -1        20 8.12196E-04-4.68726E-03 3.09970E-25 5.72965E-05 3.73493E-14-3.97996E-13
 -1        21 6.63435E-04-4.16018E-03 3.03757E-25-1.11866E-04 1.54175E-13-3.71735E-13
 -1        22 5.22587E-04-3.79740E-03 5.45289E-26 3.75003E-05 1.88915E-13-8.56763E-14
 -1        23 6.71194E-04-4.27806E-03 6.25477E-26 2.75010E-04 1.51841E-13 1.25764E-13
 -1        24 9.46760E-04-5.36264E-03 9.34804E-26 3.26285E-04 6.42996E-14 2.13200E-13
 -1        25 1.14194E-03-6.15666E-03 6.80977E-26 7.37764E-05-4.40749E-14 1.90322E-13
 -1        26 1.06234E-03-5.93629E-03 1.40895E-26-3.20145E-04-1.13916E-13 2.43844E-14
 -1        27 8.24344E-04-4.73780E-03 5.11404E-26-5.82167E-04-1.15848E-13-1.27920E-13
 -1        28 4.71825E-04-3.14009E-03 1.15196E-25-6.00473E-04-7.35835E-14-2.31919E-13
 -1        29 1.68050E-04-1.66701E-03 6.57205E-26-4.85919E-04-4.88236E-14-1.75960E-13
 -1        30-4.50634E-05-5.75608E-04 5.48965E-26-3.26303E-04-7.05683E-14-1.56366E-13
 -1        31-1.08259E-04 2.04212E-05 1.53028E-25-1.56562E-04-1.04270E-13-2.65078E-13
 -1        32-1.08704E-02 3.87922E-02 3.93157E-28 5.85821E-03 3.96908E-14-2.55686E-14
 -1        33-6.40449E-03 2.98328E-02 2.57335E-26 3.24649E-03 1.16566E-13 8.28857E-14
 -1        34-4.71138E-03 2.05351E-02 1.81342E-25 3.25079E-03 1.48140E-13 2.79364E-13
 -1        35-2.75174E-03 1.20799E-02 4.42719E-25 2.98212E-03 7.40020E-14 4.69926E-13
 -1        36-1.05804E-03 4.44590E-03 2.44574E-25 2.50719E-03-7.11813E-14 3.63334E-13
 -1        37 1.30327E-04-1.19860E-03 4.69185E-27 1.61504E-03-1.55509E-13 5.15864E-14
 -1        38 7.49442E-04-4.10844E-03 9.96235E-26 6.67834E-04-9.70846E-14-2.37798E-13
 -1        39 8.12196E-04-4.68726E-03 3.09970E-25 5.72965E-05 3.73493E-14-3.97996E-13
 -1        40 6.63435E-04-4.16018E-03 3.03754E-25-1.11866E-04 1.54175E-13-3.71732E-13
 -1        41 5.22587E-04-3.79740E-03 5.45299E-26 3.75003E-05 1.88915E-13-8.56771E-14
 -1        42 6.71194E-04-4.27806E-03 6.25459E-26 2.75010E-04 1.51841E-13 1.25761E-13
 -1        43 9.46760E-04-5.36264E-03 9.34824E-26 3.26285E-04 6.43000E-14 2.13202E-13
 -1        44 1.14194E-03-6.15666E-03 6.80943E-26 7.37764E-05-4.40757E-14 1.90318E-13
 -1        45 1.06234E-03-5.93629E-03 1.40891E-26-3.20145E-04-1.13916E-13 2.43803E-14
 -1        46 8.24344E-04-4.73780E-03 5.11377E-26-5.82167E-04-1.15848E-13-1.27917E-13
 -1        47 4.71825E-04-3.14009E-03 1.15206E-25-6.00473E-04-7.35844E-14-2.31931E-13
 -1        48 1.68050E-04-1.66701E-03 6.57244E-26-4.85919E-04-4.88240E-14-1.75965E-13
 -1        49-4.50634E-05-5.75608E-04 5.48891E-26-3.26303E-04-7.05676E-14-1.56357E-13
 -1        50-1.08259E-04 2.04212E-05 1.53030E-25-1.56562E-04-1.04270E-13-2.65082E-13
 -1        51-1.29164E-04 5.85398E-04 1.16409E-25-1.64156E-04 6.68795E-14-2.35647E-13
 -1        52-2.97549E-04 1.37210E-03 7.49805E-26-3.19883E-04 4.75913E-14-1.89632E-13
 -1        53-6.12856E-04 2.57525E-03 7.95133E-26-4.78474E-04 1.80241E-14-1.99554E-13
 -1        54-9.70768E-04 4.12803E-03 9.48231E-26-5.95516E-04 4.53116E-14-2.18370E-13
 -1        55-1.34120E-03 5.76231E-03 2.74322E-26-5.76247E-04 9.83919E-14-1.02681E-13
 -1        56-1.59250E-03 6.94852E-03 2.15105E-26-3.14481E-04 1.08564E-13 7.08159E-14
 -1        57-1.66397E-03 7.13205E-03 6.74809E-26 7.45840E-05 5.70541E-14 1.82663E-13
 -1        58-1.45455E-03 6.31314E-03 1.32743E-25 3.29165E-04-4.50829E-14 2.62314E-13
 -1        59-1.19879E-03 5.22571E-03 3.03111E-26 2.81308E-04-1.26789E-13 9.49481E-14
 -1        60-1.05430E-03 4.72458E-03 3.46494E-26 3.60824E-05-1.34594E-13-1.01646E-13
 -1        61-1.16571E-03 5.01808E-03 1.89624E-25-1.17479E-04-5.45484E-14-3.15501E-13
 -1        62-1.30876E-03 5.44598E-03 2.77624E-25 5.05201E-05 9.88246E-14-3.65669E-13
 -1        63-1.19224E-03 4.76317E-03 2.18088E-25 6.56049E-04 2.43435E-13-2.56543E-13
 -1        64-5.10493E-04 1.75431E-03 1.33761E-25 1.59915E-03 2.97345E-13 6.79175E-14
 -1        65 7.38550E-04-3.98659E-03 3.50243E-25 2.49955E-03 2.16377E-13 3.77772E-13
 -1        66 2.40725E-03-1.17208E-02 3.80417E-25 2.99996E-03 5.16333E-14 4.41593E-13
 -1        67 4.26415E-03-2.02722E-02 1.48742E-25 3.31104E-03-8.78260E-14 2.77982E-13
 -1        68 5.70281E-03-2.98356E-02 1.76678E-26 3.29390E-03-1.10941E-13 5.38479E-14
 -1        69 1.02869E-02-3.90820E-02 2.97382E-27 5.95111E-03-4.78490E-14-1.35262E-14
 -1        70-1.29164E-04 5.85398E-04 1.16394E-25-1.64156E-04 6.68811E-14-2.35633E-13
 -1        71-2.97549E-04 1.37210E-03 7.49760E-26-3.19883E-04 4.75911E-14-1.89626E-13
 -1        72-6.12856E-04 2.57525E-03 7.95112E-26-4.78474E-04 1.80240E-14-1.99551E-13
 -1        73-9.70768E-04 4.12803E-03 9.48582E-26-5.95516E-04 4.53081E-14-2.18415E-13
 -1        74-1.34120E-03 5.76231E-03 2.74218E-26-5.76247E-04 9.83930E-14-1.02667E-13
 -1        75-1.59250E-03 6.94852E-03 2.15095E-26-3.14481E-04 1.08564E-13 7.08132E-14
 -1        76-1.66397E-03 7.13205E-03 6.74817E-26 7.45840E-05 5.70518E-14 1.82665E-13
 -1        77-1.45455E-03 6.31314E-03 1.32765E-25 3.29165E-04-4.50825E-14 2.62338E-13
 -1        78-1.19879E-03 5.22571E-03 3.03042E-26 2.81308E-04-1.26790E-13 9.49391E-14
 -1        79-1.05430E-03 4.72458E-03 3.46467E-26 3.60824E-05-1.34593E-13-1.01643E-13
 -1        80-1.16571E-03 5.01808E-03 1.89635E-25-1.17479E-04-5.45494E-14-3.15511E-13
 -1        81-1.30876E-03 5.44598E-03 2.77624E-25 5.05201E-05 9.88246E-14-3.65669E-13
 -1        82-1.19224E-03 4.76317E-03 2.18090E-25 6.56049E-04 2.43435E-13-2.56546E-13
 -1        83-5.10493E-04 1.75431E-03 1.33753E-25 1.59915E-03 2.97344E-13 6.79106E-14
 -1        84 7.38550E-04-3.98659E-03 3.50265E-25 2.49955E-03 2.16380E-13 3.77787E-13
 -1        85 2.40725E-03-1.17208E-02 3.80417E-25 2.99996E-03 5.16312E-14 4.41593E-13
 -1        86 4.26415E-03-2.02722E-02 1.48742E-25 3.31104E-03-8.78255E-14 2.77982E-13
 -1        87 5.70281E-03-2.98356E-02 1.76678E-26 3.29390E-03-1.10941E-13 5.38481E-14
 -1        88 1.02869E-02-3.90820E-02 2.97382E-27 5.95111E-03-4.78491E-14-1.35262E-14
 -1        89-2.91726E-04-6.20633E-04 4.65055E-28 4.39211E-03-1.04045E-14-3.45309E-14
 -1        90-3.50843E-04-1.75805E-04-9.51881E-27 4.79036E-03 6.05592E-15 5.49698E-14
 -1        91-2.23612E-04-1.89916E-05 1.59892E-25 4.14925E-03 3.79192E-14 2.97742E-13
 -1        92-1.72244E-04 9.66847E-05 4.60913E-25 3.88842E-03 6.83893E-14 4.78652E-13
 -1        93-1.59744E-04 1.89111E-04 3.18833E-25 3.22845E-03 8.56430E-14 4.06873E-13
 -1        94-1.90083E-04 2.63213E-04-3.43175E-26 2.07439E-03 7.35144E-14 7.20435E-14
 -1        95-2.21397E-04 3.28264E-04 1.30314E-25 8.46941E-04 8.13033E-14-2.73387E-13
 -1        96-2.48284E-04 3.81634E-04 3.57750E-25 3.98526E-05 8.05732E-14-4.17570E-13
 -1        97-2.51135E-04 4.23930E-04 2.44633E-25-1.82673E-04 3.51309E-14-3.59361E-13
 -1        98-2.65857E-04 4.57712E-04-1.07144E-26 4.18917E-05 9.81938E-15-9.29533E-14
 -1        99-2.63799E-04 4.67159E-04 1.23773E-26 3.81217E-04 2.24723E-14 1.19726E-13
 -1       100-2.53894E-04 4.62751E-04 1.34367E-25 4.44715E-04 1.90365E-14 2.62978E-13
 -1       101-2.61014E-04 4.76492E-04 8.53710E-26 1.05856E-04 7.12557E-15 2.12690E-13
 -1       102-2.65081E-04 5.00898E-04-7.76641E-27-3.97356E-04-5.87315E-15 5.47290E-14
 -1       103-2.58428E-04 5.13162E-04 2.13225E-26-7.30736E-04-2.38874E-14-1.25381E-13
 -1       104-2.49471E-04 5.03758E-04 1.06855E-25-7.71078E-04-3.07389E-14-2.32663E-13
 -1       105-2.22403E-04 4.67834E-04 7.52104E-26-6.30957E-04-2.33555E-14-1.93699E-13
 -1       106-1.71306E-04 4.14087E-04 4.69263E-26-4.18097E-04 3.69532E-15-1.57875E-13
 -1       107-1.18711E-04 3.64467E-04 1.16309E-25-2.00192E-04 1.15093E-14-2.46668E-13
 -1       108-1.18711E-04 3.64467E-04 1.16313E-25-2.00192E-04 1.15076E-14-2.46669E-13
 -1       109-1.71306E-04 4.14087E-04 4.69326E-26-4.18097E-04 3.69558E-15-1.57884E-13
 -1       110-2.22403E-04 4.67834E-04 7.52215E-26-6.30957E-04-2.33561E-14-1.93714E-13
 -1       111-2.49471E-04 5.03758E-04 1.06830E-25-7.71078E-04-3.07366E-14-2.32634E-13
 -1       112-2.58428E-04 5.13162E-04 2.13308E-26-7.30736E-04-2.38884E-14-1.25393E-13
 -1       113-2.65081E-04 5.00898E-04-7.76453E-27-3.97356E-04-5.87257E-15 5.47346E-14
 -1       114-2.61014E-04 4.76492E-04 8.53704E-26 1.05856E-04 7.12517E-15 2.12687E-13
 -1       115-2.53894E-04 4.62751E-04 1.34359E-25 4.44715E-04 1.90355E-14 2.62970E-13
 -1       116-2.63799E-04 4.67159E-04 1.23838E-26 3.81217E-04 2.24742E-14 1.19738E-13
 -1       117-2.65857E-04 4.57712E-04-1.07156E-26 4.18917E-05 9.81942E-15-9.29532E-14
 -1       118-2.51135E-04 4.23930E-04 2.44635E-25-1.82673E-04 3.51307E-14-3.59362E-13
 -1       119-2.48284E-04 3.81634E-04 3.57751E-25 3.98526E-05 8.05732E-14-4.17571E-13
 -1       120-2.21397E-04 3.28264E-04 1.30308E-25 8.46941E-04 8.13043E-14-2.73379E-13
 -1       121-1.90083E-04 2.63213E-04-3.43142E-26 2.07439E-03 7.35145E-14 7.20430E-14
 -1       122-1.59744E-04 1.89111E-04 3.18829E-25 3.22845E-03 8.56423E-14 4.06869E-13
 -1       123-1.72244E-04 9.66847E-05 4.60913E-25 3.88842E-03 6.83896E-14 4.78652E-13
 -1       124-2.23612E-04-1.89916E-05 1.59892E-25 4.14925E-03 3.79190E-14 2.97742E-13
 -1       125-3.50843E-04-1.75805E-04-9.51891E-27 4.79036E-03 6.05593E-15 5.49694E-14
 -1       126-2.91726E-04-6.20633E-04 4.65061E-28 4.39211E-03-1.04045E-14-3.45309E-14
 -3
    1PSTEP                       160          40           1          
  100CL  140 4.00000E-01         126                     1   40           1
 -4  ERROR       1    1
 -5  STR(%)      1    1    0    0
 -1         1 6.61348E+01
 -1         2 6.61348E+01
 -1         3 2.01938E+01
 -1         4 2.01938E+01
 -1         5 9.16079E+00
 -1         6 9.16079E+00
 -1         7 6.11740E+01
 -1         8 6.11740E+01
 -1         9 2.01938E+01
 -1        10 2.01938E+01
 -1        11 6.61348E+01
 -1        12 6.61348E+01
 -1        13 6.61348E+01
 -1        14 6.32417E+01
 -1        15 6.26025E+01
 -1        16 5.89137E+01
 -1        17 4.58688E+01
 -1        18 5.19030E+01
 -1        19 6.52228E+01
 -1        20 6.63288E+01
 -1        21 6.75136E+01
 -1        22 6.91072E+01
 -1        23 6.91072E+01
 -1        24 6.87732E+01
 -1        25 6.63184E+01
 -1        26 6.86877E+01
 -1        27 6.95245E+01
 -1        28 6.95245E+01
 -1        29 6.80980E+01
 -1        30 6.55777E+01
 -1        31 6.55777E+01
 -1        32 6.61348E+01
 -1        33 6.32417E+01
 -1        34 6.26025E+01
 -1        35 5.89137E+01
 -1        36 4.58688E+01
 -1        37 5.19030E+01
 -1        38 6.52228E+01
 -1        39 6.63288E+01
 -1        40 6.75136E+01
 -1        41 6.91072E+01
 -1        42 6.91072E+01
 -1        43 6.87732E+01
 -1        44 6.63184E+01
 -1        45 6.86877E+01
 -1        46 6.95245E+01
 -1        47 6.95245E+01
 -1        48 6.80980E+01
 -1        49 6.55777E+01
 -1        50 6.55777E+01
 -1        51 2.03255E+01
 -1        52 3.75337E+01
 -1        53 4.78283E+01
 -1        54 5.32943E+01
 -1        55 5.59190E+01
 -1        56 5.59190E+01
 -1        57 5.61943E+01
 -1        58 5.61943E+01
 -1        59 5.58051E+01
 -1        60 5.37661E+01
 -1        61 5.54562E+01
 -1        62 5.62791E+01
 -1        63 5.62791E+01
 -1        64 4.70543E+01
 -1        65 4.55753E+01
 -1        66 5.79959E+01
 -1        67 6.07176E+01
 -1        68 6.07176E+01
 -1        69 6.11740E+01
 -1        70 2.03255E+01
 -1        71 3.75337E+01
 -1        72 4.78283E+01
 -1        73 5.32943E+01
 -1        74 5.59190E+01
 -1        75 5.59190E+01
 -1        76 5.61943E+01
 -1        77 5.61943E+01
 -1        78 5.58051E+01
 -1        79 5.37661E+01
 -1        80 5.54562E+01
 -1        81 5.62791E+01
 -1        82 5.62791E+01
 -1        83 4.70543E+01
 -1        84 4.55753E+01
 -1        85 5.79959E+01
 -1        86 6.07176E+01
 -1        87 6.07176E+01
 -1        88 6.11740E+01
 -1        89 6.61348E+01
 -1        90 6.32417E+01
 -1        91 6.26025E+01
 -1        92 5.89137E+01
 -1        93 4.58688E+01
 -1        94 5.19030E+01
 -1        95 6.52228E+01
 -1        96 6.63288E+01
 -1        97 6.75136E+01
 -1        98 6.91072E+01
 -1        99 6.91072E+01
 -1       100 6.87732E+01
 -1       101 6.63184E+01
 -1       102 6.86877E+01
 -1       103 6.95245E+01
 -1       104 6.95245E+01
 -1       105 6.80980E+01
 -1       106 6.55777E+01
 -1       107 6.55777E+01
 -1       108 6.55777E+01
 -1       109 6.55777E+01
 -1       110 6.80980E+01
 -1       111 6.95245E+01
 -1       112 6.95245E+01
 -1       113 6.86877E+01
 -1       114 6.63184E+01
 -1       115 6.87732E+01
 -1       116 6.91072E+01
 -1       117 6.91072E+01
 -1       118 6.75136E+01
 -1       119 6.63288E+01
 -1       120 6.52228E+01
 -1       121 5.19030E+01
 -1       122 4.58688E+01
 -1       123 5.89137E+01
 -1       124 6.26025E+01
 -1       125 6.32417E+01
 -1       126 6.61348E+01
 -3
    1PSTEP                       161          41           1          
  100CL  141 4.10000E-01         126                     1   41           1
 -4  DISP        4    1
 -5  D1          1    2    1    0
 -5  D2          1    2    2    0
 -5  D3          1    2    3    0
 -5  ALL         1    2    0    0    1ALL
 -1         1 0.00000E+00 0.00000E+00 0.00000E+00
 -1         2 0.00000E+00 0.00000E+00 0.00000E+00
 -1         3 1.00546E-01-9.20887E-04 0.00000E+00
 -1         4 1.00546E-01-9.20887E-04 0.00000E+00
 -1         5 1.00224E-01-8.87324E-03 0.00000E+00
 -1         6 1.00224E-01-8.87324E-03 0.00000E+00
 -1         7 0.00000E+00 0.00000E+00 0.00000E+00
 -1         8 0.00000E+00 0.00000E+00 0.00000E+00
 -1         9 1.00384E-01-4.88911E-03 0.00000E+00
 -1        10 1.00384E-01-4.88911E-03 0.00000E+00
 -1        11 0.00000E+00 0.00000E+00 0.00000E+00
 -1        12 0.00000E+00 0.00000E+00 0.00000E+00
 -1        13 1.97122E-03 2.05554E-03 0.00000E+00
 -1        14 5.53284E-03 3.67850E-03 0.00000E+00
 -1        15 1.06215E-02 4.68602E-03 0.00000E+00
 -1        16 1.66607E-02 5.17402E-03 0.00000E+00
 -1        17 2.32546E-02 5.22335E-03 0.00000E+00
 -1        18 3.00572E-02 4.92266E-03 0.00000E+00
 -1        19 3.67480E-02 4.37619E-03 0.00000E+00
 -1        20 4.31040E-02 3.72041E-03 0.00000E+00
 -1        21 4.90607E-02 3.09252E-03 0.00000E+00
 -1        22 5.47167E-02 2.56364E-03 0.00000E+00
 -1        23 6.02030E-02 2.11466E-03 0.00000E+00
 -1        24 6.55712E-02 1.68122E-03 0.00000E+00
 -1        25 7.07551E-02 1.22235E-03 0.00000E+00
 -1        26 7.56665E-02 7.46263E-04 0.00000E+00
 -1        27 8.02585E-02 2.93869E-04 0.00000E+00
 -1        28 8.45595E-02-9.20447E-05 0.00000E+00
 -1        29 8.86514E-02-3.89687E-04 0.00000E+00
 -1        30 9.26355E-02-6.07696E-04 0.00000E+00
 -1        31 9.65847E-02-7.73049E-04 0.00000E+00
 -1        32 1.97122E-03 2.05554E-03 0.00000E+00
 -1        33 5.53284E-03 3.67850E-03 0.00000E+00
 -1        34 1.06215E-02 4.68602E-03 0.00000E+00
 -1        35 1.66607E-02 5.17402E-03 0.00000E+00
 -1        36 2.32546E-02 5.22335E-03 0.00000E+00
 -1        37 3.00572E-02 4.92266E-03 0.00000E+00
 -1        38 3.67480E-02 4.37619E-03 0.00000E+00
 -1        39 4.31040E-02 3.72041E-03 0.00000E+00
 -1        40 4.90607E-02 3.09252E-03 0.00000E+00
 -1        41 5.47167E-02 2.56364E-03 0.00000E+00
 -1        42 6.02030E-02 2.11466E-03 0.00000E+00
 -1        43 6.55712E-02 1.68122E-03 0.00000E+00
 -1        44 7.07551E-02 1.22235E-03 0.00000E+00
 -1        45 7.56665E-02 7.46263E-04 0.00000E+00
 -1        46 8.02585E-02 2.93869E-04 0.00000E+00
 -1        47 8.45595E-02-9.20447E-05 0.00000E+00
 -1        48 8.86514E-02-3.89687E-04 0.00000E+00
 -1        49 9.26355E-02-6.07696E-04 0.00000E+00
 -1        50 9.65847E-02-7.73049E-04 0.00000E+00
 -1        51 9.62562E-02-8.73123E-03 0.00000E+00
 -1        52 9.22962E-02-8.62653E-03 0.00000E+00
 -1        53 8.82925E-02-8.58121E-03 0.00000E+00
 -1        54 8.41666E-02-8.60784E-03 0.00000E+00
 -1        55 7.98197E-02-8.69356E-03 0.00000E+00
 -1        56 7.51755E-02-8.79585E-03 0.00000E+00
 -1        57 7.02117E-02-8.86049E-03 0.00000E+00
 -1        58 6.49819E-02-8.85160E-03 0.00000E+00
 -1        59 5.95781E-02-8.77578E-03 0.00000E+00
 -1        60 5.40506E-02-8.68484E-03 0.00000E+00
 -1        61 4.83395E-02-8.63103E-03 0.00000E+00
 -1        62 4.23132E-02-8.60043E-03 0.00000E+00
 -1        63 3.58888E-02-8.49499E-03 0.00000E+00
 -1        64 2.91644E-02-8.19526E-03 0.00000E+00
 -1        65 2.23990E-02-7.62681E-03 0.00000E+00
 -1        66 1.59187E-02-6.76843E-03 0.00000E+00
 -1        67 1.00628E-02-5.60720E-03 0.00000E+00
 -1        68 5.19260E-03-4.11412E-03 0.00000E+00
 -1        69 1.85109E-03-2.20658E-03 0.00000E+00
 -1        70 9.62562E-02-8.73123E-03 0.00000E+00
 -1        71 9.22962E-02-8.62653E-03 0.00000E+00
 -1        72 8.82925E-02-8.58121E-03 0.00000E+00
 -1        73 8.41666E-02-8.60784E-03 0.00000E+00
 -1        74 7.98197E-02-8.69356E-03 0.00000E+00
 -1        75 7.51755E-02-8.79585E-03 0.00000E+00
 -1        76 7.02117E-02-8.86049E-03 0.00000E+00
 -1        77 6.49819E-02-8.85160E-03 0.00000E+00
 -1        78 5.95781E-02-8.77578E-03 0.00000E+00
 -1        79 5.40506E-02-8.68484E-03 0.00000E+00
 -1        80 4.83395E-02-8.63103E-03 0.00000E+00
 -1        81 4.23132E-02-8.60043E-03 0.00000E+00
 -1        82 3.58888E-02-8.49499E-03 0.00000E+00
 -1        83 2.91644E-02-8.19526E-03 0.00000E+00
 -1        84 2.23990E-02-7.62681E-03 0.00000E+00
 -1        85 1.59187E-02-6.76843E-03 0.00000E+00
 -1        86 1.00628E-02-5.60720E-03 0.00000E+00
 -1        87 5.19260E-03-4.11412E-03 0.00000E+00
 -1        88 1.85109E-03-2.20658E-03 0.00000E+00
 -1        89 1.38169E-03-5.13900E-05 0.00000E+00
 -1        90 5.05479E-03-1.85200E-04 0.00000E+00
 -1        91 1.01151E-02-4.30980E-04 0.00000E+00
 -1        92 1.61516E-02-7.77873E-04 0.00000E+00
 -1        93 2.27614E-02-1.19253E-03 0.00000E+00
 -1        94 2.96067E-02-1.63578E-03 0.00000E+00
 -1        95 3.63612E-02-2.06534E-03 0.00000E+00
 -1        96 4.27701E-02-2.44832E-03 0.00000E+00
 -1        97 4.87551E-02-2.77593E-03 0.00000E+00
 -1        98 5.44214E-02-3.06449E-03 0.00000E+00
 -1        99 5.99231E-02-3.33421E-03 0.00000E+00
 -1       100 6.53155E-02-3.58976E-03 0.00000E+00
 -1       101 7.05336E-02-3.82435E-03 0.00000E+00
 -1       102 7.54761E-02-4.03006E-03 0.00000E+00
 -1       103 8.00924E-02-4.20378E-03 0.00000E+00
 -1       104 8.44034E-02-4.35152E-03 0.00000E+00
 -1       105 8.84953E-02-4.48559E-03 0.00000E+00
 -1       106 9.24737E-02-4.61630E-03 0.00000E+00
 -1       107 9.64212E-02-4.74969E-03 0.00000E+00
 -1       108 9.64212E-02-4.74969E-03 0.00000E+00
 -1       109 9.24737E-02-4.61630E-03 0.00000E+00
 -1       110 8.84953E-02-4.48559E-03 0.00000E+00
 -1       111 8.44034E-02-4.35152E-03 0.00000E+00
 -1       112 8.00924E-02-4.20378E-03 0.00000E+00
 -1       113 7.54761E-02-4.03006E-03 0.00000E+00
 -1       114 7.05336E-02-3.82435E-03 0.00000E+00
 -1       115 6.53155E-02-3.58976E-03 0.00000E+00
 -1       116 5.99231E-02-3.33421E-03 0.00000E+00
 -1       117 5.44214E-02-3.06449E-03 0.00000E+00
 -1       118 4.87551E-02-2.77593E-03 0.00000E+00
 -1       119 4.27701E-02-2.44832E-03 0.00000E+00
 -1       120 3.63612E-02-2.06534E-03 0.00000E+00
 -1       121 2.96067E-02-1.63578E-03 0.00000E+00
 -1       122 2.27614E-02-1.19253E-03 0.00000E+00
 -1       123 1.61516E-02-7.77873E-04 0.00000E+00
 -1       124 1.01151E-02-4.30980E-04 0.00000E+00
 -1       125 5.05479E-03-1.85200E-04 0.00000E+00
 -1       126 1.38169E-03-5.13900E-05 0.00000E+00
 -3
    1PSTEP                       162          41           1          
  100CL  141 4.10000E-01         126                     1   41           1
 -4  STRESS      6    1
 -5  SXX         1    4    1    1
 -5  SYY         1    4    2    2
 -5  SZZ         1    4    3    3
 -5  SXY         1    4    1    2
 -5  SYZ         1    4    2    3
 -5  SZX         1    4    3    1
 -1         1 9.89130E+03 2.35707E+04 9.47002E+03 6.87875E+03-3.01557E-11 3.91518E-11
 -1         2 9.89130E+03 2.35707E+04 9.47002E+03 6.87875E+03-3.01557E-11 3.91518E-11
 -1         3-3.59835E+00 8.50581E+01 2.44283E+01-1.93635E+01 2.37902E-08-5.80273E-08
 -1         4-3.59835E+00 8.50581E+01 2.44283E+01-1.93635E+01 2.37902E-08-5.80300E-08
 -1         5 5.83634E+01 1.73909E+02 6.96408E+01-4.49680E+01-1.62987E-08-6.84614E-08
 -1         6 5.83634E+01 1.73909E+02 6.96408E+01-4.49680E+01-1.62987E-08-6.84589E-08
 -1         7-9.91100E+03-2.22254E+04-1.02513E+04 4.91816E+03-1.46412E-11-1.52333E-11
 -1         8-9.91100E+03-2.22254E+04-1.02513E+04 4.91816E+03-1.46412E-11-1.52333E-11
 -1         9 5.11102E+01 1.87851E+02 7.16417E+01-3.63848E+01-1.23021E-09-7.51406E-08
 -1        10 5.11102E+01 1.87851E+02 7.16417E+01-3.63848E+01-1.23021E-09-7.51354E-08
 -1        11 1.59198E+01-7.22462E+02-1.48939E+02 4.23001E+03-4.15045E-11 2.71502E-11
 -1        12 1.59198E+01-7.22462E+02-1.48939E+02 4.23001E+03-4.15045E-11 2.71502E-11
 -1        13 3.29834E+03 1.89845E+04 6.35527E+03 2.51567E+03 1.01296E-08-4.95525E-09
 -1        14 3.69727E+03 1.50619E+04 5.40678E+03 1.95644E+03 2.34779E-08 8.78889E-09
 -1        15 2.57684E+03 1.02502E+04 3.73810E+03 1.83964E+03 4.19420E-08 3.61871E-08
 -1        16 1.71425E+03 6.30900E+03 2.36032E+03 1.43830E+03 4.45671E-08 1.04757E-07
 -1        17 8.67088E+02 2.91358E+03 1.12021E+03 1.02129E+03 1.70723E-08 1.54568E-07
 -1        18 1.11922E+02 1.26601E+02 6.85360E+01 5.87327E+02-2.04902E-08 1.56609E-07
 -1        19-4.06376E+02-1.77182E+03-6.57638E+02 1.64557E+02-3.98986E-08 1.05392E-07
 -1        20-6.87491E+02-2.54313E+03-9.75974E+02-1.53464E+02-2.76371E-08 6.85257E-08
 -1        21-7.15490E+02-2.32423E+03-9.17402E+02-2.86104E+02-8.45162E-09 5.42285E-08
 -1        22-6.13042E+02-1.75027E+03-7.11847E+02-2.39499E+02-1.32534E-09 1.70404E-08
 -1        23-4.92078E+02-1.45938E+03-5.87143E+02-1.19519E+02-7.41657E-09-5.74653E-09
 -1        24-5.17968E+02-1.67979E+03-6.61769E+02-4.60521E+01-8.09233E-09-3.70931E-08
 -1        25-6.08896E+02-2.10484E+03-8.18248E+02-7.29243E+01-1.69475E-09-5.86726E-08
 -1        26-6.94314E+02-2.34475E+03-9.16985E+02-1.54561E+02-7.28205E-09-3.57899E-08
 -1        27-6.49706E+02-2.16129E+03-8.47857E+02-2.24957E+02-2.67401E-08-4.74186E-08
 -1        28-5.17141E+02-1.61634E+03-6.42685E+02-2.40600E+02-3.81302E-08-8.92605E-08
 -1        29-3.34951E+02-9.27913E+02-3.79794E+02-2.02537E+02-1.93777E-08-1.34052E-07
 -1        30-1.86524E+02-3.48956E+02-1.60828E+02-1.35736E+02 5.06281E-09-1.10104E-07
 -1        31-6.52707E+01-1.22795E+01-2.32831E+01-6.45583E+01 1.81862E-08-7.99487E-08
 -1        32 3.29834E+03 1.89845E+04 6.35527E+03 2.51567E+03 1.01296E-08-4.95525E-09
 -1        33 3.69727E+03 1.50619E+04 5.40678E+03 1.95644E+03 2.34778E-08 8.78889E-09
 -1        34 2.57684E+03 1.02502E+04 3.73810E+03 1.83964E+03 4.19421E-08 3.61869E-08
 -1        35 1.71425E+03 6.30900E+03 2.36032E+03 1.43830E+03 4.45671E-08 1.04757E-07
 -1        36 8.67088E+02 2.91358E+03 1.12021E+03 1.02129E+03 1.70723E-08 1.54568E-07
 -1        37 1.11922E+02 1.26601E+02 6.85360E+01 5.87327E+02-2.04903E-08 1.56608E-07
 -1        38-4.06376E+02-1.77182E+03-6.57638E+02 1.64557E+02-3.98981E-08 1.05393E-07
 -1        39-6.87491E+02-2.54313E+03-9.75974E+02-1.53464E+02-2.76371E-08 6.85258E-08
 -1        40-7.15490E+02-2.32423E+03-9.17402E+02-2.86104E+02-8.45156E-09 5.42281E-08
 -1        41-6.13042E+02-1.75027E+03-7.11847E+02-2.39499E+02-1.32535E-09 1.70414E-08
 -1        42-4.92078E+02-1.45938E+03-5.87143E+02-1.19519E+02-7.41663E-09-5.74653E-09
 -1        43-5.17968E+02-1.67979E+03-6.61769E+02-4.60521E+01-8.09231E-09-3.70931E-08
 -1        44-6.08896E+02-2.10484E+03-8.18248E+02-7.29243E+01-1.69475E-09-5.86736E-08
 -1        45-6.94314E+02-2.34475E+03-9.16985E+02-1.54561E+02-7.28204E-09-3.57865E-08
 -1        46-6.49706E+02-2.16129E+03-8.47857E+02-2.24957E+02-2.67401E-08-4.74186E-08
 -1        47-5.17141E+02-1.61634E+03-6.42685E+02-2.40600E+02-3.81302E-08-8.92587E-08
 -1        48-3.34951E+02-9.27913E+02-3.79794E+02-2.02537E+02-1.93777E-08-1.34061E-07
 -1        49-1.86524E+02-3.48956E+02-1.60828E+02-1.35736E+02 5.06284E-09-1.10106E-07
 -1        50-6.52707E+01-1.22795E+01-2.32831E+01-6.45583E+01 1.81861E-08-7.99426E-08
 -1        51 8.13858E+01 3.45844E+02 1.27992E+02-4.35894E+01-2.19787E-08-1.01434E-07
 -1        52 1.95390E+02 8.40510E+02 3.09918E+02-6.20345E+01-2.11636E-08-9.82146E-08
 -1        53 3.29910E+02 1.53970E+03 5.58256E+02-4.60900E+01 4.26985E-09-1.17633E-07
 -1        54 4.82716E+02 2.30591E+03 8.30929E+02 1.58894E+01 2.85072E-08-7.56560E-08
 -1        55 6.10904E+02 2.87964E+03 1.03849E+03 1.20363E+02 2.98140E-08-3.81807E-08
 -1        56 6.90424E+02 3.04748E+03 1.11162E+03 2.32512E+02 1.95369E-08-3.08752E-08
 -1        57 6.39244E+02 2.76596E+03 1.01342E+03 2.97301E+02 1.88923E-08-4.14573E-08
 -1        58 5.45075E+02 2.30740E+03 8.50141E+02 2.64965E+02 3.27651E-08-2.95950E-08
 -1        59 4.94081E+02 2.09201E+03 7.71450E+02 1.62802E+02 3.84708E-08 1.21928E-08
 -1        60 5.43748E+02 2.38669E+03 8.73371E+02 1.00941E+02 3.45825E-08 3.53239E-08
 -1        61 6.38699E+02 2.93560E+03 1.06325E+03 1.78377E+02 3.64943E-08 4.56812E-08
 -1        62 7.09705E+02 3.05491E+03 1.11895E+03 3.75416E+02 4.60103E-08 6.64349E-08
 -1        63 5.67810E+02 2.11335E+03 7.97714E+02 5.52440E+02 3.73953E-08 1.23873E-07
 -1        64 1.50105E+02 5.34167E+01 5.80708E+01 5.68640E+02 7.79475E-09 1.54154E-07
 -1        65-5.25395E+02-2.78944E+03-1.00538E+03 4.31017E+02-2.94670E-08 1.55205E-07
 -1        66-1.37378E+03-6.13514E+03-2.29392E+03 2.47644E+02-4.93418E-08 9.54188E-08
 -1        67-2.30700E+03-9.92647E+03-3.77515E+03 1.55115E+02-3.53832E-08 2.54240E-08
 -1        68-3.77476E+03-1.44875E+04-5.70607E+03 8.74898E+01-1.42255E-08 1.21171E-08
 -1        69-3.40998E+03-1.80041E+04-6.77523E+03 9.38502E+02-3.24183E-09-2.55907E-09
 -1        70 8.13858E+01 3.45844E+02 1.27992E+02-4.35894E+01-2.19786E-08-1.01441E-07
 -1        71 1.95390E+02 8.40510E+02 3.09918E+02-6.20345E+01-2.11645E-08-9.82064E-08
 -1        72 3.29910E+02 1.53970E+03 5.58256E+02-4.60900E+01 4.27002E-09-1.17636E-07
 -1        73 4.82716E+02 2.30591E+03 8.30929E+02 1.58894E+01 2.85073E-08-7.56567E-08
 -1        74 6.10904E+02 2.87964E+03 1.03849E+03 1.20363E+02 2.98141E-08-3.81795E-08
 -1        75 6.90424E+02 3.04748E+03 1.11162E+03 2.32512E+02 1.95369E-08-3.08751E-08
 -1        76 6.39244E+02 2.76596E+03 1.01342E+03 2.97301E+02 1.88922E-08-4.14596E-08
 -1        77 5.45075E+02 2.30740E+03 8.50141E+02 2.64965E+02 3.27642E-08-2.95950E-08
 -1        78 4.94081E+02 2.09201E+03 7.71450E+02 1.62802E+02 3.84712E-08 1.21933E-08
 -1        79 5.43748E+02 2.38669E+03 8.73371E+02 1.00941E+02 3.45834E-08 3.53274E-08
 -1        80 6.38699E+02 2.93560E+03 1.06325E+03 1.78377E+02 3.64941E-08 4.56794E-08
 -1        81 7.09705E+02 3.05491E+03 1.11895E+03 3.75416E+02 4.60103E-08 6.64358E-08
 -1        82 5.67810E+02 2.11335E+03 7.97714E+02 5.52440E+02 3.73953E-08 1.23870E-07
 -1        83 1.50105E+02 5.34167E+01 5.80708E+01 5.68640E+02 7.79389E-09 1.54154E-07
 -1        84-5.25395E+02-2.78944E+03-1.00538E+03 4.31017E+02-2.94670E-08 1.55205E-07
 -1        85-1.37378E+03-6.13514E+03-2.29392E+03 2.47644E+02-4.93418E-08 9.54186E-08
 -1        86-2.30700E+03-9.92647E+03-3.77515E+03 1.55115E+02-3.53827E-08 2.54249E-08
 -1        87-3.77476E+03-1.44875E+04-5.70607E+03 8.74898E+01-1.42255E-08 1.21170E-08
 -1        88-3.40998E+03-1.80041E+04-6.77523E+03 9.38502E+02-3.24182E-09-2.55906E-09
 -1        89 9.31074E+01-6.66687E+02-1.52036E+02 1.19447E+03 3.99773E-09-5.64168E-09
 -1        90 1.49561E+02-4.39372E+02-5.94842E+01 1.41856E+03-3.99252E-12 5.91075E-09
 -1        91 2.28114E+02-2.52740E+02 2.53473E+00 1.21223E+03-1.69121E-09 2.59010E-08
 -1        92 2.42527E+02-1.26494E+02 3.72543E+01 1.06634E+03-3.67875E-09 1.01631E-07
 -1        93 2.28575E+02-3.34268E+01 5.73485E+01 9.21473E+02-8.26837E-09 1.61790E-07
 -1        94 1.77569E+02 3.91598E+01 6.33262E+01 7.39233E+02-6.44274E-09 1.62963E-07
 -1        95 1.09079E+02 1.28802E+02 7.04856E+01 4.54833E+02-3.37450E-09 1.18091E-07
 -1        96 1.96052E+01 2.27216E+02 7.40516E+01 1.25552E+02 5.58580E-09 5.96833E-08
 -1        97-4.16690E+01 2.97829E+02 7.73741E+01-9.26080E+01 1.97198E-08 4.65968E-08
 -1        98-4.04420E+01 3.13293E+02 8.24661E+01-1.04892E+02 2.13469E-08 2.67534E-08
 -1        99 6.27231E-01 3.01828E+02 9.12556E+01 2.19843E+01 1.36391E-08 4.43116E-09
 -1       100 2.06431E+01 2.95091E+02 9.52108E+01 1.34641E+02 1.06747E-08-3.67892E-08
 -1       101 2.37431E+01 3.09241E+02 1.00392E+02 1.34668E+02 8.26691E-09-4.80597E-08
 -1       102 4.27980E+00 3.33291E+02 1.01819E+02 4.12086E+01 7.04683E-09-3.06382E-08
 -1       103-1.65354E+01 3.53042E+02 1.01367E+02-7.67323E+01 3.89106E-09-3.84488E-08
 -1       104-2.10951E+01 3.45238E+02 9.74668E+01-1.59160E+02-1.68750E-09-8.43624E-08
 -1       105-1.07006E+01 3.06950E+02 8.89133E+01-1.74490E+02-5.02993E-09-1.27051E-07
 -1       106 8.83096E-01 2.54195E+02 7.64706E+01-1.33473E+02-1.06759E-08-1.11473E-07
 -1       107 2.07036E+01 2.03356E+02 6.71599E+01-6.69206E+01-7.53108E-09-8.81338E-08
 -1       108 2.07036E+01 2.03356E+02 6.71599E+01-6.69206E+01-7.53129E-09-8.81288E-08
 -1       109 8.83096E-01 2.54195E+02 7.64706E+01-1.33473E+02-1.06758E-08-1.11475E-07
 -1       110-1.07006E+01 3.06950E+02 8.89133E+01-1.74490E+02-5.02983E-09-1.27048E-07
 -1       111-2.10951E+01 3.45238E+02 9.74668E+01-1.59160E+02-1.68760E-09-8.43646E-08
 -1       112-1.65354E+01 3.53042E+02 1.01367E+02-7.67323E+01 3.89096E-09-3.84510E-08
 -1       113 4.27980E+00 3.33291E+02 1.01819E+02 4.12086E+01 7.04680E-09-3.06388E-08
 -1       114 2.37431E+01 3.09241E+02 1.00392E+02 1.34668E+02 8.26712E-09-4.80553E-08
 -1       115 2.06431E+01 2.95091E+02 9.52108E+01 1.34641E+02 1.06748E-08-3.67892E-08
 -1       116 6.27231E-01 3.01828E+02 9.12556E+01 2.19843E+01 1.36392E-08 4.43030E-09
 -1       117-4.04420E+01 3.13293E+02 8.24661E+01-1.04892E+02 2.13468E-08 2.67513E-08
 -1       118-4.16690E+01 2.97829E+02 7.73741E+01-9.26080E+01 1.97196E-08 4.65980E-08
 -1       119 1.96052E+01 2.27216E+02 7.40516E+01 1.25552E+02 5.58581E-09 5.96830E-08
 -1       120 1.09079E+02 1.28802E+02 7.04856E+01 4.54833E+02-3.37458E-09 1.18092E-07
 -1       121 1.77569E+02 3.91598E+01 6.33262E+01 7.39233E+02-6.44261E-09 1.62963E-07
 -1       122 2.28575E+02-3.34268E+01 5.73485E+01 9.21473E+02-8.26835E-09 1.61790E-07
 -1       123 2.42527E+02-1.26494E+02 3.72543E+01 1.06634E+03-3.67888E-09 1.01631E-07
 -1       124 2.28114E+02-2.52740E+02 2.53473E+00 1.21223E+03-1.69129E-09 2.59013E-08
 -1       125 1.49561E+02-4.39372E+02-5.94842E+01 1.41856E+03-3.83071E-12 5.91087E-09
 -1       126 9.31074E+01-6.66687E+02-1.52036E+02 1.19447E+03 3.99771E-09-5.64171E-09
 -3
    1PSTEP                       163          41           1          
  100CL  141 4.10000E-01         126                     1   41           1
 -4  TOSTRAIN    6    1
 -5  EXX         1    4    1    1
 -5  EYY         1    4    2    2
 -5  EZZ         1    4    3    3
 -5  EXY         1    4    1    2
 -5  EYZ         1    4    2    3
 -5  EZX         1    4    3    1
 -1         1-1.59368E-04 4.25725E-02-3.90615E-28 1.97119E-02-4.81046E-19 1.82554E-16
 -1         2-1.59368E-04 4.25725E-02-3.90615E-28 1.97119E-02-4.81046E-19 1.82554E-16
 -1         3-7.93499E-05 1.85212E-04 7.80901E-26-8.48884E-05 6.20895E-14-1.94126E-13
 -1         4-7.93499E-05 1.85212E-04 7.80983E-26-8.48884E-05 6.20888E-14-1.94134E-13
 -1         5-1.11627E-05 3.13028E-04 9.99628E-26-1.73933E-04-7.04991E-14-2.17563E-13
 -1         6-1.11627E-05 3.13028E-04 9.99529E-26-1.73933E-04-7.04985E-14-2.17555E-13
 -1         7-1.62342E-04-4.26338E-02-2.44535E-29 1.85105E-02-3.28740E-21-6.79037E-17
 -1         8-1.62342E-04-4.26338E-02-2.44535E-29 1.85105E-02-3.28740E-21-6.79037E-17
 -1         9-4.52563E-05 3.55797E-04 1.16616E-25-1.51798E-04-2.33956E-14-2.43096E-13
 -1        10-4.52563E-05 3.55797E-04 1.16601E-25-1.51798E-04-2.33943E-14-2.43079E-13
 -1        11-1.60855E-04-8.06304E-04-1.45750E-28 1.38166E-02-1.50600E-19 9.21836E-17
 -1        12-1.60855E-04-8.06304E-04-1.45750E-28 1.38166E-02-1.50600E-19 9.21836E-17
 -1        13-1.09645E-02 3.89957E-02 1.62475E-27 5.49345E-03 3.07409E-14-1.76779E-14
 -1        14-6.60735E-03 3.04492E-02 7.78284E-27 3.18459E-03 7.54804E-14 2.19369E-14
 -1        15-4.87838E-03 2.12790E-02 4.40073E-26 3.14040E-03 1.43822E-13 1.01730E-13
 -1        16-3.06168E-03 1.33769E-02 2.46429E-25 2.68327E-03 1.81242E-13 3.19046E-13
 -1        17-1.58696E-03 6.46695E-03 4.98904E-25 2.32387E-03 1.18529E-13 4.90053E-13
 -1        18-3.68324E-04 6.70749E-04 5.19713E-25 1.82977E-03 7.21511E-16 5.13414E-13
 -1        19 5.92081E-04-3.43456E-03 2.56166E-25 1.08863E-03-8.48762E-14 3.56839E-13
 -1        20 9.51985E-04-5.16885E-03 1.07838E-25 2.57133E-04-6.20745E-14 2.32349E-13
 -1        21 7.91294E-04-4.75545E-03 5.72518E-26-2.97255E-04-6.61077E-15 1.78438E-13
 -1        22 4.45067E-04-3.52287E-03 6.34391E-28-3.48225E-04 1.97123E-15 5.55873E-14
 -1        23 3.54561E-04-2.89453E-03-2.74188E-27-3.90957E-05-2.60913E-14-1.59486E-14
 -1        24 4.53546E-04-3.31558E-03 2.67099E-26 2.51034E-04-3.90379E-14-1.17207E-13
 -1        25 6.71290E-04-4.20844E-03 7.02795E-26 2.57565E-04-2.48101E-14-1.89336E-13
 -1        26 7.60396E-04-4.72327E-03 2.56243E-26 1.64498E-05-3.48101E-14-1.13654E-13
 -1        27 7.26437E-04-4.39132E-03 5.52965E-26-2.81796E-04-1.00973E-13-1.45879E-13
 -1        28 5.09479E-04-3.28898E-03 1.87927E-25-4.70498E-04-1.48847E-13-2.78868E-13
 -1        29 2.38123E-04-1.88184E-03 3.81555E-25-4.94175E-04-9.87172E-14-4.29390E-13
 -1        30-1.71566E-05-6.79319E-04 2.52327E-25-3.94036E-04-1.23021E-14-3.58149E-13
 -1        31-1.02328E-04 1.44160E-06 1.36744E-25-2.20895E-04 3.82495E-14-2.63736E-13
 -1        32-1.09645E-02 3.89957E-02 1.62475E-27 5.49345E-03 3.07409E-14-1.76779E-14
 -1        33-6.60735E-03 3.04492E-02 7.78283E-27 3.18459E-03 7.54803E-14 2.19369E-14
 -1        34-4.87838E-03 2.12790E-02 4.40069E-26 3.14040E-03 1.43822E-13 1.01729E-13
 -1        35-3.06168E-03 1.33769E-02 2.46429E-25 2.68327E-03 1.81242E-13 3.19046E-13
 -1        36-1.58696E-03 6.46695E-03 4.98904E-25 2.32387E-03 1.18529E-13 4.90053E-13
 -1        37-3.68324E-04 6.70749E-04 5.19707E-25 1.82977E-03 7.20849E-16 5.13410E-13
 -1        38 5.92081E-04-3.43456E-03 2.56170E-25 1.08863E-03-8.48744E-14 3.56842E-13
 -1        39 9.51985E-04-5.16885E-03 1.07838E-25 2.57133E-04-6.20745E-14 2.32349E-13
 -1        40 7.91294E-04-4.75545E-03 5.72511E-26-2.97255E-04-6.61076E-15 1.78437E-13
 -1        41 4.45067E-04-3.52287E-03 6.35655E-28-3.48225E-04 1.97154E-15 5.55904E-14
 -1        42 3.54561E-04-2.89453E-03-2.74190E-27-3.90957E-05-2.60915E-14-1.59486E-14
 -1        43 4.53546E-04-3.31558E-03 2.67099E-26 2.51034E-04-3.90378E-14-1.17207E-13
 -1        44 6.71290E-04-4.20844E-03 7.02810E-26 2.57565E-04-2.48104E-14-1.89339E-13
 -1        45 7.60396E-04-4.72327E-03 2.56185E-26 1.64498E-05-3.48090E-14-1.13643E-13
 -1        46 7.26437E-04-4.39132E-03 5.52965E-26-2.81796E-04-1.00973E-13-1.45879E-13
 -1        47 5.09479E-04-3.28898E-03 1.87919E-25-4.70498E-04-1.48847E-13-2.78862E-13
 -1        48 2.38123E-04-1.88184E-03 3.81604E-25-4.94175E-04-9.87197E-14-4.29420E-13
 -1        49-1.71566E-05-6.79319E-04 2.52326E-25-3.94036E-04-1.23023E-14-3.58153E-13
 -1        50-1.02328E-04 1.44160E-06 1.36719E-25-2.20895E-04 3.82509E-14-2.63716E-13
 -1        51-1.23692E-04 6.78733E-04 2.24583E-25-2.07543E-04-9.73694E-14-3.22916E-13
 -1        52-3.27100E-04 1.67198E-03 2.10789E-25-3.64936E-04-9.39498E-14-3.12604E-13
 -1        53-6.93474E-04 3.11793E-03 2.86609E-25-4.65465E-04-1.74376E-14-3.81967E-13
 -1        54-1.10322E-03 4.71470E-03 1.28020E-25-4.47694E-04 7.09139E-14-2.52633E-13
 -1        55-1.40981E-03 5.92589E-03 4.42269E-26-2.72147E-04 8.47037E-14-1.32139E-13
 -1        56-1.45376E-03 6.28894E-03 2.71341E-26 1.40301E-05 5.32243E-14-1.05844E-13
 -1        57-1.34794E-03 5.75472E-03 4.25499E-26 2.50194E-04 4.71723E-14-1.40133E-13
 -1        58-1.11219E-03 4.80714E-03 3.53398E-26 2.39371E-04 9.51531E-14-1.06825E-13
 -1        59-9.56179E-04 4.30813E-03 2.73923E-26-4.52060E-05 1.27853E-13 2.57694E-14
 -1        60-1.07266E-03 4.86892E-03 4.90863E-26-3.45800E-04 1.23776E-13 1.01433E-13
 -1        61-1.42287E-03 6.04694E-03 6.95165E-26-3.02399E-04 1.34111E-13 1.33482E-13
 -1        62-1.53020E-03 6.39689E-03 1.23880E-25 2.47299E-04 1.73552E-13 1.95574E-13
 -1        63-1.13780E-03 4.60567E-03 3.37095E-25 1.08632E-03 1.71298E-13 3.82985E-13
 -1        64-2.00354E-04 4.57532E-04 4.96237E-25 1.82672E-03 9.07722E-14 4.93053E-13
 -1        65 1.05476E-03-5.38965E-03 5.16960E-25 2.32360E-03-3.04239E-14 5.13222E-13
 -1        66 2.51665E-03-1.23739E-02 2.23407E-25 2.69822E-03-1.24344E-13 3.28409E-13
 -1        67 4.27453E-03-2.04219E-02 2.84424E-26 3.18622E-03-1.08895E-13 9.50023E-14
 -1        68 5.76621E-03-3.00110E-02 5.45290E-27 3.21839E-03-4.48779E-14 4.33251E-14
 -1        69 1.02253E-02-3.89656E-02-4.68512E-28 5.54122E-03-1.13943E-14-7.83730E-15
 -1        70-1.23692E-04 6.78733E-04 2.24610E-25-2.07543E-04-9.73707E-14-3.22938E-13
 -1        71-3.27100E-04 1.67198E-03 2.10753E-25-3.64936E-04-9.39505E-14-3.12577E-13
 -1        72-6.93474E-04 3.11793E-03 2.86624E-25-4.65465E-04-1.74379E-14-3.81978E-13
 -1        73-1.10322E-03 4.71470E-03 1.28022E-25-4.47694E-04 7.09139E-14-2.52636E-13
 -1        74-1.40981E-03 5.92589E-03 4.42245E-26-2.72147E-04 8.47042E-14-1.32135E-13
 -1        75-1.45376E-03 6.28894E-03 2.71337E-26 1.40301E-05 5.32243E-14-1.05844E-13
 -1        76-1.34794E-03 5.75472E-03 4.25542E-26 2.50194E-04 4.71712E-14-1.40140E-13
 -1        77-1.11219E-03 4.80714E-03 3.53387E-26 2.39371E-04 9.51502E-14-1.06825E-13
 -1        78-9.56179E-04 4.30813E-03 2.73931E-26-4.52060E-05 1.27855E-13 2.57707E-14
 -1        79-1.07266E-03 4.86892E-03 4.90931E-26-3.45800E-04 1.23780E-13 1.01444E-13
 -1        80-1.42287E-03 6.04694E-03 6.95133E-26-3.02399E-04 1.34110E-13 1.33476E-13
 -1        81-1.53020E-03 6.39689E-03 1.23884E-25 2.47299E-04 1.73552E-13 1.95577E-13
 -1        82-1.13780E-03 4.60567E-03 3.37079E-25 1.08632E-03 1.71296E-13 3.82974E-13
 -1        83-2.00354E-04 4.57532E-04 4.96236E-25 1.82672E-03 9.07693E-14 4.93052E-13
 -1        84 1.05476E-03-5.38965E-03 5.16960E-25 2.32360E-03-3.04238E-14 5.13221E-13
 -1        85 2.51665E-03-1.23739E-02 2.23407E-25 2.69822E-03-1.24344E-13 3.28409E-13
 -1        86 4.27453E-03-2.04219E-02 2.84432E-26 3.18622E-03-1.08893E-13 9.50050E-14
 -1        87 5.76621E-03-3.00110E-02 5.45289E-27 3.21839E-03-4.48781E-14 4.33249E-14
 -1        88 1.02253E-02-3.89656E-02-4.68512E-28 5.54122E-03-1.13943E-14-7.83725E-15
 -1        89-3.69567E-04-4.43249E-04 5.87360E-28 3.97219E-03 1.23650E-14-1.89966E-14
 -1        90-4.20572E-04 4.24611E-05-1.39515E-27 4.70315E-03 1.68916E-15 1.91040E-14
 -1        91-3.01928E-04 2.57923E-04-1.81537E-27 4.01259E-03 3.38079E-15 8.42772E-14
 -1        92-2.72515E-04 4.11391E-04 1.94106E-25 3.50470E-03 2.75751E-14 3.29208E-13
 -1        93-2.66100E-04 5.08524E-04 5.45923E-25 3.00009E-03 4.08721E-14 5.24719E-13
 -1        94-2.84339E-04 5.57504E-04 5.57535E-25 2.37471E-03 4.86732E-14 5.27637E-13
 -1        95-2.72861E-04 5.75971E-04 2.79768E-25 1.41876E-03 3.85187E-14 3.81947E-13
 -1        96-2.89106E-04 6.06050E-04 6.43661E-26 3.12731E-04 4.19462E-14 1.90239E-13
 -1        97-3.15790E-04 6.47485E-04 5.10447E-26-4.20379E-04 8.13853E-14 1.42956E-13
 -1        98-3.13799E-04 6.68856E-04 2.16983E-26-4.59923E-04 7.86706E-14 7.86804E-14
 -1        99-3.00809E-04 6.94676E-04-1.73864E-27-3.61519E-05 4.56002E-14 9.49752E-15
 -1       100-3.29323E-04 7.39901E-04 2.63173E-26 3.33753E-04 2.18961E-14-1.22582E-13
 -1       101-3.38323E-04 7.70395E-04 4.89387E-26 3.34934E-04 1.10223E-14-1.58123E-13
 -1       102-3.46681E-04 7.84270E-04 1.96471E-26 2.98516E-05 1.33542E-14-1.01316E-13
 -1       103-3.41687E-04 7.77814E-04 2.47969E-26-3.52152E-04 1.40919E-15-1.25600E-13
 -1       104-2.96869E-04 7.17284E-04 1.39615E-25-6.09656E-04-2.87784E-14-2.72768E-13
 -1       105-2.27676E-04 6.12180E-04 3.37779E-25-6.42670E-04-5.00878E-14-4.10260E-13
 -1       106-1.72128E-04 5.03344E-04 2.63101E-25-4.93276E-04-6.35990E-14-3.58398E-13
 -1       107-1.13010E-04 4.04088E-04 1.62260E-25-2.61486E-04-4.71718E-14-2.83594E-13
 -1       108-1.13010E-04 4.04088E-04 1.62240E-25-2.61486E-04-4.71712E-14-2.83578E-13
 -1       109-1.72128E-04 5.03344E-04 2.63112E-25-4.93276E-04-6.35992E-14-3.58406E-13
 -1       110-2.27676E-04 6.12180E-04 3.37769E-25-6.42670E-04-5.00868E-14-4.10253E-13
 -1       111-2.96869E-04 7.17284E-04 1.39625E-25-6.09656E-04-2.87793E-14-2.72775E-13
 -1       112-3.41687E-04 7.77814E-04 2.48014E-26-3.52152E-04 1.40821E-15-1.25607E-13
 -1       113-3.46681E-04 7.84270E-04 1.96485E-26 2.98516E-05 1.33540E-14-1.01318E-13
 -1       114-3.38323E-04 7.70395E-04 4.89306E-26 3.34934E-04 1.10244E-14-1.58108E-13
 -1       115-3.29323E-04 7.39901E-04 2.63174E-26 3.33753E-04 2.18964E-14-1.22582E-13
 -1       116-3.00809E-04 6.94676E-04-1.73907E-27-3.61519E-05 4.56001E-14 9.49472E-15
 -1       117-3.13799E-04 6.68856E-04 2.16952E-26-4.59923E-04 7.86697E-14 7.86736E-14
 -1       118-3.15790E-04 6.47485E-04 5.10464E-26-4.20379E-04 8.13851E-14 1.42960E-13
 -1       119-2.89106E-04 6.06050E-04 6.43650E-26 3.12731E-04 4.19461E-14 1.90238E-13
 -1       120-2.72861E-04 5.75971E-04 2.79771E-25 1.41876E-03 3.85187E-14 3.81949E-13
 -1       121-2.84339E-04 5.57504E-04 5.57539E-25 2.37471E-03 4.86738E-14 5.27639E-13
 -1       122-2.66100E-04 5.08524E-04 5.45923E-25 3.00009E-03 4.08722E-14 5.24719E-13
 -1       123-2.72515E-04 4.11391E-04 1.94105E-25 3.50470E-03 2.75747E-14 3.29207E-13
 -1       124-3.01928E-04 2.57923E-04-1.81482E-27 4.01259E-03 3.38061E-15 8.42780E-14
 -1       125-4.20572E-04 4.24611E-05-1.39511E-27 4.70315E-03 1.68972E-15 1.91043E-14
 -1       126-3.69567E-04-4.43249E-04 5.87360E-28 3.97219E-03 1.23650E-14-1.89967E-14
 -3
    1PSTEP                       164          41           1          
  100CL  141 4.10000E-01         126                     1   41           1
 -4  ERROR       1    1
 -5  STR(%)      1    1    0    0
 -1         1 6.56854E+01
 -1         2 6.56854E+01
 -1         3 2.00110E+01
 -1         4 2.00110E+01
 -1         5 7.79732E+00
 -1         6 7.79732E+00
 -1         7 6.12352E+01
 -1         8 6.12352E+01
 -1         9 2.00110E+01
 -1        10 2.00110E+01
 -1        11 6.56854E+01
 -1        12 6.56854E+01
 -1        13 6.56854E+01
 -1        14 6.28951E+01
 -1        15 6.18529E+01
 -1        16 5.88416E+01
 -1        17 5.12985E+01
 -1        18 2.83399E+01
 -1        19 6.95028E+01
 -1        20 6.95028E+01
 -1        21 7.32356E+01
 -1        22 7.89470E+01
 -1        23 7.96733E+01
 -1        24 7.96733E+01
 -1        25 7.73737E+01
 -1        26 7.22260E+01
 -1        27 7.68418E+01
 -1        28 7.68418E+01
 -1        29 7.54772E+01
 -1        30 6.72208E+01
 -1        31 6.03156E+01
 -1        32 6.56854E+01
 -1        33 6.28951E+01
 -1        34 6.18529E+01
 -1        35 5.88416E+01
 -1        36 5.12985E+01
 -1        37 2.83399E+01
 -1        38 6.95028E+01
 -1        39 6.95028E+01
 -1        40 7.32356E+01
 -1        41 7.89470E+01
 -1        42 7.96733E+01
 -1        43 7.96733E+01
 -1        44 7.73737E+01
 -1        45 7.22260E+01
 -1        46 7.68418E+01
 -1        47 7.68418E+01
 -1        48 7.54772E+01
 -1        49 6.72208E+01
 -1        50 6.03156E+01
 -1        51 1.97913E+01
 -1        52 3.75599E+01
 -1        53 4.66419E+01
 -1        54 5.05346E+01
 -1        55 5.10213E+01
 -1        56 5.11408E+01
 -1        57 5.11408E+01
 -1        58 5.02948E+01
 -1        59 4.94606E+01
 -1        60 5.19520E+01
 -1        61 5.34628E+01
 -1        62 5.39338E+01
 -1        63 5.39338E+01
 -1        64 6.15833E+01
 -1        65 6.15833E+01
 -1        66 6.06844E+01
 -1        67 6.15801E+01
 -1        68 6.15801E+01
 -1        69 6.12352E+01
 -1        70 1.97913E+01
 -1        71 3.75599E+01
 -1        72 4.66419E+01
 -1        73 5.05346E+01
 -1        74 5.10213E+01
 -1        75 5.11408E+01
 -1        76 5.11408E+01
 -1        77 5.02948E+01
 -1        78 4.94606E+01
 -1        79 5.19520E+01
 -1        80 5.34628E+01
 -1        81 5.39338E+01
 -1        82 5.39338E+01
 -1        83 6.15833E+01
 -1        84 6.15833E+01
 -1        85 6.06844E+01
 -1        86 6.15801E+01
 -1        87 6.15801E+01
 -1        88 6.12352E+01
 -1        89 6.56854E+01
 -1        90 6.28951E+01
 -1        91 6.18529E+01
 -1        92 6.06844E+01
 -1        93 6.15833E+01
 -1        94 6.15833E+01
 -1        95 6.95028E+01
 -1        96 6.95028E+01
 -1        97 7.32356E+01
 -1        98 7.89470E+01
 -1        99 7.96733E+01
 -1       100 7.96733E+01
 -1       101 7.73737E+01
 -1       102 7.22260E+01
 -1       103 7.68418E+01
 -1       104 7.68418E+01
 -1       105 7.54772E+01
 -1       106 6.72208E+01
 -1       107 6.03156E+01
 -1       108 6.03156E+01
 -1       109 6.72208E+01
 -1       110 7.54772E+01
 -1       111 7.68418E+01
 -1       112 7.68418E+01
 -1       113 7.22260E+01
 -1       114 7.73737E+01
 -1       115 7.96733E+01
 -1       116 7.96733E+01
 -1       117 7.89470E+01
 -1       118 7.32356E+01
 -1       119 6.95028E+01
 -1       120 6.95028E+01
 -1       121 6.15833E+01
 -1       122 6.15833E+01
 -1       123 6.06844E+01
 -1       124 6.18529E+01
 -1       125 6.28951E+01
 -1       126 6.56854E+01
 -3
    1PSTEP                       165          42           1          
  100CL  142 4.20000E-01         126                     1   42           1
 -4  DISP        4    1
 -5  D1          1    2    1    0
 -5  D2          1    2    2    0
 -5  D3          1    2    3    0
 -5  ALL         1    2    0    0    1ALL
 -1         1 0.00000E+00 0.00000E+00 0.00000E+00
 -1         2 0.00000E+00 0.00000E+00 0.00000E+00
 -1         3 1.05748E-01-8.10511E-04 0.00000E+00
 -1         4 1.05748E-01-8.10511E-04 0.00000E+00
 -1         5 1.05354E-01-9.61059E-03 0.00000E+00
 -1         6 1.05354E-01-9.61059E-03 0.00000E+00
 -1         7 0.00000E+00 0.00000E+00 0.00000E+00
 -1         8 0.00000E+00 0.00000E+00 0.00000E+00
 -1         9 1.05551E-01-5.20246E-03 0.00000E+00
 -1        10 1.05551E-01-5.20246E-03 0.00000E+00
 -1        11 0.00000E+00 0.00000E+00 0.00000E+00
 -1        12 0.00000E+00 0.00000E+00 0.00000E+00
 -1        13 1.88285E-03 2.03830E-03 0.00000E+00
 -1        14 5.38890E-03 3.68732E-03 0.00000E+00
 -1        15 1.04702E-02 4.73322E-03 0.00000E+00
 -1        16 1.65220E-02 5.26473E-03 0.00000E+00
 -1        17 2.31520E-02 5.38169E-03 0.00000E+00
 -1        18 3.00760E-02 5.17118E-03 0.00000E+00
 -1        19 3.70196E-02 4.70128E-03 0.00000E+00
 -1        20 4.37314E-02 4.06547E-03 0.00000E+00
 -1        21 5.00559E-02 3.38929E-03 0.00000E+00
 -1        22 5.60017E-02 2.78000E-03 0.00000E+00
 -1        23 6.16734E-02 2.28403E-03 0.00000E+00
 -1        24 6.72042E-02 1.87728E-03 0.00000E+00
 -1        25 7.26558E-02 1.49792E-03 0.00000E+00
 -1        26 7.79896E-02 1.09465E-03 0.00000E+00
 -1        27 8.31064E-02 6.63735E-04 0.00000E+00
 -1        28 8.79561E-02 2.43561E-04 0.00000E+00
 -1        29 9.25594E-02-1.18879E-04 0.00000E+00
 -1        30 9.70004E-02-4.03266E-04 0.00000E+00
 -1        31 1.01371E-01-6.22296E-04 0.00000E+00
 -1        32 1.88285E-03 2.03830E-03 0.00000E+00
 -1        33 5.38890E-03 3.68732E-03 0.00000E+00
 -1        34 1.04702E-02 4.73322E-03 0.00000E+00
 -1        35 1.65220E-02 5.26473E-03 0.00000E+00
 -1        36 2.31520E-02 5.38169E-03 0.00000E+00
 -1        37 3.00760E-02 5.17118E-03 0.00000E+00
 -1        38 3.70196E-02 4.70128E-03 0.00000E+00
 -1        39 4.37314E-02 4.06547E-03 0.00000E+00
 -1        40 5.00559E-02 3.38929E-03 0.00000E+00
 -1        41 5.60017E-02 2.78000E-03 0.00000E+00
 -1        42 6.16734E-02 2.28403E-03 0.00000E+00
 -1        43 6.72042E-02 1.87728E-03 0.00000E+00
 -1        44 7.26558E-02 1.49792E-03 0.00000E+00
 -1        45 7.79896E-02 1.09465E-03 0.00000E+00
 -1        46 8.31064E-02 6.63735E-04 0.00000E+00
 -1        47 8.79561E-02 2.43561E-04 0.00000E+00
 -1        48 9.25594E-02-1.18879E-04 0.00000E+00
 -1        49 9.70004E-02-4.03266E-04 0.00000E+00
 -1        50 1.01371E-01-6.22296E-04 0.00000E+00
 -1        51 1.00967E-01-9.44131E-03 0.00000E+00
 -1        52 9.65767E-02-9.32503E-03 0.00000E+00
 -1        53 9.21063E-02-9.27783E-03 0.00000E+00
 -1        54 8.74644E-02-9.29130E-03 0.00000E+00
 -1        55 8.25663E-02-9.32419E-03 0.00000E+00
 -1        56 7.73998E-02-9.32198E-03 0.00000E+00
 -1        57 7.20290E-02-9.25277E-03 0.00000E+00
 -1        58 6.65502E-02-9.13507E-03 0.00000E+00
 -1        59 6.09867E-02-9.02390E-03 0.00000E+00
 -1        60 5.52658E-02-8.96353E-03 0.00000E+00
 -1        61 4.92509E-02-8.94393E-03 0.00000E+00
 -1        62 4.28453E-02-8.89250E-03 0.00000E+00
 -1        63 3.60738E-02-8.70311E-03 0.00000E+00
 -1        64 2.91212E-02-8.29406E-03 0.00000E+00
 -1        65 2.22563E-02-7.64079E-03 0.00000E+00
 -1        66 1.57547E-02-6.74373E-03 0.00000E+00
 -1        67 9.89584E-03-5.56973E-03 0.00000E+00
 -1        68 5.03820E-03-4.06543E-03 0.00000E+00
 -1        69 1.75225E-03-2.15889E-03 0.00000E+00
 -1        70 1.00967E-01-9.44131E-03 0.00000E+00
 -1        71 9.65767E-02-9.32503E-03 0.00000E+00
 -1        72 9.21063E-02-9.27783E-03 0.00000E+00
 -1        73 8.74644E-02-9.29130E-03 0.00000E+00
 -1        74 8.25663E-02-9.32419E-03 0.00000E+00
 -1        75 7.73998E-02-9.32198E-03 0.00000E+00
 -1        76 7.20290E-02-9.25277E-03 0.00000E+00
 -1        77 6.65502E-02-9.13507E-03 0.00000E+00
 -1        78 6.09867E-02-9.02390E-03 0.00000E+00
 -1        79 5.52658E-02-8.96353E-03 0.00000E+00
 -1        80 4.92509E-02-8.94393E-03 0.00000E+00
 -1        81 4.28453E-02-8.89250E-03 0.00000E+00
 -1        82 3.60738E-02-8.70311E-03 0.00000E+00
 -1        83 2.91212E-02-8.29406E-03 0.00000E+00
 -1        84 2.22563E-02-7.64079E-03 0.00000E+00
 -1        85 1.57547E-02-6.74373E-03 0.00000E+00
 -1        86 9.89584E-03-5.56973E-03 0.00000E+00
 -1        87 5.03820E-03-4.06543E-03 0.00000E+00
 -1        88 1.75225E-03-2.15889E-03 0.00000E+00
 -1        89 1.29273E-03-3.87691E-05 0.00000E+00
 -1        90 4.90103E-03-1.56038E-04 0.00000E+00
 -1        91 9.95135E-03-3.87706E-04 0.00000E+00
 -1        92 1.59927E-02-7.18661E-04 0.00000E+00
 -1        93 2.26242E-02-1.11755E-03 0.00000E+00
 -1        94 2.95746E-02-1.55778E-03 0.00000E+00
 -1        95 3.65733E-02-2.00479E-03 0.00000E+00
 -1        96 4.33463E-02-2.42118E-03 0.00000E+00
 -1        97 4.97182E-02-2.78552E-03 0.00000E+00
 -1        98 5.56847E-02-3.09829E-03 0.00000E+00
 -1        99 6.13649E-02-3.37426E-03 0.00000E+00
 -1       100 6.69019E-02-3.63209E-03 0.00000E+00
 -1       101 7.23700E-02-3.88078E-03 0.00000E+00
 -1       102 7.77317E-02-4.11718E-03 0.00000E+00
 -1       103 8.28825E-02-4.33420E-03 0.00000E+00
 -1       104 8.77535E-02-4.52767E-03 0.00000E+00
 -1       105 9.23635E-02-4.70030E-03 0.00000E+00
 -1       106 9.68030E-02-4.86327E-03 0.00000E+00
 -1       107 1.01173E-01-5.02884E-03 0.00000E+00
 -1       108 1.01173E-01-5.02884E-03 0.00000E+00
 -1       109 9.68030E-02-4.86327E-03 0.00000E+00
 -1       110 9.23635E-02-4.70030E-03 0.00000E+00
 -1       111 8.77535E-02-4.52767E-03 0.00000E+00
 -1       112 8.28825E-02-4.33420E-03 0.00000E+00
 -1       113 7.77317E-02-4.11718E-03 0.00000E+00
 -1       114 7.23700E-02-3.88078E-03 0.00000E+00
 -1       115 6.69019E-02-3.63209E-03 0.00000E+00
 -1       116 6.13649E-02-3.37426E-03 0.00000E+00
 -1       117 5.56847E-02-3.09829E-03 0.00000E+00
 -1       118 4.97182E-02-2.78552E-03 0.00000E+00
 -1       119 4.33463E-02-2.42118E-03 0.00000E+00
 -1       120 3.65733E-02-2.00479E-03 0.00000E+00
 -1       121 2.95746E-02-1.55778E-03 0.00000E+00
 -1       122 2.26242E-02-1.11755E-03 0.00000E+00
 -1       123 1.59927E-02-7.18661E-04 0.00000E+00
 -1       124 9.95135E-03-3.87706E-04 0.00000E+00
 -1       125 4.90103E-03-1.56038E-04 0.00000E+00
 -1       126 1.29273E-03-3.87691E-05 0.00000E+00
 -3
    1PSTEP                       166          42           1          
  100CL  142 4.20000E-01         126                     1   42           1
 -4  STRESS      6    1
 -5  SXX         1    4    1    1
 -5  SYY         1    4    2    2
 -5  SZZ         1    4    3    3
 -5  SXY         1    4    1    2
 -5  SYZ         1    4    2    3
 -5  SZX         1    4    3    1
 -1         1 9.75765E+03 2.33344E+04 9.37852E+03 6.55916E+03 6.87881E-11 5.68246E-11
 -1         2 9.75765E+03 2.33344E+04 9.37852E+03 6.55916E+03 6.87881E-11 5.68246E-11
 -1         3-3.09943E+01 3.09438E+01-2.05980E-02-4.42203E+01 3.22350E-08 8.14961E-09
 -1         4-3.09943E+01 3.09438E+01-2.05978E-02-4.42203E+01 3.22350E-08 8.14936E-09
 -1         5 7.31197E+01 2.54163E+02 9.81008E+01-5.83594E+01-7.64962E-08 1.35897E-08
 -1         6 7.31197E+01 2.54163E+02 9.81008E+01-5.83594E+01-7.64944E-08 1.35894E-08
 -1         7-9.73793E+03-2.18025E+04-1.00384E+04 4.67288E+03-1.40968E-11 2.51246E-11
 -1         8-9.73793E+03-2.18025E+04-1.00384E+04 4.67288E+03-1.41044E-11 2.51247E-11
 -1         9 4.08613E+01 1.95937E+02 7.09810E+01-6.21661E+01-1.79979E-08 1.49212E-08
 -1        10 4.08613E+01 1.95937E+02 7.09810E+01-6.21661E+01-1.79982E-08 1.49221E-08
 -1        11 3.57194E+01-6.01280E+02-1.01678E+02 3.95946E+03 2.97238E-11 5.39458E-12
 -1        12 3.57194E+01-6.01280E+02-1.01678E+02 3.95946E+03 2.97380E-11 5.39449E-12
 -1        13 3.26741E+03 1.90028E+04 6.35147E+03 2.37130E+03 1.54275E-09 1.03027E-08
 -1        14 3.71080E+03 1.53650E+04 5.49275E+03 1.92911E+03 2.28824E-09-2.96711E-09
 -1        15 2.63881E+03 1.06640E+04 3.87267E+03 1.85649E+03 1.10579E-08-1.79280E-08
 -1        16 1.80515E+03 6.88745E+03 2.55432E+03 1.44977E+03 3.04586E-08-7.68997E-09
 -1        17 1.02464E+03 3.77976E+03 1.42188E+03 1.05832E+03 4.50477E-08 7.73418E-08
 -1        18 3.30832E+02 1.15055E+03 4.39736E+02 6.96343E+02 3.41372E-08 1.84530E-07
 -1        19-2.24877E+02-9.72286E+02-3.61549E+02 3.26741E+02-3.40058E-09 2.44840E-07
 -1        20-6.19580E+02-2.28588E+03-8.77205E+02-1.19126E+01-5.42997E-08 2.36671E-07
 -1        21-7.57182E+02-2.57467E+03-1.00620E+03-2.35228E+02-8.78272E-08 1.60261E-07
 -1        22-7.10822E+02-2.09068E+03-8.44834E+02-2.95607E+02-8.50558E-08 6.51300E-08
 -1        23-5.30578E+02-1.36026E+03-5.68927E+02-2.22934E+02-5.53994E-08-5.18100E-08
 -1        24-4.05263E+02-9.46523E+02-4.06091E+02-8.60971E+01-2.00144E-08-9.53384E-08
 -1        25-4.01187E+02-1.05421E+03-4.37394E+02 7.79207E+00 1.18812E-08-1.02479E-07
 -1        26-4.93696E+02-1.47205E+03-5.91634E+02-9.68881E+00 2.50013E-08-9.30718E-08
 -1        27-5.34676E+02-1.75344E+03-6.89297E+02-1.06302E+02 1.57174E-08-5.10569E-08
 -1        28-5.20267E+02-1.64385E+03-6.51862E+02-1.91447E+02 4.36591E-09-5.85981E-08
 -1        29-4.21769E+02-1.16729E+03-4.78125E+02-2.16703E+02 3.24814E-09-8.89076E-08
 -1        30-2.71319E+02-5.74288E+02-2.54100E+02-1.80141E+02 1.83392E-08-9.39696E-08
 -1        31-1.09106E+02-1.26152E+02-7.06287E+01-1.01793E+02 3.13675E-08-4.04046E-08
 -1        32 3.26741E+03 1.90028E+04 6.35147E+03 2.37130E+03 1.54275E-09 1.03027E-08
 -1        33 3.71080E+03 1.53650E+04 5.49275E+03 1.92911E+03 2.28824E-09-2.96711E-09
 -1        34 2.63881E+03 1.06640E+04 3.87267E+03 1.85649E+03 1.10579E-08-1.79277E-08
 -1        35 1.80515E+03 6.88745E+03 2.55432E+03 1.44977E+03 3.04586E-08-7.69018E-09
 -1        36 1.02464E+03 3.77976E+03 1.42188E+03 1.05832E+03 4.50477E-08 7.73427E-08
 -1        37 3.30832E+02 1.15055E+03 4.39736E+02 6.96343E+02 3.41371E-08 1.84529E-07
 -1        38-2.24877E+02-9.72286E+02-3.61549E+02 3.26741E+02-3.40010E-09 2.44839E-07
 -1        39-6.19580E+02-2.28588E+03-8.77205E+02-1.19126E+01-5.42997E-08 2.36671E-07
 -1        40-7.57182E+02-2.57467E+03-1.00620E+03-2.35228E+02-8.78272E-08 1.60260E-07
 -1        41-7.10822E+02-2.09068E+03-8.44834E+02-2.95607E+02-8.50558E-08 6.51302E-08
 -1        42-5.30578E+02-1.36026E+03-5.68927E+02-2.22934E+02-5.53994E-08-5.18100E-08
 -1        43-4.05263E+02-9.46523E+02-4.06091E+02-8.60971E+01-2.00144E-08-9.53389E-08
 -1        44-4.01187E+02-1.05421E+03-4.37394E+02 7.79207E+00 1.18812E-08-1.02477E-07
 -1        45-4.93696E+02-1.47205E+03-5.91634E+02-9.68881E+00 2.50013E-08-9.30724E-08
 -1        46-5.34676E+02-1.75344E+03-6.89297E+02-1.06302E+02 1.57174E-08-5.10569E-08
 -1        47-5.20267E+02-1.64385E+03-6.51862E+02-1.91447E+02 4.36602E-09-5.85981E-08
 -1        48-4.21769E+02-1.16729E+03-4.78125E+02-2.16703E+02 3.24813E-09-8.89208E-08
 -1        49-2.71319E+02-5.74288E+02-2.54100E+02-1.80141E+02 1.83393E-08-9.39608E-08
 -1        50-1.09106E+02-1.26152E+02-7.06287E+01-1.01793E+02 3.13674E-08-4.04065E-08
 -1        51 1.02538E+02 5.03056E+02 1.81317E+02-5.59066E+01-5.31540E-08-4.88937E-08
 -1        52 2.23178E+02 1.13116E+03 4.04784E+02-5.61864E+01-1.90287E-08-1.03212E-07
 -1        53 3.61023E+02 1.85690E+03 6.61580E+02 2.31364E+00 4.80730E-09-8.98201E-08
 -1        54 4.99690E+02 2.42648E+03 8.71509E+02 1.12233E+02 1.50445E-09-5.46324E-08
 -1        55 5.52683E+02 2.57606E+03 9.31415E+02 2.33770E+02-1.36776E-08-5.47469E-08
 -1        56 5.11308E+02 2.29938E+03 8.37327E+02 2.93091E+02-9.29433E-09-8.76863E-08
 -1        57 4.09132E+02 1.90019E+03 6.88838E+02 2.45545E+02 2.29621E-08-1.01685E-07
 -1        58 3.76849E+02 1.82672E+03 6.57577E+02 1.36938E+02 6.26427E-08-8.92450E-08
 -1        59 4.47002E+02 2.25619E+03 8.05592E+02 7.96077E+01 8.84631E-08-2.07901E-08
 -1        60 6.16535E+02 2.95699E+03 1.06279E+03 1.46890E+02 9.47684E-08 6.89746E-08
 -1        61 7.31020E+02 3.36066E+03 1.21527E+03 3.26355E+02 6.29417E-08 1.75131E-07
 -1        62 6.85884E+02 2.93930E+03 1.07715E+03 5.15072E+02-2.39000E-09 2.52031E-07
 -1        63 4.13008E+02 1.50822E+03 5.71631E+02 5.85313E+02-5.88293E-08 2.24357E-07
 -1        64-6.40289E+01-6.77198E+02-2.25239E+02 4.92411E+02-8.95206E-08 1.53665E-07
 -1        65-7.25693E+02-3.30552E+03-1.22219E+03 3.19574E+02-8.26862E-08 5.86016E-08
 -1        66-1.51246E+03-6.37726E+03-2.40972E+03 1.71225E+02-4.53601E-08-8.66349E-09
 -1        67-2.40027E+03-1.00616E+04-3.84535E+03 1.21042E+02-1.25489E-08-1.12169E-08
 -1        68-3.83903E+03-1.45709E+04-5.75240E+03 4.83342E+01 1.48927E-09-1.35335E-08
 -1        69-3.45341E+03-1.78513E+04-6.73412E+03 8.29609E+02 2.35427E-09-1.49685E-09
 -1        70 1.02538E+02 5.03056E+02 1.81317E+02-5.59066E+01-5.31536E-08-4.88913E-08
 -1        71 2.23178E+02 1.13116E+03 4.04784E+02-5.61864E+01-1.90290E-08-1.03207E-07
 -1        72 3.61023E+02 1.85690E+03 6.61580E+02 2.31364E+00 4.80720E-09-8.98205E-08
 -1        73 4.99690E+02 2.42648E+03 8.71509E+02 1.12233E+02 1.50376E-09-5.46387E-08
 -1        74 5.52683E+02 2.57606E+03 9.31415E+02 2.33770E+02-1.36775E-08-5.47468E-08
 -1        75 5.11308E+02 2.29938E+03 8.37327E+02 2.93091E+02-9.29430E-09-8.76858E-08
 -1        76 4.09132E+02 1.90019E+03 6.88838E+02 2.45545E+02 2.29621E-08-1.01687E-07
 -1        77 3.76849E+02 1.82672E+03 6.57577E+02 1.36938E+02 6.26427E-08-8.92450E-08
 -1        78 4.47002E+02 2.25619E+03 8.05592E+02 7.96077E+01 8.84630E-08-2.07901E-08
 -1        79 6.16535E+02 2.95699E+03 1.06279E+03 1.46890E+02 9.47685E-08 6.89774E-08
 -1        80 7.31020E+02 3.36066E+03 1.21527E+03 3.26355E+02 6.29411E-08 1.75133E-07
 -1        81 6.85884E+02 2.93930E+03 1.07715E+03 5.15072E+02-2.39006E-09 2.52031E-07
 -1        82 4.13008E+02 1.50822E+03 5.71631E+02 5.85313E+02-5.88290E-08 2.24357E-07
 -1        83-6.40289E+01-6.77198E+02-2.25239E+02 4.92411E+02-8.95208E-08 1.53666E-07
 -1        84-7.25693E+02-3.30552E+03-1.22219E+03 3.19574E+02-8.26860E-08 5.85981E-08
 -1        85-1.51246E+03-6.37726E+03-2.40972E+03 1.71225E+02-4.53602E-08-8.66303E-09
 -1        86-2.40027E+03-1.00616E+04-3.84535E+03 1.21042E+02-1.25490E-08-1.12169E-08
 -1        87-3.83903E+03-1.45709E+04-5.75240E+03 4.83342E+01 1.48927E-09-1.35335E-08
 -1        88-3.45341E+03-1.78513E+04-6.73412E+03 8.29609E+02 2.35431E-09-1.49686E-09
 -1        89 5.83782E+01-5.61804E+02-1.31448E+02 1.06179E+03 4.89980E-10 4.22140E-09
 -1        90 1.27938E+02-3.32127E+02-3.35318E+01 1.37040E+03 6.44457E-09-7.54833E-09
 -1        91 2.13825E+02-1.27862E+02 3.69295E+01 1.19717E+03 3.83642E-09-1.95697E-08
 -1        92 2.16430E+02 3.09122E+01 7.80249E+01 1.01668E+03-8.38200E-09-1.01782E-08
 -1        93 2.02889E+02 1.31914E+02 1.00095E+02 8.63720E+02-2.24690E-08 6.43540E-08
 -1        94 1.78982E+02 1.79084E+02 1.05854E+02 7.52493E+02-3.11213E-08 1.73119E-07
 -1        95 1.30563E+02 2.25908E+02 1.05778E+02 5.77496E+02-3.07438E-08 2.46767E-07
 -1        96 5.23010E+01 2.90129E+02 1.02400E+02 3.05452E+02-2.92066E-08 2.56611E-07
 -1        97-1.30539E+01 3.65296E+02 1.05980E+02 3.08986E+01-1.84240E-08 1.77397E-07
 -1        98-5.58044E+01 4.22625E+02 1.10489E+02-1.22557E+02 5.28127E-09 6.02375E-08
 -1        99-4.93924E+01 4.47063E+02 1.19574E+02-1.12842E+02 1.81012E-08-3.95267E-08
 -1       100-1.59300E+01 4.36716E+02 1.26388E+02 1.37679E+01 2.17276E-08-9.97521E-08
 -1       101 1.08030E+01 4.16563E+02 1.28322E+02 1.44527E+02 1.97873E-08-1.13359E-07
 -1       102 1.85949E+01 4.02109E+02 1.26332E+02 1.68456E+02 6.40266E-09-9.06491E-08
 -1       103 1.27923E+01 3.94368E+02 1.22279E+02 7.13625E+01 8.19717E-10-4.96969E-08
 -1       104-1.25325E+01 3.83827E+02 1.11502E+02-6.45641E+01 3.96880E-09-5.25616E-08
 -1       105-3.30021E+01 3.55506E+02 9.67792E+01-1.51515E+02 2.45574E-09-8.91002E-08
 -1       106-2.52271E+01 2.96594E+02 8.13501E+01-1.58873E+02-3.45246E-09-1.05892E-07
 -1       107 6.49722E+00 2.23794E+02 6.90188E+01-1.00279E+02-1.07746E-08-5.54830E-08
 -1       108 6.49722E+00 2.23794E+02 6.90188E+01-1.00279E+02-1.07746E-08-5.54889E-08
 -1       109-2.52271E+01 2.96594E+02 8.13501E+01-1.58873E+02-3.45229E-09-1.05888E-07
 -1       110-3.30021E+01 3.55506E+02 9.67792E+01-1.51515E+02 2.45593E-09-8.91002E-08
 -1       111-1.25325E+01 3.83827E+02 1.11502E+02-6.45641E+01 3.96835E-09-5.25609E-08
 -1       112 1.27923E+01 3.94368E+02 1.22279E+02 7.13625E+01 8.19989E-10-4.96969E-08
 -1       113 1.85949E+01 4.02109E+02 1.26332E+02 1.68456E+02 6.40260E-09-9.06500E-08
 -1       114 1.08030E+01 4.16563E+02 1.28322E+02 1.44527E+02 1.97873E-08-1.13356E-07
 -1       115-1.59300E+01 4.36716E+02 1.26388E+02 1.37679E+01 2.17276E-08-9.97512E-08
 -1       116-4.93924E+01 4.47063E+02 1.19574E+02-1.12842E+02 1.81011E-08-3.95267E-08
 -1       117-5.58044E+01 4.22625E+02 1.10489E+02-1.22557E+02 5.28134E-09 6.02367E-08
 -1       118-1.30539E+01 3.65296E+02 1.05980E+02 3.08986E+01-1.84239E-08 1.77398E-07
 -1       119 5.23010E+01 2.90129E+02 1.02400E+02 3.05452E+02-2.92067E-08 2.56611E-07
 -1       120 1.30563E+02 2.25908E+02 1.05778E+02 5.77496E+02-3.07439E-08 2.46769E-07
 -1       121 1.78982E+02 1.79084E+02 1.05854E+02 7.52493E+02-3.11209E-08 1.73118E-07
 -1       122 2.02889E+02 1.31914E+02 1.00095E+02 8.63720E+02-2.24690E-08 6.43528E-08
 -1       123 2.16430E+02 3.09122E+01 7.80249E+01 1.01668E+03-8.38185E-09-1.01779E-08
 -1       124 2.13825E+02-1.27862E+02 3.69295E+01 1.19717E+03 3.83641E-09-1.95703E-08
 -1       125 1.27938E+02-3.32127E+02-3.35318E+01 1.37040E+03 6.44458E-09-7.54841E-09
 -1       126 5.83782E+01-5.61804E+02-1.31448E+02 1.06179E+03 4.89914E-10 4.22142E-09
 -3
    1PSTEP                       167          42           1          
  100CL  142 4.20000E-01         126                     1   42           1
 -4  TOSTRAIN    6    1
 -5  EXX         1    4    1    1
 -5  EYY         1    4    2    2
 -5  EZZ         1    4    3    3
 -5  EXY         1    4    1    2
 -5  EYZ         1    4    2    3
 -5  EZX         1    4    3    1
 -1         1-1.55226E-04 4.21497E-02-3.58720E-28 1.88282E-02 5.86220E-20 9.49384E-17
 -1         2-1.55226E-04 4.21497E-02-3.58720E-28 1.88282E-02 5.86220E-20 9.49384E-17
 -1         3-7.40714E-05 7.39678E-05 6.32367E-27-1.59090E-04 1.06673E-13 1.72168E-14
 -1         4-7.40714E-05 7.39678E-05 6.32407E-27-1.59090E-04 1.06673E-13 1.72160E-14
 -1         5-4.35046E-05 4.68782E-04 9.96952E-26-2.38009E-04-2.43587E-13 6.57903E-14
 -1         6-4.35046E-05 4.68782E-04 9.96910E-26-2.38009E-04-2.43581E-13 6.57890E-14
 -1         7-1.57033E-04-4.17874E-02-1.00469E-29 1.75222E-02 3.81291E-20 6.73984E-17
 -1         8-1.57033E-04-4.17874E-02-1.00471E-29 1.75222E-02 1.32162E-20 6.73993E-17
 -1         9-5.87880E-05 3.66456E-04-1.63920E-26-2.42794E-04-5.39713E-14 5.34247E-14
 -1        10-5.87880E-05 3.66456E-04-1.63929E-26-2.42794E-04-5.39719E-14 5.34277E-14
 -1        11-1.56130E-04-5.96981E-04-4.15724E-29 1.29271E-02-1.31852E-19 1.34641E-17
 -1        12-1.56130E-04-5.96981E-04-4.15720E-29 1.29271E-02-8.53630E-20 1.34626E-17
 -1        13-1.09995E-02 3.90135E-02 1.66768E-27 5.08965E-03 6.15852E-15 3.30315E-14
 -1        14-6.83463E-03 3.10615E-02-6.47902E-28 3.04824E-03 6.53003E-15-1.01409E-14
 -1        15-5.11753E-03 2.21160E-02 8.19151E-27 3.07085E-03 2.90676E-14-6.15934E-14
 -1        16-3.38674E-03 1.45553E-02 1.58855E-27 2.51560E-03 9.35842E-14-3.70692E-14
 -1        17-2.05789E-03 8.25468E-03 1.16498E-25 2.12282E-03 1.75982E-13 2.29199E-13
 -1        18-9.23311E-04 2.83701E-03 6.97026E-25 1.81102E-03 1.89989E-13 5.78633E-13
 -1        19 1.07163E-04-1.66943E-03 1.25157E-24 1.34809E-03 9.59355E-14 7.90307E-13
 -1        20 7.40580E-04-4.53156E-03 1.22794E-24 6.63596E-04-7.57763E-14 7.86573E-13
 -1        21 8.92263E-04-5.23964E-03 6.62160E-25-1.71831E-05-2.20558E-13 5.52784E-13
 -1        22 5.89452E-04-4.24091E-03 1.74007E-25-4.13639E-04-2.51097E-13 2.42764E-13
 -1        23 2.50335E-04-2.71143E-03 7.22373E-26-4.05272E-04-1.98688E-13-1.47222E-13
 -1        24 4.19748E-05-1.79989E-03 1.87919E-25-8.07657E-05-9.90098E-14-3.01069E-13
 -1        25 8.62187E-05-1.97940E-03 2.22769E-25 2.52922E-04 2.58920E-15-3.35577E-13
 -1        26 2.85638E-04-2.84508E-03 1.91869E-25 3.00218E-04 4.94974E-14-3.09631E-13
 -1        27 5.24802E-04-3.50610E-03 5.60622E-26 5.53283E-05 3.44099E-14-1.70366E-13
 -1        28 5.06262E-04-3.32583E-03 7.10047E-26-2.65855E-04-4.09734E-15-1.91091E-13
 -1        29 2.87738E-04-2.35661E-03 1.65502E-25-4.73714E-04-1.60494E-14-2.88927E-13
 -1        30 3.87356E-05-1.13886E-03 1.86056E-25-4.90019E-04 3.21558E-14-3.09631E-13
 -1        31-6.78212E-05-2.38148E-04 3.89554E-26-3.21176E-04 9.00037E-14-1.39765E-13
 -1        32-1.09995E-02 3.90135E-02 1.66768E-27 5.08965E-03 6.15852E-15 3.30315E-14
 -1        33-6.83463E-03 3.10615E-02-6.47902E-28 3.04824E-03 6.53003E-15-1.01409E-14
 -1        34-5.11753E-03 2.21160E-02 8.19126E-27 3.07085E-03 2.90678E-14-6.15923E-14
 -1        35-3.38674E-03 1.45553E-02 1.58834E-27 2.51560E-03 9.35841E-14-3.70699E-14
 -1        36-2.05789E-03 8.25468E-03 1.16501E-25 2.12282E-03 1.75982E-13 2.29202E-13
 -1        37-9.23311E-04 2.83701E-03 6.97021E-25 1.81102E-03 1.89989E-13 5.78631E-13
 -1        38 1.07163E-04-1.66943E-03 1.25156E-24 1.34809E-03 9.59368E-14 7.90305E-13
 -1        39 7.40580E-04-4.53156E-03 1.22794E-24 6.63596E-04-7.57761E-14 7.86573E-13
 -1        40 8.92263E-04-5.23964E-03 6.62154E-25-1.71831E-05-2.20558E-13 5.52781E-13
 -1        41 5.89452E-04-4.24091E-03 1.74008E-25-4.13639E-04-2.51097E-13 2.42765E-13
 -1        42 2.50335E-04-2.71143E-03 7.22373E-26-4.05272E-04-1.98688E-13-1.47222E-13
 -1        43 4.19748E-05-1.79989E-03 1.87921E-25-8.07657E-05-9.90100E-14-3.01070E-13
 -1        44 8.62187E-05-1.97940E-03 2.22759E-25 2.52922E-04 2.59008E-15-3.35570E-13
 -1        45 2.85638E-04-2.84508E-03 1.91871E-25 3.00218E-04 4.94972E-14-3.09633E-13
 -1        46 5.24802E-04-3.50610E-03 5.60622E-26 5.53283E-05 3.44098E-14-1.70366E-13
 -1        47 5.06262E-04-3.32583E-03 7.10047E-26-2.65855E-04-4.09697E-15-1.91091E-13
 -1        48 2.87738E-04-2.35661E-03 1.65554E-25-4.73714E-04-1.60533E-14-2.88970E-13
 -1        49 3.87356E-05-1.13886E-03 1.86020E-25-4.90019E-04 3.21588E-14-3.09602E-13
 -1        50-6.78212E-05-2.38148E-04 3.89564E-26-3.21176E-04 9.00031E-14-1.39771E-13
 -1        51-2.14251E-04 1.00076E-03 8.87962E-26-2.92278E-04-1.85847E-13-1.43111E-13
 -1        52-5.35553E-04 2.29270E-03 2.23743E-25-4.39532E-04-9.12709E-14-3.28540E-13
 -1        53-9.41178E-04 3.81514E-03 1.67695E-25-4.32668E-04-1.11713E-14-2.91985E-13
 -1        54-1.22798E-03 5.01603E-03 6.05869E-26-2.34301E-04-1.20329E-14-1.77100E-13
 -1        55-1.32446E-03 5.37357E-03 6.40567E-26 8.95583E-05-6.15740E-14-1.72462E-13
 -1        56-1.19942E-03 4.83870E-03 1.59393E-25 3.25896E-04-5.93434E-14-2.80057E-13
 -1        57-1.02574E-03 4.01822E-03 2.24777E-25 2.58652E-04 3.84608E-14-3.36433E-13
 -1        58-9.53797E-04 3.81012E-03 2.32517E-25-8.08493E-05 1.69549E-13-3.10529E-13
 -1        59-1.15184E-03 4.65303E-03 1.29701E-25-4.04109E-04 2.76312E-13-9.93680E-14
 -1        60-1.46652E-03 6.08912E-03 2.21643E-25-4.18098E-04 3.29543E-13 1.86531E-13
 -1        61-1.72010E-03 7.00770E-03 6.67119E-25-1.85529E-05 2.70707E-13 5.39039E-13
 -1        62-1.59638E-03 6.28151E-03 1.31775E-24 6.68119E-04 9.76413E-14 8.12394E-13
 -1        63-9.69018E-04 3.45409E-03 1.11875E-24 1.35251E-03-9.12940E-14 7.48207E-13
 -1        64 4.77563E-05-1.01826E-03 6.32848E-25 1.81349E-03-2.21364E-13 5.35056E-13
 -1        65 1.17538E-03-6.44562E-03 1.82739E-25 2.11938E-03-2.43807E-13 2.25154E-13
 -1        66 2.49520E-03-1.28491E-02 3.02538E-26 2.50522E-03-1.52323E-13-9.52284E-15
 -1        67 4.22074E-03-2.06661E-02 2.79110E-27 3.09069E-03-4.54327E-14-3.19247E-14
 -1        68 5.72086E-03-3.01613E-02 3.15065E-27 3.06898E-03 1.73186E-15-4.44063E-14
 -1        69 9.99766E-03-3.85706E-02-1.84247E-28 5.08304E-03 7.96695E-15-5.19916E-15
 -1        70-2.14251E-04 1.00076E-03 8.87895E-26-2.92278E-04-1.85845E-13-1.43103E-13
 -1        71-5.35553E-04 2.29270E-03 2.23721E-25-4.39532E-04-9.12705E-14-3.28523E-13
 -1        72-9.41178E-04 3.81514E-03 1.67697E-25-4.32668E-04-1.11717E-14-2.91986E-13
 -1        73-1.22798E-03 5.01603E-03 6.06016E-26-2.34301E-04-1.20371E-14-1.77121E-13
 -1        74-1.32446E-03 5.37357E-03 6.40564E-26 8.95583E-05-6.15737E-14-1.72462E-13
 -1        75-1.19942E-03 4.83870E-03 1.59391E-25 3.25896E-04-5.93431E-14-2.80055E-13
 -1        76-1.02574E-03 4.01822E-03 2.24785E-25 2.58652E-04 3.84601E-14-3.36439E-13
 -1        77-9.53797E-04 3.81012E-03 2.32517E-25-8.08493E-05 1.69549E-13-3.10529E-13
 -1        78-1.15184E-03 4.65303E-03 1.29700E-25-4.04109E-04 2.76311E-13-9.93680E-14
 -1        79-1.46652E-03 6.08912E-03 2.21652E-25-4.18098E-04 3.29544E-13 1.86539E-13
 -1        80-1.72010E-03 7.00770E-03 6.67131E-25-1.85529E-05 2.70706E-13 5.39045E-13
 -1        81-1.59638E-03 6.28151E-03 1.31775E-24 6.68119E-04 9.76410E-14 8.12393E-13
 -1        82-9.69018E-04 3.45409E-03 1.11876E-24 1.35251E-03-9.12932E-14 7.48207E-13
 -1        83 4.77563E-05-1.01826E-03 6.32854E-25 1.81349E-03-2.21364E-13 5.35059E-13
 -1        84 1.17538E-03-6.44562E-03 1.82729E-25 2.11938E-03-2.43808E-13 2.25143E-13
 -1        85 2.49520E-03-1.28491E-02 3.02547E-26 2.50522E-03-1.52323E-13-9.52133E-15
 -1        86 4.22074E-03-2.06661E-02 2.79117E-27 3.09069E-03-4.54330E-14-3.19247E-14
 -1        87 5.72086E-03-3.01613E-02 3.15063E-27 3.06898E-03 1.73186E-15-4.44062E-14
 -1        88 9.99766E-03-3.85706E-02-1.84243E-28 5.08304E-03 7.96707E-15-5.19919E-15
 -1        89-5.00903E-04-2.21459E-04-7.12817E-29 3.51973E-03 2.22412E-15 1.36962E-14
 -1        90-5.56881E-04 2.88869E-04 1.46970E-27 4.51260E-03 1.91897E-14-2.62155E-14
 -1        91-4.48397E-04 5.50634E-04 7.30672E-27 3.91482E-03 6.07494E-15-6.46372E-14
 -1        92-4.45769E-04 7.58994E-04-1.17255E-26 3.27358E-03-3.08265E-14-2.93936E-14
 -1        93-4.41253E-04 8.67176E-04 5.30152E-26 2.73499E-03-4.50597E-14 2.17167E-13
 -1        94-4.37777E-04 8.95032E-04 6.10518E-25 2.35097E-03-2.44201E-14 5.71361E-13
 -1        95-4.30928E-04 8.87951E-04 1.29586E-24 1.76381E-03 8.49026E-15 8.08268E-13
 -1        96-4.27902E-04 8.68163E-04 1.39785E-24 8.57885E-04 1.39713E-14 8.39390E-13
 -1        97-4.13919E-04 8.68828E-04 6.16762E-25-5.29834E-05 1.17491E-14 5.79616E-13
 -1        98-4.38536E-04 9.14053E-04 6.32140E-27-5.67152E-04 4.00623E-14 1.92471E-13
 -1        99-4.50755E-04 9.67316E-04-2.83072E-27-5.37212E-04 4.39147E-14-1.34263E-13
 -1       100-4.55911E-04 1.00282E-03 2.08210E-25-1.17088E-04 3.44591E-14-3.30053E-13
 -1       101-4.69759E-04 1.02492E-03 2.78610E-25 3.16938E-04 2.43037E-14-3.73281E-13
 -1       102-4.56889E-04 1.00268E-03 1.69572E-25 4.05224E-04-9.97657E-15-2.95213E-13
 -1       103-3.99827E-04 9.27555E-04 4.84637E-26 1.03607E-04-1.34803E-14-1.60990E-13
 -1       104-3.60860E-04 8.42097E-04 5.63498E-26-3.27636E-04-3.49525E-15-1.71296E-13
 -1       105-3.26720E-04 7.44973E-04 1.65269E-25-5.98188E-04-1.86109E-14-2.89145E-13
 -1       106-2.48409E-04 6.00560E-04 2.31078E-25-6.00082E-04-4.18775E-14-3.41849E-13
 -1       107-1.41036E-04 4.40118E-04 4.76991E-26-3.82339E-04-5.07590E-14-1.76563E-13
 -1       108-1.41036E-04 4.40118E-04 4.77155E-26-3.82339E-04-5.07607E-14-1.76583E-13
 -1       109-2.48409E-04 6.00560E-04 2.31063E-25-6.00082E-04-4.18757E-14-3.41836E-13
 -1       110-3.26720E-04 7.44973E-04 1.65269E-25-5.98188E-04-1.86103E-14-2.89145E-13
 -1       111-3.60860E-04 8.42097E-04 5.63479E-26-3.27636E-04-3.49650E-15-1.71294E-13
 -1       112-3.99827E-04 9.27555E-04 4.84637E-26 1.03607E-04-1.34795E-14-1.60990E-13
 -1       113-4.56889E-04 1.00268E-03 1.69576E-25 4.05224E-04-9.97708E-15-2.95215E-13
 -1       114-4.69759E-04 1.02492E-03 2.78597E-25 3.16938E-04 2.43048E-14-3.73271E-13
 -1       115-4.55911E-04 1.00282E-03 2.08206E-25-1.17088E-04 3.44595E-14-3.30050E-13
 -1       116-4.50755E-04 9.67316E-04-2.83077E-27-5.37212E-04 4.39146E-14-1.34263E-13
 -1       117-4.38536E-04 9.14053E-04 6.31720E-27-5.67152E-04 4.00622E-14 1.92468E-13
 -1       118-4.13919E-04 8.68828E-04 6.16771E-25-5.29834E-05 1.17500E-14 5.79621E-13
 -1       119-4.27902E-04 8.68163E-04 1.39786E-24 8.57885E-04 1.39711E-14 8.39391E-13
 -1       120-4.30928E-04 8.87951E-04 1.29587E-24 1.76381E-03 8.49062E-15 8.08272E-13
 -1       121-4.37777E-04 8.95032E-04 6.10512E-25 2.35097E-03-2.44194E-14 5.71359E-13
 -1       122-4.41253E-04 8.67176E-04 5.30114E-26 2.73499E-03-4.50602E-14 2.17163E-13
 -1       123-4.45769E-04 7.58994E-04-1.17253E-26 3.27358E-03-3.08259E-14-2.93925E-14
 -1       124-4.48397E-04 5.50634E-04 7.30719E-27 3.91482E-03 6.07467E-15-6.46393E-14
 -1       125-5.56881E-04 2.88869E-04 1.46973E-27 4.51260E-03 1.91897E-14-2.62158E-14
 -1       126-5.00903E-04-2.21459E-04-7.12896E-29 3.51973E-03 2.22391E-15 1.36962E-14
 -3
    1PSTEP                       168          42           1          
  100CL  142 4.20000E-01         126                     1   42           1
 -4  ERROR       1    1
 -5  STR(%)      1    1    0    0
 -1         1 6.51164E+01
 -1         2 6.51164E+01
 -1         3 3.67383E+01
 -1         4 3.67383E+01
 -1         5 4.77318E+00
 -1         6 4.77318E+00
 -1         7 6.12629E+01
 -1         8 6.12629E+01
 -1         9 3.67383E+01
 -1        10 3.67383E+01
 -1        11 6.51164E+01
 -1        12 6.51164E+01
 -1        13 6.51164E+01
 -1        14 6.24750E+01
 -1        15 6.12339E+01
 -1        16 5.82384E+01
 -1        17 5.29555E+01
 -1        18 3.68168E+01
 -1        19 6.34069E+01
 -1        20 7.15013E+01
 -1        21 7.38576E+01
 -1        22 7.94941E+01
 -1        23 8.79012E+01
 -1        24 9.20875E+01
 -1        25 9.20875E+01
 -1        26 8.60933E+01
 -1        27 8.17977E+01
 -1        28 8.17079E+01
 -1        29 8.17079E+01
 -1        30 7.56313E+01
 -1        31 7.56313E+01
 -1        32 6.51164E+01
 -1        33 6.24750E+01
 -1        34 6.12339E+01
 -1        35 5.82384E+01
 -1        36 5.29555E+01
 -1        37 3.68168E+01
 -1        38 6.34069E+01
 -1        39 7.15013E+01
 -1        40 7.38576E+01
 -1        41 7.94941E+01
 -1        42 8.79012E+01
 -1        43 9.20875E+01
 -1        44 9.20875E+01
 -1        45 8.60933E+01
 -1        46 8.17977E+01
 -1        47 8.17079E+01
 -1        48 8.17079E+01
 -1        49 7.56313E+01
 -1        50 7.56313E+01
 -1        51 2.72619E+01
 -1        52 4.11355E+01
 -1        53 4.77147E+01
 -1        54 4.79452E+01
 -1        55 4.79452E+01
 -1        56 4.72144E+01
 -1        57 4.37060E+01
 -1        58 4.25956E+01
 -1        59 4.79236E+01
 -1        60 5.14655E+01
 -1        61 5.20149E+01
 -1        62 5.20149E+01
 -1        63 4.56738E+01
 -1        64 4.58003E+01
 -1        65 6.14608E+01
 -1        66 6.26829E+01
 -1        67 6.26829E+01
 -1        68 6.23944E+01
 -1        69 6.12629E+01
 -1        70 2.72619E+01
 -1        71 4.11355E+01
 -1        72 4.77147E+01
 -1        73 4.79452E+01
 -1        74 4.79452E+01
 -1        75 4.72144E+01
 -1        76 4.37060E+01
 -1        77 4.25956E+01
 -1        78 4.79236E+01
 -1        79 5.14655E+01
 -1        80 5.20149E+01
 -1        81 5.20149E+01
 -1        82 4.56738E+01
 -1        83 4.58003E+01
 -1        84 6.14608E+01
 -1        85 6.26829E+01
 -1        86 6.26829E+01
 -1        87 6.23944E+01
 -1        88 6.12629E+01
 -1        89 6.51164E+01
 -1        90 6.24750E+01
 -1        91 6.26829E+01
 -1        92 6.26829E+01
 -1        93 6.14608E+01
 -1        94 4.58003E+01
 -1        95 6.34069E+01
 -1        96 7.15013E+01
 -1        97 7.38576E+01
 -1        98 7.94941E+01
 -1        99 8.79012E+01
 -1       100 9.20875E+01
 -1       101 9.20875E+01
 -1       102 8.60933E+01
 -1       103 8.17977E+01
 -1       104 8.17079E+01
 -1       105 8.17079E+01
 -1       106 7.56313E+01
 -1       107 7.56313E+01
 -1       108 7.56313E+01
 -1       109 7.56313E+01
 -1       110 8.17079E+01
 -1       111 8.17079E+01
 -1       112 8.17977E+01
 -1       113 8.60933E+01
 -1       114 9.20875E+01
 -1       115 9.20875E+01
 -1       116 8.79012E+01
 -1       117 7.94941E+01
 -1       118 7.38576E+01
 -1       119 7.15013E+01
 -1       120 6.34069E+01
 -1       121 4.58003E+01
 -1       122 6.14608E+01
 -1       123 6.26829E+01
 -1       124 6.26829E+01
 -1       125 6.24750E+01
 -1       126 6.51164E+01
 -3
    1PSTEP                       169          43           1          
  100CL  143 4.30000E-01         126                     1   43           1
 -4  DISP        4    1
 -5  D1          1    2    1    0
 -5  D2          1    2    2    0
 -5  D3          1    2    3    0
 -5  ALL         1    2    0    0    1ALL
 -1         1 0.00000E+00 0.00000E+00 0.00000E+00
 -1         2 0.00000E+00 0.00000E+00 0.00000E+00
 -1         3 1.11090E-01-7.39391E-04 0.00000E+00
 -1         4 1.11090E-01-7.39391E-04 0.00000E+00
 -1         5 1.10611E-01-1.04374E-02 0.00000E+00
 -1         6 1.10611E-01-1.04374E-02 0.00000E+00
 -1         7 0.00000E+00 0.00000E+00 0.00000E+00
 -1         8 0.00000E+00 0.00000E+00 0.00000E+00
 -1         9 1.10852E-01-5.57936E-03 0.00000E+00
 -1        10 1.10852E-01-5.57936E-03 0.00000E+00
 -1        11 0.00000E+00 0.00000E+00 0.00000E+00
 -1        12 0.00000E+00 0.00000E+00 0.00000E+00
 -1        13 1.84880E-03 2.01050E-03 0.00000E+00
 -1        14 5.25457E-03 3.66176E-03 0.00000E+00
 -1        15 1.02402E-02 4.76346E-03 0.00000E+00
 -1        16 1.62906E-02 5.37140E-03 0.00000E+00
 -1        17 2.30032E-02 5.54942E-03 0.00000E+00
 -1        18 3.00404E-02 5.39787E-03 0.00000E+00
 -1        19 3.71609E-02 5.00797E-03 0.00000E+00
 -1        20 4.41874E-02 4.44401E-03 0.00000E+00
 -1        21 5.09414E-02 3.77531E-03 0.00000E+00
 -1        22 5.72992E-02 3.10061E-03 0.00000E+00
 -1        23 6.32692E-02 2.52058E-03 0.00000E+00
 -1        24 6.90081E-02 2.07537E-03 0.00000E+00
 -1        25 7.46756E-02 1.72334E-03 0.00000E+00
 -1        26 8.03319E-02 1.38247E-03 0.00000E+00
 -1        27 8.59098E-02 9.98622E-04 0.00000E+00
 -1        28 9.13121E-02 5.73888E-04 0.00000E+00
 -1        29 9.64786E-02 1.53410E-04 0.00000E+00
 -1        30 1.01433E-01-2.12038E-04 0.00000E+00
 -1        31 1.06267E-01-5.00915E-04 0.00000E+00
 -1        32 1.84880E-03 2.01050E-03 0.00000E+00
 -1        33 5.25457E-03 3.66176E-03 0.00000E+00
 -1        34 1.02402E-02 4.76346E-03 0.00000E+00
 -1        35 1.62906E-02 5.37140E-03 0.00000E+00
 -1        36 2.30032E-02 5.54942E-03 0.00000E+00
 -1        37 3.00404E-02 5.39787E-03 0.00000E+00
 -1        38 3.71609E-02 5.00797E-03 0.00000E+00
 -1        39 4.41874E-02 4.44401E-03 0.00000E+00
 -1        40 5.09414E-02 3.77531E-03 0.00000E+00
 -1        41 5.72992E-02 3.10061E-03 0.00000E+00
 -1        42 6.32692E-02 2.52058E-03 0.00000E+00
 -1        43 6.90081E-02 2.07537E-03 0.00000E+00
 -1        44 7.46756E-02 1.72334E-03 0.00000E+00
 -1        45 8.03319E-02 1.38247E-03 0.00000E+00
 -1        46 8.59098E-02 9.98622E-04 0.00000E+00
 -1        47 9.13121E-02 5.73888E-04 0.00000E+00
 -1        48 9.64786E-02 1.53410E-04 0.00000E+00
 -1        49 1.01433E-01-2.12038E-04 0.00000E+00
 -1        50 1.06267E-01-5.00915E-04 0.00000E+00
 -1        51 1.05775E-01-1.02384E-02 0.00000E+00
 -1        52 1.00915E-01-1.01110E-02 0.00000E+00
 -1        53 9.59208E-02-1.00518E-02 0.00000E+00
 -1        54 9.07067E-02-1.00174E-02 0.00000E+00
 -1        55 8.52610E-02-9.94950E-03 0.00000E+00
 -1        56 7.96521E-02-9.81274E-03 0.00000E+00
 -1        57 7.39757E-02-9.62334E-03 0.00000E+00
 -1        58 6.82851E-02-9.44742E-03 0.00000E+00
 -1        59 6.25038E-02-9.34865E-03 0.00000E+00
 -1        60 5.64632E-02-9.32673E-03 0.00000E+00
 -1        61 5.00223E-02-9.30094E-03 0.00000E+00
 -1        62 4.31970E-02-9.16630E-03 0.00000E+00
 -1        63 3.61350E-02-8.85753E-03 0.00000E+00
 -1        64 2.90282E-02-8.35534E-03 0.00000E+00
 -1        65 2.20690E-02-7.64410E-03 0.00000E+00
 -1        66 1.55017E-02-6.69143E-03 0.00000E+00
 -1        67 9.65742E-03-5.46543E-03 0.00000E+00
 -1        68 4.89959E-03-3.95080E-03 0.00000E+00
 -1        69 1.70950E-03-2.08968E-03 0.00000E+00
 -1        70 1.05775E-01-1.02384E-02 0.00000E+00
 -1        71 1.00915E-01-1.01110E-02 0.00000E+00
 -1        72 9.59208E-02-1.00518E-02 0.00000E+00
 -1        73 9.07067E-02-1.00174E-02 0.00000E+00
 -1        74 8.52610E-02-9.94950E-03 0.00000E+00
 -1        75 7.96521E-02-9.81274E-03 0.00000E+00
 -1        76 7.39757E-02-9.62334E-03 0.00000E+00
 -1        77 6.82851E-02-9.44742E-03 0.00000E+00
 -1        78 6.25038E-02-9.34865E-03 0.00000E+00
 -1        79 5.64632E-02-9.32673E-03 0.00000E+00
 -1        80 5.00223E-02-9.30094E-03 0.00000E+00
 -1        81 4.31970E-02-9.16630E-03 0.00000E+00
 -1        82 3.61350E-02-8.85753E-03 0.00000E+00
 -1        83 2.90282E-02-8.35534E-03 0.00000E+00
 -1        84 2.20690E-02-7.64410E-03 0.00000E+00
 -1        85 1.55017E-02-6.69143E-03 0.00000E+00
 -1        86 9.65742E-03-5.46543E-03 0.00000E+00
 -1        87 4.89959E-03-3.95080E-03 0.00000E+00
 -1        88 1.70950E-03-2.08968E-03 0.00000E+00
 -1        89 1.26451E-03-2.20803E-05 0.00000E+00
 -1        90 4.76216E-03-1.14500E-04 0.00000E+00
 -1        91 9.70504E-03-3.20900E-04 0.00000E+00
 -1        92 1.57364E-02-6.38065E-04 0.00000E+00
 -1        93 2.24442E-02-1.03407E-03 0.00000E+00
 -1        94 2.94948E-02-1.47272E-03 0.00000E+00
 -1        95 3.66533E-02-1.92539E-03 0.00000E+00
 -1        96 4.37331E-02-2.36718E-03 0.00000E+00
 -1        97 5.05452E-02-2.77148E-03 0.00000E+00
 -1        98 5.69439E-02-3.12064E-03 0.00000E+00
 -1        99 6.29325E-02-3.41888E-03 0.00000E+00
 -1       100 6.86697E-02-3.68799E-03 0.00000E+00
 -1       101 7.43376E-02-3.95051E-03 0.00000E+00
 -1       102 8.00075E-02-4.21603E-03 0.00000E+00
 -1       103 8.56157E-02-4.47771E-03 0.00000E+00
 -1       104 9.10485E-02-4.72403E-03 0.00000E+00
 -1       105 9.62360E-02-4.95011E-03 0.00000E+00
 -1       106 1.01196E-01-5.16049E-03 0.00000E+00
 -1       107 1.06029E-01-5.36623E-03 0.00000E+00
 -1       108 1.06029E-01-5.36623E-03 0.00000E+00
 -1       109 1.01196E-01-5.16049E-03 0.00000E+00
 -1       110 9.62360E-02-4.95011E-03 0.00000E+00
 -1       111 9.10485E-02-4.72403E-03 0.00000E+00
 -1       112 8.56157E-02-4.47771E-03 0.00000E+00
 -1       113 8.00075E-02-4.21603E-03 0.00000E+00
 -1       114 7.43376E-02-3.95051E-03 0.00000E+00
 -1       115 6.86697E-02-3.68799E-03 0.00000E+00
 -1       116 6.29325E-02-3.41888E-03 0.00000E+00
 -1       117 5.69439E-02-3.12064E-03 0.00000E+00
 -1       118 5.05452E-02-2.77148E-03 0.00000E+00
 -1       119 4.37331E-02-2.36718E-03 0.00000E+00
 -1       120 3.66533E-02-1.92539E-03 0.00000E+00
 -1       121 2.94948E-02-1.47272E-03 0.00000E+00
 -1       122 2.24442E-02-1.03407E-03 0.00000E+00
 -1       123 1.57364E-02-6.38065E-04 0.00000E+00
 -1       124 9.70504E-03-3.20900E-04 0.00000E+00
 -1       125 4.76216E-03-1.14500E-04 0.00000E+00
 -1       126 1.26451E-03-2.20803E-05 0.00000E+00
 -3
    1PSTEP                       170          43           1          
  100CL  143 4.30000E-01         126                     1   43           1
 -4  STRESS      6    1
 -5  SXX         1    4    1    1
 -5  SYY         1    4    2    2
 -5  SZZ         1    4    3    3
 -5  SXY         1    4    1    2
 -5  SYZ         1    4    2    3
 -5  SZX         1    4    3    1
 -1         1 9.61476E+03 2.29993E+04 9.24961E+03 6.42981E+03-1.15905E-10-1.66619E-10
 -1         2 9.61476E+03 2.29993E+04 9.24961E+03 6.42981E+03-1.15905E-10-1.66619E-10
 -1         3-6.56401E+01-6.02941E+01-3.77798E+01-5.32894E+01 1.74747E-08 6.95608E-08
 -1         4-6.56401E+01-6.02941E+01-3.77798E+01-5.32894E+01 1.74745E-08 6.95569E-08
 -1         5 1.03933E+02 3.73848E+02 1.43174E+02-5.34274E+01-4.71914E-08 7.12953E-08
 -1         6 1.03933E+02 3.73848E+02 1.43174E+02-5.34274E+01-4.71926E-08 7.12851E-08
 -1         7-9.42536E+03-2.11482E+04-9.71202E+03 4.58068E+03-8.78785E-13 3.93358E-11
 -1         8-9.42536E+03-2.11482E+04-9.71202E+03 4.58068E+03-8.78785E-13 3.93358E-11
 -1         9 3.80663E+01 2.13812E+02 7.54997E+01-7.18487E+01-1.32317E-08 7.45409E-08
 -1        10 3.80663E+01 2.13812E+02 7.54997E+01-7.18487E+01-1.32311E-08 7.45498E-08
 -1        11 1.03464E+02-4.13147E+02-2.80071E+01 3.87671E+03-2.97520E-11-2.55274E-11
 -1        12 1.03464E+02-4.13147E+02-2.80071E+01 3.87671E+03-2.97520E-11-2.55274E-11
 -1        13 3.21518E+03 1.88380E+04 6.29269E+03 2.28657E+03-1.49561E-08-1.70731E-08
 -1        14 3.68420E+03 1.55837E+04 5.54569E+03 1.83075E+03-2.25860E-08-2.42284E-08
 -1        15 2.70056E+03 1.12764E+04 4.06211E+03 1.84515E+03-1.57084E-08-5.28896E-08
 -1        16 1.92945E+03 7.59991E+03 2.79439E+03 1.53619E+03 1.29742E-08-7.36387E-08
 -1        17 1.16212E+03 4.47540E+03 1.66583E+03 1.14435E+03 4.93229E-08-3.54002E-08
 -1        18 4.85881E+02 1.99881E+03 7.38115E+02 7.58947E+02 6.03664E-08 7.44784E-08
 -1        19-2.06658E+01 4.71308E+01 6.34353E+00 4.41067E+02 2.37846E-08 1.97299E-07
 -1        20-4.41759E+02-1.49153E+03-5.82642E+02 1.72500E+02-4.33147E-08 2.39297E-07
 -1        21-7.21101E+02-2.39705E+03-9.41104E+02-8.26183E+01-9.44321E-08 1.75360E-07
 -1        22-8.09766E+02-2.41552E+03-9.73461E+02-2.77420E+02-1.03678E-07 7.62419E-08
 -1        23-6.47737E+02-1.65528E+03-6.93787E+02-3.22231E+02-6.90170E-08-1.12316E-08
 -1        24-4.29006E+02-7.53683E+02-3.55372E+02-2.04470E+02-2.52340E-08-6.74846E-08
 -1        25-2.83318E+02-3.26893E+02-1.83029E+02-3.94722E+01 2.07770E-09-8.37980E-08
 -1        26-3.03309E+02-5.48610E+02-2.55760E+02 4.35739E+01 2.60200E-08-8.93338E-08
 -1        27-3.85826E+02-1.06735E+03-4.36944E+02 5.18750E+00 4.07099E-08-6.86548E-08
 -1        28-4.70489E+02-1.43069E+03-5.72252E+02-9.26508E+01 3.45755E-08-2.59267E-08
 -1        29-4.52191E+02-1.34224E+03-5.40102E+02-1.78546E+02 2.29669E-08 4.94489E-09
 -1        30-3.38039E+02-8.57637E+02-3.59527E+02-1.93011E+02 1.93534E-08 2.19173E-08
 -1        31-1.68208E+02-3.02875E+02-1.41462E+02-1.20538E+02 2.38297E-08 2.90545E-08
 -1        32 3.21518E+03 1.88380E+04 6.29269E+03 2.28657E+03-1.49561E-08-1.70731E-08
 -1        33 3.68420E+03 1.55837E+04 5.54569E+03 1.83075E+03-2.25860E-08-2.42284E-08
 -1        34 2.70056E+03 1.12764E+04 4.06211E+03 1.84515E+03-1.57083E-08-5.28896E-08
 -1        35 1.92945E+03 7.59991E+03 2.79439E+03 1.53619E+03 1.29742E-08-7.36389E-08
 -1        36 1.16212E+03 4.47540E+03 1.66583E+03 1.14435E+03 4.93229E-08-3.53992E-08
 -1        37 4.85881E+02 1.99881E+03 7.38115E+02 7.58947E+02 6.03662E-08 7.44770E-08
 -1        38-2.06658E+01 4.71308E+01 6.34353E+00 4.41067E+02 2.37854E-08 1.97299E-07
 -1        39-4.41759E+02-1.49153E+03-5.82642E+02 1.72500E+02-4.33147E-08 2.39297E-07
 -1        40-7.21101E+02-2.39705E+03-9.41104E+02-8.26183E+01-9.44321E-08 1.75361E-07
 -1        41-8.09766E+02-2.41552E+03-9.73461E+02-2.77420E+02-1.03678E-07 7.62426E-08
 -1        42-6.47737E+02-1.65528E+03-6.93787E+02-3.22231E+02-6.90170E-08-1.12312E-08
 -1        43-4.29006E+02-7.53683E+02-3.55372E+02-2.04470E+02-2.52340E-08-6.74852E-08
 -1        44-2.83318E+02-3.26893E+02-1.83029E+02-3.94722E+01 2.07781E-09-8.37966E-08
 -1        45-3.03309E+02-5.48610E+02-2.55760E+02 4.35739E+01 2.60200E-08-8.93320E-08
 -1        46-3.85826E+02-1.06735E+03-4.36944E+02 5.18750E+00 4.07099E-08-6.86520E-08
 -1        47-4.70489E+02-1.43069E+03-5.72252E+02-9.26508E+01 3.45755E-08-2.59292E-08
 -1        48-4.52191E+02-1.34224E+03-5.40102E+02-1.78546E+02 2.29667E-08 4.95238E-09
 -1        49-3.38039E+02-8.57637E+02-3.59527E+02-1.93011E+02 1.93536E-08 2.19163E-08
 -1        50-1.68208E+02-3.02875E+02-1.41462E+02-1.20538E+02 2.38296E-08 2.90518E-08
 -1        51 1.41983E+02 7.17213E+02 2.57067E+02-4.63868E+01-3.83679E-08 5.16192E-08
 -1        52 2.92134E+02 1.46572E+03 5.24899E+02-1.51064E+01-1.77045E-08 2.23424E-08
 -1        53 4.06127E+02 2.06077E+03 7.35406E+02 9.23158E+01-1.58391E-08-2.89874E-09
 -1        54 4.47545E+02 2.21728E+03 7.93994E+02 2.08256E+02-2.30404E-08-3.22851E-08
 -1        55 3.93006E+02 1.91098E+03 6.86992E+02 2.56726E+02-1.89592E-08-6.80664E-08
 -1        56 3.08256E+02 1.45994E+03 5.27988E+02 2.08100E+02 4.06786E-10-9.55007E-08
 -1        57 2.38475E+02 1.33299E+03 4.69475E+02 9.56581E+01 2.02896E-08-8.95367E-08
 -1        58 3.14350E+02 1.85405E+03 6.46662E+02 1.57170E+01 3.71735E-08-5.43929E-08
 -1        59 5.08579E+02 2.79799E+03 9.83330E+02 7.80038E+01 5.98582E-08-1.50051E-08
 -1        60 7.09981E+02 3.50912E+03 1.25220E+03 2.84551E+02 5.88841E-08 8.87964E-08
 -1        61 7.35329E+02 3.38599E+03 1.22319E+03 5.00722E+02 1.96944E-08 1.99939E-07
 -1        62 5.63183E+02 2.37647E+03 8.74163E+02 5.77930E+02-4.58698E-08 2.35385E-07
 -1        63 2.06667E+02 7.67846E+02 2.89827E+02 5.14197E+02-1.06341E-07 1.80904E-07
 -1        64-2.71575E+02-1.24734E+03-4.58728E+02 3.96781E+02-1.11889E-07 4.58232E-08
 -1        65-8.96108E+02-3.76446E+03-1.41358E+03 2.75941E+02-6.89420E-08-4.42452E-08
 -1        66-1.67146E+03-6.86652E+03-2.61057E+03 1.40800E+02-1.82451E-08-7.73977E-08
 -1        67-2.53751E+03-1.04102E+04-3.99765E+03 5.43425E+01 8.59145E-09-6.21146E-08
 -1        68-3.86812E+03-1.44977E+04-5.73372E+03-1.25719E+01 1.18279E-08-1.63739E-08
 -1        69-3.40130E+03-1.74099E+04-6.56546E+03 7.98609E+02 5.53321E-09 1.00783E-09
 -1        70 1.41983E+02 7.17213E+02 2.57067E+02-4.63868E+01-3.83687E-08 5.16143E-08
 -1        71 2.92134E+02 1.46572E+03 5.24899E+02-1.51064E+01-1.77042E-08 2.23407E-08
 -1        72 4.06127E+02 2.06077E+03 7.35406E+02 9.23158E+01-1.58391E-08-2.89779E-09
 -1        73 4.47545E+02 2.21728E+03 7.93994E+02 2.08256E+02-2.30404E-08-3.22778E-08
 -1        74 3.93006E+02 1.91098E+03 6.86992E+02 2.56726E+02-1.89592E-08-6.80700E-08
 -1        75 3.08256E+02 1.45994E+03 5.27988E+02 2.08100E+02 4.06775E-10-9.55002E-08
 -1        76 2.38475E+02 1.33299E+03 4.69475E+02 9.56581E+01 2.02897E-08-8.95367E-08
 -1        77 3.14350E+02 1.85405E+03 6.46662E+02 1.57170E+01 3.71726E-08-5.44000E-08
 -1        78 5.08579E+02 2.79799E+03 9.83330E+02 7.80038E+01 5.98586E-08-1.50032E-08
 -1        79 7.09981E+02 3.50912E+03 1.25220E+03 2.84551E+02 5.88838E-08 8.87963E-08
 -1        80 7.35329E+02 3.38599E+03 1.22319E+03 5.00722E+02 1.96953E-08 1.99939E-07
 -1        81 5.63183E+02 2.37647E+03 8.74163E+02 5.77930E+02-4.58698E-08 2.35385E-07
 -1        82 2.06667E+02 7.67846E+02 2.89827E+02 5.14197E+02-1.06341E-07 1.80903E-07
 -1        83-2.71575E+02-1.24734E+03-4.58728E+02 3.96781E+02-1.11889E-07 4.58233E-08
 -1        84-8.96108E+02-3.76446E+03-1.41358E+03 2.75941E+02-6.89420E-08-4.42477E-08
 -1        85-1.67146E+03-6.86652E+03-2.61057E+03 1.40800E+02-1.82444E-08-7.73975E-08
 -1        86-2.53751E+03-1.04102E+04-3.99765E+03 5.43425E+01 8.59119E-09-6.21145E-08
 -1        87-3.86812E+03-1.44977E+04-5.73372E+03-1.25719E+01 1.18279E-08-1.63740E-08
 -1        88-3.40130E+03-1.74099E+04-6.56546E+03 7.98609E+02 5.53321E-09 1.00783E-09
 -1        89 4.39126E+01-3.94949E+02-8.43242E+01 1.00263E+03-3.23736E-09-4.42099E-09
 -1        90 9.40568E+01-1.76344E+02 4.06219E+00 1.25860E+03-7.62309E-09-2.42939E-08
 -1        91 1.79291E+02-1.28172E+01 6.17875E+01 1.13786E+03-4.04098E-09-5.71536E-08
 -1        92 2.05138E+02 1.21213E+02 1.02414E+02 1.04150E+03 3.32945E-10-8.54913E-08
 -1        93 1.89829E+02 2.40780E+02 1.29571E+02 8.80681E+02-7.99582E-09-4.75385E-08
 -1        94 1.51551E+02 3.20552E+02 1.40394E+02 7.21321E+02-2.44077E-08 6.00704E-08
 -1        95 1.28168E+02 3.67098E+02 1.47302E+02 5.97315E+02-3.97326E-08 1.99333E-07
 -1        96 8.70091E+01 4.03431E+02 1.46481E+02 4.59741E+02-4.40473E-08 2.55723E-07
 -1        97 2.12084E+01 4.62618E+02 1.45000E+02 2.37771E+02-4.03327E-08 1.95147E-07
 -1        98-5.07069E+01 5.30747E+02 1.44071E+02-2.64594E+01-2.80174E-08 8.36756E-08
 -1        99-8.05744E+01 5.72201E+02 1.47504E+02-1.84321E+02-2.88984E-09-2.22254E-08
 -1       100-6.79040E+01 5.58029E+02 1.46905E+02-1.46690E+02 7.13543E-09-6.85836E-08
 -1       101-2.43955E+01 5.04509E+02 1.43844E+02 1.64844E+01 9.71549E-09-9.05199E-08
 -1       102 9.81064E+00 4.47411E+02 1.37039E+02 1.53252E+02 1.56806E-08-9.78440E-08
 -1       103 1.49917E+01 4.12379E+02 1.28139E+02 1.65822E+02 9.21065E-09-7.08184E-08
 -1       104-4.12205E+00 3.90106E+02 1.15781E+02 6.58382E+01 1.75243E-09-2.76824E-08
 -1       105-2.37954E+01 3.62724E+02 1.01674E+02-6.94488E+01 4.29974E-09 4.68312E-09
 -1       106-2.74445E+01 3.15894E+02 8.65155E+01-1.47203E+02 9.13383E-09 1.82528E-08
 -1       107-5.47503E+00 2.44201E+02 7.15751E+01-1.14289E+02 7.13061E-12 3.71007E-08
 -1       108-5.47503E+00 2.44201E+02 7.15751E+01-1.14289E+02 7.26840E-12 3.71005E-08
 -1       109-2.74445E+01 3.15894E+02 8.65155E+01-1.47203E+02 9.13344E-09 1.82534E-08
 -1       110-2.37954E+01 3.62724E+02 1.01674E+02-6.94488E+01 4.29973E-09 4.67953E-09
 -1       111-4.12205E+00 3.90106E+02 1.15781E+02 6.58382E+01 1.75247E-09-2.76786E-08
 -1       112 1.49917E+01 4.12379E+02 1.28139E+02 1.65822E+02 9.21065E-09-7.08232E-08
 -1       113 9.81064E+00 4.47411E+02 1.37039E+02 1.53252E+02 1.56806E-08-9.78453E-08
 -1       114-2.43955E+01 5.04509E+02 1.43844E+02 1.64844E+01 9.71529E-09-9.05233E-08
 -1       115-6.79040E+01 5.58029E+02 1.46905E+02-1.46690E+02 7.13560E-09-6.85813E-08
 -1       116-8.05744E+01 5.72201E+02 1.47504E+02-1.84321E+02-2.89006E-09-2.22266E-08
 -1       117-5.07069E+01 5.30747E+02 1.44071E+02-2.64594E+01-2.80173E-08 8.36744E-08
 -1       118 2.12084E+01 4.62618E+02 1.45000E+02 2.37771E+02-4.03328E-08 1.95145E-07
 -1       119 8.70091E+01 4.03431E+02 1.46481E+02 4.59741E+02-4.40473E-08 2.55723E-07
 -1       120 1.28168E+02 3.67098E+02 1.47302E+02 5.97315E+02-3.97330E-08 1.99334E-07
 -1       121 1.51551E+02 3.20552E+02 1.40394E+02 7.21321E+02-2.44075E-08 6.00720E-08
 -1       122 1.89829E+02 2.40780E+02 1.29571E+02 8.80681E+02-7.99588E-09-4.75400E-08
 -1       123 2.05138E+02 1.21213E+02 1.02414E+02 1.04150E+03 3.32863E-10-8.54913E-08
 -1       124 1.79291E+02-1.28172E+01 6.17875E+01 1.13786E+03-4.04089E-09-5.71538E-08
 -1       125 9.40568E+01-1.76344E+02 4.06219E+00 1.25860E+03-7.62310E-09-2.42938E-08
 -1       126 4.39126E+01-3.94949E+02-8.43242E+01 1.00263E+03-3.23736E-09-4.42099E-09
 -3
    1PSTEP                       171          43           1          
  100CL  143 4.30000E-01         126                     1   43           1
 -4  TOSTRAIN    6    1
 -5  EXX         1    4    1    1
 -5  EYY         1    4    2    2
 -5  EZZ         1    4    3    3
 -5  EXY         1    4    1    2
 -5  EYZ         1    4    2    3
 -5  EZX         1    4    3    1
 -1         1-1.48904E-04 4.15519E-02-1.50627E-27 1.84877E-02 5.48022E-19-4.06489E-16
 -1         2-1.48904E-04 4.15519E-02-1.50627E-27 1.84877E-02 5.48022E-19-4.06489E-16
 -1         3-5.71374E-05-1.06591E-04 9.94742E-26-1.71710E-04 7.84248E-14 2.19571E-13
 -1         4-5.71374E-05-1.06591E-04 9.94635E-26-1.71710E-04 7.84229E-14 2.19558E-13
 -1         5-8.58803E-05 7.06662E-04 1.48633E-25-2.54556E-04-1.30005E-13 2.45394E-13
 -1         6-8.58803E-05 7.06662E-04 1.48604E-25-2.54556E-04-1.30012E-13 2.45362E-13
 -1         7-1.49259E-04-4.04840E-02-6.16661E-29 1.70947E-02 2.63374E-20 1.29531E-16
 -1         8-1.49259E-04-4.04840E-02-6.16661E-29 1.70947E-02 2.63374E-20 1.29531E-16
 -1         9-7.15089E-05 3.98747E-04 1.11880E-25-2.83874E-04-1.92958E-14 2.45255E-13
 -1        10-7.15089E-05 3.98747E-04 1.11904E-25-2.83874E-04-1.92912E-14 2.45283E-13
 -1        11-1.49081E-04-2.70808E-04 4.12424E-30 1.26449E-02 1.78000E-19-7.63427E-17
 -1        12-1.49081E-04-2.70808E-04 4.12424E-30 1.26449E-02 1.78000E-19-7.63427E-17
 -1        13-1.09162E-02 3.86699E-02 8.15393E-27 4.89560E-03-4.85033E-14-5.28233E-14
 -1        14-7.02671E-03 3.14892E-02 1.90729E-26 2.74170E-03-7.60720E-14-7.20496E-14
 -1        15-5.51939E-03 2.33578E-02 5.91863E-26 2.87656E-03-6.61747E-14-1.64706E-13
 -1        16-3.81905E-03 1.60462E-02 1.11584E-25 2.54049E-03 1.28703E-14-2.42064E-13
 -1        17-2.45633E-03 9.72106E-03 3.99587E-26 2.12773E-03 1.41972E-13-1.35595E-13
 -1        18-1.41283E-03 4.62362E-03 1.15492E-25 1.68179E-03 2.26268E-13 2.11996E-13
 -1        19-4.85212E-04 5.15370E-04 7.80634E-25 1.34456E-03 1.65376E-13 6.24178E-13
 -1        20 2.33144E-04-2.75259E-03 1.22970E-24 1.00439E-03-3.37380E-14 7.90530E-13
 -1        21 6.75788E-04-4.74295E-03 8.01730E-25 4.50963E-04-2.31259E-13 6.06205E-13
 -1        22 6.58466E-04-4.86502E-03 3.00049E-25-2.30939E-04-3.05603E-13 2.88027E-13
 -1        23 3.43187E-04-3.34311E-03 6.46255E-26-6.35120E-04-2.28124E-13-9.92342E-15
 -1        24-1.02955E-04-1.43521E-03 9.61785E-26-5.28120E-04-1.06986E-13-2.08700E-13
 -1        25-2.99177E-04-4.93771E-04 1.45780E-25-1.09281E-04-2.42306E-14-2.71546E-13
 -1        26-1.96945E-04-9.10577E-04 1.80684E-25 2.27203E-04 5.15860E-14-2.98229E-13
 -1        27 1.32886E-04-2.02399E-03 1.27201E-25 2.58026E-04 1.07374E-13-2.36519E-13
 -1        28 3.53830E-04-2.82976E-03 3.07387E-26 3.40391E-05 1.03210E-13-9.57769E-14
 -1        29 3.68574E-04-2.70550E-03 8.18632E-27-2.75946E-04 7.61840E-14 8.42109E-15
 -1        30 1.74505E-04-1.73065E-03 1.72166E-26-4.50166E-04 6.98110E-14 6.47571E-14
 -1        31-1.56804E-05-5.96955E-04 2.47152E-26-3.42623E-04 8.63339E-14 8.65330E-14
 -1        32-1.09162E-02 3.86699E-02 8.15393E-27 4.89560E-03-4.85033E-14-5.28233E-14
 -1        33-7.02671E-03 3.14892E-02 1.90729E-26 2.74170E-03-7.60720E-14-7.20496E-14
 -1        34-5.51939E-03 2.33578E-02 5.91863E-26 2.87656E-03-6.61746E-14-1.64706E-13
 -1        35-3.81905E-03 1.60462E-02 1.11585E-25 2.54049E-03 1.28703E-14-2.42064E-13
 -1        36-2.45633E-03 9.72106E-03 3.99575E-26 2.12773E-03 1.41972E-13-1.35592E-13
 -1        37-1.41283E-03 4.62362E-03 1.15488E-25 1.68179E-03 2.26267E-13 2.11991E-13
 -1        38-4.85212E-04 5.15370E-04 7.80635E-25 1.34456E-03 1.65379E-13 6.24178E-13
 -1        39 2.33144E-04-2.75259E-03 1.22970E-24 1.00439E-03-3.37380E-14 7.90530E-13
 -1        40 6.75788E-04-4.74295E-03 8.01735E-25 4.50963E-04-2.31258E-13 6.06207E-13
 -1        41 6.58466E-04-4.86502E-03 3.00051E-25-2.30939E-04-3.05603E-13 2.88029E-13
 -1        42 3.43187E-04-3.34311E-03 6.46249E-26-6.35120E-04-2.28124E-13-9.92193E-15
 -1        43-1.02955E-04-1.43521E-03 9.61805E-26-5.28120E-04-1.06986E-13-2.08702E-13
 -1        44-2.99177E-04-4.93771E-04 1.45776E-25-1.09281E-04-2.42298E-14-2.71542E-13
 -1        45-1.96945E-04-9.10577E-04 1.80677E-25 2.27203E-04 5.15865E-14-2.98224E-13
 -1        46 1.32886E-04-2.02399E-03 1.27194E-25 2.58026E-04 1.07375E-13-2.36510E-13
 -1        47 3.53830E-04-2.82976E-03 3.07432E-26 3.40391E-05 1.03209E-13-9.57848E-14
 -1        48 3.68574E-04-2.70550E-03 8.18961E-27-2.75946E-04 7.61860E-14 8.44534E-15
 -1        49 1.74505E-04-1.73065E-03 1.72183E-26-4.50166E-04 6.98112E-14 6.47537E-14
 -1        50-1.56804E-05-5.96955E-04 2.47134E-26-3.42623E-04 8.63327E-14 8.65246E-14
 -1        51-3.27437E-04 1.44293E-03 7.83558E-26-3.27765E-04-1.07549E-13 1.79011E-13
 -1        52-7.11794E-04 2.99115E-03 1.12557E-26-4.21505E-04-4.98729E-14 7.78879E-14
 -1        53-1.08051E-03 4.27558E-03 1.09841E-27-2.50610E-04-5.18744E-14-4.14012E-15
 -1        54-1.21032E-03 4.66046E-03 2.68981E-26 5.49809E-05-8.50517E-14-9.63389E-14
 -1        55-1.08183E-03 4.06631E-03 9.82894E-26 2.74813E-04-8.50243E-14-2.12993E-13
 -1        56-8.18876E-04 3.11154E-03 1.89505E-25 2.40712E-04-3.33211E-14-3.08451E-13
 -1        57-7.75473E-04 2.81356E-03 1.74784E-25-9.74866E-05 3.23468E-14-2.96521E-13
 -1        58-1.02749E-03 3.83699E-03 8.17083E-26-5.17884E-04 9.91224E-14-1.89348E-13
 -1        59-1.50668E-03 5.78336E-03 4.28093E-26-6.23476E-04 1.85946E-13-7.12558E-14
 -1        60-1.86757E-03 7.31716E-03 1.68134E-25-2.23771E-04 2.23611E-13 2.62389E-13
 -1        61-1.87864E-03 7.20148E-03 8.07559E-25 4.47459E-04 1.47057E-13 6.35160E-13
 -1        62-1.41998E-03 5.22125E-03 1.19767E-24 1.00243E-03-4.32537E-14 7.77831E-13
 -1        63-7.02354E-04 1.96250E-03 8.74782E-25 1.35041E-03-2.60078E-13 6.30912E-13
 -1        64 1.84598E-04-2.16620E-03 2.35608E-25 1.68266E-03-3.40705E-13 1.98820E-13
 -1        65 1.25539E-03-7.34854E-03 1.07599E-25 2.12429E-03-2.43470E-13-1.12160E-13
 -1        66 2.62586E-03-1.38367E-02 1.24404E-25 2.55165E-03-9.08333E-14-2.42781E-13
 -1        67 4.29774E-03-2.13902E-02 7.71364E-26 2.92478E-03 7.53593E-15-2.04405E-13
 -1        68 5.61266E-03-2.99824E-02 3.20101E-27 2.78067E-03 3.58320E-14-5.65202E-14
 -1        69 9.66580E-03-3.75425E-02-2.29383E-28 4.85663E-03 1.89997E-14 2.35894E-15
 -1        70-3.27437E-04 1.44293E-03 7.83468E-26-3.27765E-04-1.07553E-13 1.78996E-13
 -1        71-7.11794E-04 2.99115E-03 1.12542E-26-4.21505E-04-4.98726E-14 7.78822E-14
 -1        72-1.08051E-03 4.27558E-03 1.09867E-27-2.50610E-04-5.18740E-14-4.13704E-15
 -1        73-1.21032E-03 4.66046E-03 2.68855E-26 5.49809E-05-8.50492E-14-9.63156E-14
 -1        74-1.08183E-03 4.06631E-03 9.82969E-26 2.74813E-04-8.50256E-14-2.13004E-13
 -1        75-8.18876E-04 3.11154E-03 1.89502E-25 2.40712E-04-3.33209E-14-3.08449E-13
 -1        76-7.75473E-04 2.81356E-03 1.74785E-25-9.74866E-05 3.23471E-14-2.96521E-13
 -1        77-1.02749E-03 3.83699E-03 8.17217E-26-5.17884E-04 9.91169E-14-1.89370E-13
 -1        78-1.50668E-03 5.78336E-03 4.28058E-26-6.23476E-04 1.85948E-13-7.12500E-14
 -1        79-1.86757E-03 7.31716E-03 1.68133E-25-2.23771E-04 2.23610E-13 2.62389E-13
 -1        80-1.87864E-03 7.20148E-03 8.07564E-25 4.47459E-04 1.47060E-13 6.35161E-13
 -1        81-1.41998E-03 5.22125E-03 1.19767E-24 1.00243E-03-4.32537E-14 7.77832E-13
 -1        82-7.02354E-04 1.96250E-03 8.74769E-25 1.35041E-03-2.60078E-13 6.30907E-13
 -1        83 1.84598E-04-2.16620E-03 2.35608E-25 1.68266E-03-3.40706E-13 1.98820E-13
 -1        84 1.25539E-03-7.34854E-03 1.07603E-25 2.12429E-03-2.43471E-13-1.12169E-13
 -1        85 2.62586E-03-1.38367E-02 1.24404E-25 2.55165E-03-9.08311E-14-2.42781E-13
 -1        86 4.29774E-03-2.13902E-02 7.71362E-26 2.92478E-03 7.53509E-15-2.04405E-13
 -1        87 5.61266E-03-2.99824E-02 3.20104E-27 2.78067E-03 3.58321E-14-5.65202E-14
 -1        88 9.66580E-03-3.75425E-02-2.29383E-28 4.85663E-03 1.89997E-14 2.35894E-15
 -1        89-6.25216E-04 1.12332E-04-7.02462E-28 3.30005E-03-1.11831E-14-1.39387E-14
 -1        90-7.07027E-04 6.02359E-04 9.88054E-27 4.10357E-03-3.07042E-14-7.66393E-14
 -1        91-6.10821E-04 8.16483E-04 6.54686E-26 3.67473E-03-3.18718E-14-1.83221E-13
 -1        92-5.96597E-04 1.01137E-03 1.49550E-25 3.30923E-03-3.22044E-14-2.75820E-13
 -1        93-6.00466E-04 1.15196E-03 1.33207E-26 2.73198E-03-4.59650E-14-1.49522E-13
 -1        94-6.14116E-04 1.22057E-03 7.41658E-27 2.17334E-03-5.15937E-14 2.04575E-13
 -1        95-5.93783E-04 1.23173E-03 8.20713E-25 1.75383E-03-3.79846E-14 6.59793E-13
 -1        96-5.93417E-04 1.22622E-03 1.41440E-24 1.29557E-03-2.86452E-14 8.43145E-13
 -1        97-6.01425E-04 1.22578E-03 8.00915E-25 5.58310E-04-4.69037E-14 6.46156E-13
 -1        98-6.04554E-04 1.22463E-03 9.84104E-26-3.15414E-04-5.64087E-14 2.81192E-13
 -1        99-5.81746E-04 1.21851E-03-2.86157E-26-8.29480E-04-1.78503E-14-7.06657E-14
 -1       100-5.65222E-04 1.20113E-03 9.25292E-26-6.94703E-04-2.64609E-15-2.24140E-13
 -1       101-5.37325E-04 1.16063E-03 1.74288E-25-1.41211E-04-2.02667E-15-2.95941E-13
 -1       102-5.07910E-04 1.10148E-03 2.05749E-25 3.26259E-04 1.49959E-14-3.21778E-13
 -1       103-4.74471E-04 1.02881E-03 1.00099E-25 3.84189E-04 4.52630E-15-2.32098E-13
 -1       104-4.28243E-04 9.28485E-04 8.05848E-27 7.38062E-05-3.87677E-15-9.00789E-14
 -1       105-3.55968E-04 7.95218E-04-2.72715E-27-3.47997E-04 1.54281E-14 1.37251E-14
 -1       106-2.68644E-04 6.42857E-04 6.29901E-27-5.78006E-04 3.53678E-14 5.61364E-14
 -1       107-1.71559E-04 4.81598E-04 2.16324E-26-4.42396E-04 1.17471E-14 1.20018E-13
 -1       108-1.71559E-04 4.81598E-04 2.16301E-26-4.42396E-04 1.17475E-14 1.20017E-13
 -1       109-2.68644E-04 6.42857E-04 6.29786E-27-5.78006E-04 3.53668E-14 5.61384E-14
 -1       110-3.55968E-04 7.95218E-04-2.72830E-27-3.47997E-04 1.54269E-14 1.37135E-14
 -1       111-4.28243E-04 9.28485E-04 8.05183E-27 7.38062E-05-3.87530E-15-9.00664E-14
 -1       112-4.74471E-04 1.02881E-03 1.00110E-25 3.84189E-04 4.52463E-15-2.32114E-13
 -1       113-5.07910E-04 1.10148E-03 2.05754E-25 3.26259E-04 1.49955E-14-3.21782E-13
 -1       114-5.37325E-04 1.16063E-03 1.74299E-25-1.41211E-04-2.02857E-15-2.95952E-13
 -1       115-5.65222E-04 1.20113E-03 9.25231E-26-6.94703E-04-2.64469E-15-2.24133E-13
 -1       116-5.81746E-04 1.21851E-03-2.86142E-26-8.29480E-04-1.78514E-14-7.06692E-14
 -1       117-6.04554E-04 1.22463E-03 9.84069E-26-3.15414E-04-5.64090E-14 2.81188E-13
 -1       118-6.01425E-04 1.22578E-03 8.00898E-25 5.58310E-04-4.69050E-14 6.46150E-13
 -1       119-5.93417E-04 1.22622E-03 1.41440E-24 1.29557E-03-2.86450E-14 8.43145E-13
 -1       120-5.93783E-04 1.23173E-03 8.20725E-25 1.75383E-03-3.79852E-14 6.59798E-13
 -1       121-6.14116E-04 1.22057E-03 7.41890E-27 2.17334E-03-5.15923E-14 2.04580E-13
 -1       122-6.00466E-04 1.15196E-03 1.33227E-26 2.73198E-03-4.59658E-14-1.49527E-13
 -1       123-5.96597E-04 1.01137E-03 1.49550E-25 3.30923E-03-3.22047E-14-2.75820E-13
 -1       124-6.10821E-04 8.16483E-04 6.54690E-26 3.67473E-03-3.18716E-14-1.83221E-13
 -1       125-7.07027E-04 6.02359E-04 9.88048E-27 4.10357E-03-3.07042E-14-7.66392E-14
 -1       126-6.25216E-04 1.12332E-04-7.02462E-28 3.30005E-03-1.11831E-14-1.39387E-14
 -3
    1PSTEP                       172          43           1          
  100CL  143 4.30000E-01         126                     1   43           1
 -4  ERROR       1    1
 -5  STR(%)      1    1    0    0
 -1         1 6.45886E+01
 -1         2 6.45886E+01
 -1         3 5.76044E+01
 -1         4 5.76044E+01
 -1         5 1.39819E+01
 -1         6 1.39819E+01
 -1         7 6.18726E+01
 -1         8 6.18726E+01
 -1         9 5.76044E+01
 -1        10 5.76044E+01
 -1        11 6.45886E+01
 -1        12 6.45886E+01
 -1        13 6.45886E+01
 -1        14 6.18025E+01
 -1        15 6.08478E+01
 -1        16 5.81270E+01
 -1        17 5.30472E+01
 -1        18 4.23681E+01
 -1        19 7.81809E+01
 -1        20 7.81809E+01
 -1        21 7.74553E+01
 -1        22 8.17839E+01
 -1        23 8.17839E+01
 -1        24 9.28830E+01
 -1        25 9.28830E+01
 -1        26 9.24986E+01
 -1        27 8.47399E+01
 -1        28 8.47399E+01
 -1        29 8.02440E+01
 -1        30 8.02440E+01
 -1        31 6.64337E+01
 -1        32 6.45886E+01
 -1        33 6.18025E+01
 -1        34 6.08478E+01
 -1        35 5.81270E+01
 -1        36 5.30472E+01
 -1        37 4.23681E+01
 -1        38 7.81809E+01
 -1        39 7.81809E+01
 -1        40 7.74553E+01
 -1        41 8.17839E+01
 -1        42 8.17839E+01
 -1        43 9.28830E+01
 -1        44 9.28830E+01
 -1        45 9.24986E+01
 -1        46 8.47399E+01
 -1        47 8.47399E+01
 -1        48 8.02440E+01
 -1        49 8.02440E+01
 -1        50 6.64337E+01
 -1        51 3.53002E+01
 -1        52 4.56679E+01
 -1        53 4.65530E+01
 -1        54 4.65530E+01
 -1        55 4.49360E+01
 -1        56 3.79749E+01
 -1        57 3.04654E+01
 -1        58 4.03581E+01
 -1        59 4.79707E+01
 -1        60 4.85629E+01
 -1        61 4.85629E+01
 -1        62 4.71426E+01
 -1        63 3.74938E+01
 -1        64 5.69081E+01
 -1        65 6.33803E+01
 -1        66 6.41525E+01
 -1        67 6.41525E+01
 -1        68 6.36207E+01
 -1        69 6.21266E+01
 -1        70 3.53002E+01
 -1        71 4.56679E+01
 -1        72 4.65530E+01
 -1        73 4.65530E+01
 -1        74 4.49360E+01
 -1        75 3.79749E+01
 -1        76 3.04654E+01
 -1        77 4.03581E+01
 -1        78 4.79707E+01
 -1        79 4.85629E+01
 -1        80 4.85629E+01
 -1        81 4.71426E+01
 -1        82 3.74938E+01
 -1        83 5.69081E+01
 -1        84 6.33803E+01
 -1        85 6.41525E+01
 -1        86 6.41525E+01
 -1        87 6.36207E+01
 -1        88 6.21266E+01
 -1        89 6.45886E+01
 -1        90 6.36207E+01
 -1        91 6.41525E+01
 -1        92 6.41525E+01
 -1        93 6.33803E+01
 -1        94 5.69081E+01
 -1        95 7.81809E+01
 -1        96 7.81809E+01
 -1        97 7.74553E+01
 -1        98 8.17839E+01
 -1        99 8.17839E+01
 -1       100 9.28830E+01
 -1       101 9.28830E+01
 -1       102 9.24986E+01
 -1       103 8.47399E+01
 -1       104 8.47399E+01
 -1       105 8.02440E+01
 -1       106 8.02440E+01
 -1       107 6.64337E+01
 -1       108 6.64337E+01
 -1       109 8.02440E+01
 -1       110 8.02440E+01
 -1       111 8.47399E+01
 -1       112 8.47399E+01
 -1       113 9.24986E+01
 -1       114 9.28830E+01
 -1       115 9.28830E+01
 -1       116 8.17839E+01
 -1       117 8.17839E+01
 -1       118 7.74553E+01
 -1       119 7.81809E+01
 -1       120 7.81809E+01
 -1       121 5.69081E+01
 -1       122 6.33803E+01
 -1       123 6.41525E+01
 -1       124 6.41525E+01
 -1       125 6.36207E+01
 -1       126 6.45886E+01
 -3
    1PSTEP                       173          44           1          
  100CL  144 4.40000E-01         126                     1   44           1
 -4  DISP        4    1
 -5  D1          1    2    1    0
 -5  D2          1    2    2    0
 -5  D3          1    2    3    0
 -5  ALL         1    2    0    0    1ALL
 -1         1 0.00000E+00 0.00000E+00 0.00000E+00
 -1         2 0.00000E+00 0.00000E+00 0.00000E+00
 -1         3 1.16628E-01-6.63290E-04 0.00000E+00
 -1         4 1.16628E-01-6.63290E-04 0.00000E+00
 -1         5 1.16040E-01-1.14300E-02 0.00000E+00
 -1         6 1.16040E-01-1.14300E-02 0.00000E+00
 -1         7 0.00000E+00 0.00000E+00 0.00000E+00
 -1         8 0.00000E+00 0.00000E+00 0.00000E+00
 -1         9 1.16337E-01-6.03916E-03 0.00000E+00
 -1        10 1.16337E-01-6.03916E-03 0.00000E+00
 -1        11 0.00000E+00 0.00000E+00 0.00000E+00
 -1        12 0.00000E+00 0.00000E+00 0.00000E+00
 -1        13 1.82414E-03 1.98464E-03 0.00000E+00
 -1        14 5.12902E-03 3.63219E-03 0.00000E+00
 -1        15 9.99492E-03 4.78188E-03 0.00000E+00
 -1        16 1.59974E-02 5.47435E-03 0.00000E+00
 -1        17 2.27682E-02 5.73476E-03 0.00000E+00
 -1        18 2.99429E-02 5.64699E-03 0.00000E+00
 -1        19 3.72554E-02 5.31550E-03 0.00000E+00
 -1        20 4.45515E-02 4.81250E-03 0.00000E+00
 -1        21 5.16765E-02 4.18578E-03 0.00000E+00
 -1        22 5.84785E-02 3.50128E-03 0.00000E+00
 -1        23 6.48828E-02 2.85260E-03 0.00000E+00
 -1        24 7.09649E-02 2.31565E-03 0.00000E+00
 -1        25 7.68832E-02 1.90668E-03 0.00000E+00
 -1        26 8.27860E-02 1.57444E-03 0.00000E+00
 -1        27 8.87159E-02 1.23904E-03 0.00000E+00
 -1        28 9.46072E-02 8.49373E-04 0.00000E+00
 -1        29 1.00348E-01 4.16909E-04 0.00000E+00
 -1        30 1.05888E-01-3.73580E-06 0.00000E+00
 -1        31 1.11273E-01-3.62639E-04 0.00000E+00
 -1        32 1.82414E-03 1.98464E-03 0.00000E+00
 -1        33 5.12902E-03 3.63219E-03 0.00000E+00
 -1        34 9.99492E-03 4.78188E-03 0.00000E+00
 -1        35 1.59974E-02 5.47435E-03 0.00000E+00
 -1        36 2.27682E-02 5.73476E-03 0.00000E+00
 -1        37 2.99429E-02 5.64699E-03 0.00000E+00
 -1        38 3.72554E-02 5.31550E-03 0.00000E+00
 -1        39 4.45515E-02 4.81250E-03 0.00000E+00
 -1        40 5.16765E-02 4.18578E-03 0.00000E+00
 -1        41 5.84785E-02 3.50128E-03 0.00000E+00
 -1        42 6.48828E-02 2.85260E-03 0.00000E+00
 -1        43 7.09649E-02 2.31565E-03 0.00000E+00
 -1        44 7.68832E-02 1.90668E-03 0.00000E+00
 -1        45 8.27860E-02 1.57444E-03 0.00000E+00
 -1        46 8.87159E-02 1.23904E-03 0.00000E+00
 -1        47 9.46072E-02 8.49373E-04 0.00000E+00
 -1        48 1.00348E-01 4.16909E-04 0.00000E+00
 -1        49 1.05888E-01-3.73580E-06 0.00000E+00
 -1        50 1.11273E-01-3.62639E-04 0.00000E+00
 -1        51 1.10671E-01-1.11827E-02 0.00000E+00
 -1        52 1.05256E-01-1.10102E-02 0.00000E+00
 -1        53 9.96754E-02-1.08832E-02 0.00000E+00
 -1        54 9.38939E-02-1.07386E-02 0.00000E+00
 -1        55 8.79753E-02-1.05302E-02 0.00000E+00
 -1        56 8.20316E-02-1.02699E-02 0.00000E+00
 -1        57 7.61149E-02-1.00219E-02 0.00000E+00
 -1        58 7.01627E-02-9.85411E-03 0.00000E+00
 -1        59 6.40178E-02-9.78035E-03 0.00000E+00
 -1        60 5.75269E-02-9.74215E-03 0.00000E+00
 -1        61 5.06428E-02-9.64173E-03 0.00000E+00
 -1        62 4.34640E-02-9.40151E-03 0.00000E+00
 -1        63 3.61557E-02-8.99319E-03 0.00000E+00
 -1        64 2.88796E-02-8.41019E-03 0.00000E+00
 -1        65 2.18057E-02-7.62444E-03 0.00000E+00
 -1        66 1.52001E-02-6.59987E-03 0.00000E+00
 -1        67 9.41420E-03-5.32744E-03 0.00000E+00
 -1        68 4.77319E-03-3.82019E-03 0.00000E+00
 -1        69 1.67206E-03-2.01643E-03 0.00000E+00
 -1        70 1.10671E-01-1.11827E-02 0.00000E+00
 -1        71 1.05256E-01-1.10102E-02 0.00000E+00
 -1        72 9.96754E-02-1.08832E-02 0.00000E+00
 -1        73 9.38939E-02-1.07386E-02 0.00000E+00
 -1        74 8.79753E-02-1.05302E-02 0.00000E+00
 -1        75 8.20316E-02-1.02699E-02 0.00000E+00
 -1        76 7.61149E-02-1.00219E-02 0.00000E+00
 -1        77 7.01627E-02-9.85411E-03 0.00000E+00
 -1        78 6.40178E-02-9.78035E-03 0.00000E+00
 -1        79 5.75269E-02-9.74215E-03 0.00000E+00
 -1        80 5.06428E-02-9.64173E-03 0.00000E+00
 -1        81 4.34640E-02-9.40151E-03 0.00000E+00
 -1        82 3.61557E-02-8.99319E-03 0.00000E+00
 -1        83 2.88796E-02-8.41019E-03 0.00000E+00
 -1        84 2.18057E-02-7.62444E-03 0.00000E+00
 -1        85 1.52001E-02-6.59987E-03 0.00000E+00
 -1        86 9.41420E-03-5.32744E-03 0.00000E+00
 -1        87 4.77319E-03-3.82019E-03 0.00000E+00
 -1        88 1.67206E-03-2.01643E-03 0.00000E+00
 -1        89 1.24531E-03-1.49234E-07 0.00000E+00
 -1        90 4.63735E-03-6.36830E-05 0.00000E+00
 -1        91 9.45065E-03-2.40624E-04 0.00000E+00
 -1        92 1.54225E-02-5.37658E-04 0.00000E+00
 -1        93 2.21791E-02-9.29171E-04 0.00000E+00
 -1        94 2.93573E-02-1.37383E-03 0.00000E+00
 -1        95 3.66946E-02-1.83739E-03 0.00000E+00
 -1        96 4.40309E-02-2.29842E-03 0.00000E+00
 -1        97 5.12104E-02-2.73531E-03 0.00000E+00
 -1        98 5.80651E-02-3.12774E-03 0.00000E+00
 -1        99 6.45070E-02-3.46944E-03 0.00000E+00
 -1       100 7.05986E-02-3.77208E-03 0.00000E+00
 -1       101 7.65113E-02-4.05800E-03 0.00000E+00
 -1       102 8.24104E-02-4.34697E-03 0.00000E+00
 -1       103 8.83555E-02-4.64557E-03 0.00000E+00
 -1       104 9.42741E-02-4.94588E-03 0.00000E+00
 -1       105 1.00042E-01-5.23514E-03 0.00000E+00
 -1       106 1.05596E-01-5.50777E-03 0.00000E+00
 -1       107 1.10983E-01-5.77089E-03 0.00000E+00
 -1       108 1.10983E-01-5.77089E-03 0.00000E+00
 -1       109 1.05596E-01-5.50777E-03 0.00000E+00
 -1       110 1.00042E-01-5.23514E-03 0.00000E+00
 -1       111 9.42741E-02-4.94588E-03 0.00000E+00
 -1       112 8.83555E-02-4.64557E-03 0.00000E+00
 -1       113 8.24104E-02-4.34697E-03 0.00000E+00
 -1       114 7.65113E-02-4.05800E-03 0.00000E+00
 -1       115 7.05986E-02-3.77208E-03 0.00000E+00
 -1       116 6.45070E-02-3.46944E-03 0.00000E+00
 -1       117 5.80651E-02-3.12774E-03 0.00000E+00
 -1       118 5.12104E-02-2.73531E-03 0.00000E+00
 -1       119 4.40309E-02-2.29842E-03 0.00000E+00
 -1       120 3.66946E-02-1.83739E-03 0.00000E+00
 -1       121 2.93573E-02-1.37383E-03 0.00000E+00
 -1       122 2.21791E-02-9.29171E-04 0.00000E+00
 -1       123 1.54225E-02-5.37658E-04 0.00000E+00
 -1       124 9.45065E-03-2.40624E-04 0.00000E+00
 -1       125 4.63735E-03-6.36830E-05 0.00000E+00
 -1       126 1.24531E-03-1.49234E-07 0.00000E+00
 -3
    1PSTEP                       174          44           1          
  100CL  144 4.40000E-01         126                     1   44           1
 -4  STRESS      6    1
 -5  SXX         1    4    1    1
 -5  SYY         1    4    2    2
 -5  SZZ         1    4    3    3
 -5  SXY         1    4    1    2
 -5  SYZ         1    4    2    3
 -5  SZX         1    4    3    1
 -1         1 9.48679E+03 2.26932E+04 9.13091E+03 6.33492E+03-8.88100E-11-1.57970E-10
 -1         2 9.48679E+03 2.26932E+04 9.13091E+03 6.33492E+03-8.88100E-11-1.57970E-10
 -1         3-8.67775E+01-1.31707E+02-6.55556E+01-6.90813E+01-5.52494E-10 1.00087E-07
 -1         4-8.67775E+01-1.31707E+02-6.55556E+01-6.90813E+01-5.52200E-10 1.00085E-07
 -1         5 1.23790E+02 4.39778E+02 1.68858E+02-5.13697E+01 4.64551E-08 8.42717E-08
 -1         6 1.23790E+02 4.39778E+02 1.68858E+02-5.13697E+01 4.64550E-08 8.42717E-08
 -1         7-9.09012E+03-2.04512E+04-9.36567E+03 4.50248E+03-1.15596E-10 1.22940E-10
 -1         8-9.09012E+03-2.04512E+04-9.36567E+03 4.50248E+03-1.15596E-10 1.22940E-10
 -1         9 3.57510E+01 2.11042E+02 7.39790E+01-8.21006E+01 1.50116E-08 8.76928E-08
 -1        10 3.57510E+01 2.11042E+02 7.39790E+01-8.21006E+01 1.50111E-08 8.76956E-08
 -1        11 1.99530E+02-1.65859E+02 7.09357E+01 3.82281E+03-7.24402E-11-3.39255E-11
 -1        12 1.99530E+02-1.65859E+02 7.09357E+01 3.82281E+03-7.24402E-11-3.39255E-11
 -1        13 3.15278E+03 1.86504E+04 6.22388E+03 2.22686E+03-1.71235E-08-1.31410E-08
 -1        14 3.66588E+03 1.57325E+04 5.58198E+03 1.73055E+03-2.68984E-08-3.78057E-08
 -1        15 2.78604E+03 1.18783E+04 4.25591E+03 1.79730E+03-2.00886E-08-6.26763E-08
 -1        16 2.10585E+03 8.44664E+03 3.08780E+03 1.58873E+03 6.88732E-10-8.53808E-08
 -1        17 1.37285E+03 5.32082E+03 1.97383E+03 1.24869E+03 1.94960E-08-8.04752E-08
 -1        18 6.90545E+02 2.81341E+03 1.03959E+03 8.53300E+02 2.86668E-08-6.36537E-08
 -1        19 1.84930E+02 9.29551E+02 3.31598E+02 5.27382E+02 2.17304E-08-1.33429E-08
 -1        20-2.35234E+02-5.92031E+02-2.49211E+02 2.83874E+02 4.95567E-09 4.25822E-08
 -1        21-5.68027E+02-1.75385E+03-6.99550E+02 4.84247E+01-1.66792E-08 9.23944E-08
 -1        22-7.64203E+02-2.27784E+03-9.17579E+02-1.80933E+02-3.13124E-08 6.84914E-08
 -1        23-7.08151E+02-1.96458E+03-8.05697E+02-3.23246E+02-4.61473E-08 6.24400E-08
 -1        24-5.15347E+02-1.09927E+03-4.85802E+02-3.06166E+02-4.84374E-08 2.22907E-08
 -1        25-2.89379E+02-2.42482E+02-1.59725E+02-1.64573E+02-3.09286E-08-1.24429E-08
 -1        26-1.77474E+02 8.13772E+01-2.88568E+01-1.30955E-01-7.25658E-09-3.43926E-08
 -1        27-1.74100E+02-2.05910E+02-1.14061E+02 7.85742E+01 1.86870E-08-2.14361E-08
 -1        28-2.71248E+02-7.61948E+02-3.10510E+02 3.60452E+01 4.21112E-08 1.90056E-08
 -1        29-3.41907E+02-1.07042E+03-4.24801E+02-7.72907E+01 4.64385E-08 7.91610E-08
 -1        30-3.17308E+02-8.84662E+02-3.61440E+02-1.59573E+02 2.30131E-08 1.53228E-07
 -1        31-1.80955E+02-3.95478E+02-1.73139E+02-1.30523E+02-1.42639E-09 1.33873E-07
 -1        32 3.15278E+03 1.86504E+04 6.22388E+03 2.22686E+03-1.71235E-08-1.31410E-08
 -1        33 3.66588E+03 1.57325E+04 5.58198E+03 1.73055E+03-2.68984E-08-3.78057E-08
 -1        34 2.78604E+03 1.18783E+04 4.25591E+03 1.79730E+03-2.00886E-08-6.26766E-08
 -1        35 2.10585E+03 8.44664E+03 3.08780E+03 1.58873E+03 6.88741E-10-8.53806E-08
 -1        36 1.37285E+03 5.32082E+03 1.97383E+03 1.24869E+03 1.94960E-08-8.04755E-08
 -1        37 6.90545E+02 2.81341E+03 1.03959E+03 8.53300E+02 2.86668E-08-6.36532E-08
 -1        38 1.84930E+02 9.29551E+02 3.31598E+02 5.27382E+02 2.17304E-08-1.33464E-08
 -1        39-2.35234E+02-5.92031E+02-2.49211E+02 2.83874E+02 4.95568E-09 4.25831E-08
 -1        40-5.68027E+02-1.75385E+03-6.99550E+02 4.84247E+01-1.66792E-08 9.23939E-08
 -1        41-7.64203E+02-2.27784E+03-9.17579E+02-1.80933E+02-3.13124E-08 6.84915E-08
 -1        42-7.08151E+02-1.96458E+03-8.05697E+02-3.23246E+02-4.61473E-08 6.24405E-08
 -1        43-5.15347E+02-1.09927E+03-4.85802E+02-3.06166E+02-4.84373E-08 2.22894E-08
 -1        44-2.89379E+02-2.42482E+02-1.59725E+02-1.64573E+02-3.09288E-08-1.24439E-08
 -1        45-1.77474E+02 8.13772E+01-2.88568E+01-1.30955E-01-7.25658E-09-3.43945E-08
 -1        46-1.74100E+02-2.05910E+02-1.14061E+02 7.85742E+01 1.86871E-08-2.14380E-08
 -1        47-2.71248E+02-7.61948E+02-3.10510E+02 3.60452E+01 4.21112E-08 1.90066E-08
 -1        48-3.41907E+02-1.07042E+03-4.24801E+02-7.72907E+01 4.64387E-08 7.91670E-08
 -1        49-3.17308E+02-8.84662E+02-3.61440E+02-1.59573E+02 2.30130E-08 1.53226E-07
 -1        50-1.80955E+02-3.95478E+02-1.73139E+02-1.30523E+02-1.42627E-09 1.33875E-07
 -1        51 1.72436E+02 8.09034E+02 2.93590E+02-2.64836E+01 2.42376E-08 1.14440E-07
 -1        52 3.13485E+02 1.48668E+03 5.37524E+02 5.16125E+01-2.46149E-08 1.41797E-07
 -1        53 3.83341E+02 1.78404E+03 6.46604E+02 1.82627E+02-4.54316E-08 6.72037E-08
 -1        54 3.41204E+02 1.55359E+03 5.65541E+02 2.49578E+02-3.01179E-08 1.29304E-09
 -1        55 2.28330E+02 1.09005E+03 3.94026E+02 1.95992E+02 2.81296E-10-3.38335E-08
 -1        56 1.71841E+02 9.31302E+02 3.29933E+02 6.79981E+01 1.79869E-08-3.22309E-08
 -1        57 2.23852E+02 1.40480E+03 4.86233E+02-2.11224E+01 1.84310E-08-8.83291E-09
 -1        58 4.15002E+02 2.38398E+03 8.33211E+02 1.59338E+01 9.48898E-09 1.99568E-08
 -1        59 6.34774E+02 3.30755E+03 1.17062E+03 1.92464E+02-1.24611E-08 7.20271E-08
 -1        60 7.50477E+02 3.58953E+03 1.28751E+03 4.19967E+02-3.43766E-08 7.78166E-08
 -1        61 6.62720E+02 3.00574E+03 1.08950E+03 5.56654E+02-5.37833E-08 7.35666E-08
 -1        62 4.17302E+02 1.78337E+03 6.55099E+02 5.38281E+02-6.31434E-08 3.07368E-08
 -1        63 4.17653E+01 1.86378E+02 6.69470E+01 4.35170E+02-5.36411E-08-1.24069E-08
 -1        64-4.29051E+02-1.79834E+03-6.72420E+02 3.29880E+02-3.06907E-08-5.79708E-08
 -1        65-1.04489E+03-4.35231E+03-1.63897E+03 2.16247E+02-8.84048E-09-8.33061E-08
 -1        66-1.81537E+03-7.41336E+03-2.82532E+03 5.85622E+01 4.94386E-09-8.41301E-08
 -1        67-2.63033E+03-1.06627E+04-4.10531E+03-3.80295E+01 1.44209E-08-7.27106E-08
 -1        68-3.85480E+03-1.42922E+04-5.65831E+03-6.42868E+01 1.42680E-08-3.13716E-08
 -1        69-3.34757E+03-1.69038E+04-6.37499E+03 7.82773E+02 8.80352E-09-1.48293E-08
 -1        70 1.72436E+02 8.09034E+02 2.93590E+02-2.64836E+01 2.42380E-08 1.14438E-07
 -1        71 3.13485E+02 1.48668E+03 5.37524E+02 5.16125E+01-2.46151E-08 1.41807E-07
 -1        72 3.83341E+02 1.78404E+03 6.46604E+02 1.82627E+02-4.54320E-08 6.71979E-08
 -1        73 3.41204E+02 1.55359E+03 5.65541E+02 2.49578E+02-3.01190E-08 1.29491E-09
 -1        74 2.28330E+02 1.09005E+03 3.94026E+02 1.95992E+02 2.82342E-10-3.38406E-08
 -1        75 1.71841E+02 9.31302E+02 3.29933E+02 6.79981E+01 1.79869E-08-3.22310E-08
 -1        76 2.23852E+02 1.40480E+03 4.86233E+02-2.11224E+01 1.84309E-08-8.83119E-09
 -1        77 4.15002E+02 2.38398E+03 8.33211E+02 1.59338E+01 9.48893E-09 1.99568E-08
 -1        78 6.34774E+02 3.30755E+03 1.17062E+03 1.92464E+02-1.24609E-08 7.20271E-08
 -1        79 7.50477E+02 3.58953E+03 1.28751E+03 4.19967E+02-3.43768E-08 7.78161E-08
 -1        80 6.62720E+02 3.00574E+03 1.08950E+03 5.56654E+02-5.37825E-08 7.35686E-08
 -1        81 4.17302E+02 1.78337E+03 6.55099E+02 5.38281E+02-6.31434E-08 3.07376E-08
 -1        82 4.17653E+01 1.86378E+02 6.69470E+01 4.35170E+02-5.36411E-08-1.24145E-08
 -1        83-4.29051E+02-1.79834E+03-6.72420E+02 3.29880E+02-3.06907E-08-5.79692E-08
 -1        84-1.04489E+03-4.35231E+03-1.63897E+03 2.16247E+02-8.84049E-09-8.33095E-08
 -1        85-1.81537E+03-7.41336E+03-2.82532E+03 5.85622E+01 4.94382E-09-8.41278E-08
 -1        86-2.63033E+03-1.06627E+04-4.10531E+03-3.80295E+01 1.44211E-08-7.27114E-08
 -1        87-3.85480E+03-1.42922E+04-5.65831E+03-6.42868E+01 1.42680E-08-3.13716E-08
 -1        88-3.34757E+03-1.69038E+04-6.37499E+03 7.82773E+02 8.80352E-09-1.48293E-08
 -1        89 3.34379E+01-1.83715E+02-2.31957E+01 9.68848E+02-3.99170E-09-1.10696E-08
 -1        90 8.62100E+01 2.36058E+01 6.25989E+01 1.15190E+03-8.95978E-09-3.48834E-08
 -1        91 1.71592E+02 1.40248E+02 1.06519E+02 1.03863E+03-4.01568E-09-7.19384E-08
 -1        92 2.19585E+02 2.32877E+02 1.41249E+02 1.01298E+03 3.93184E-09-8.71538E-08
 -1        93 2.21152E+02 3.39269E+02 1.69242E+02 9.02311E+02 5.77198E-09-8.61281E-08
 -1        94 1.75968E+02 4.41194E+02 1.84235E+02 7.32874E+02-1.15159E-09-6.23684E-08
 -1        95 1.48448E+02 5.19302E+02 1.98924E+02 5.95897E+02-2.02511E-08-1.54296E-08
 -1        96 1.20081E+02 5.63111E+02 2.03888E+02 5.02319E+02-3.32495E-08 3.88368E-08
 -1        97 7.07419E+01 5.99622E+02 2.00570E+02 3.58605E+02-3.23460E-08 8.48736E-08
 -1        98 3.31355E+00 6.36336E+02 1.91692E+02 1.24492E+02-2.93193E-08 7.97419E-08
 -1        99-4.34790E+01 6.62126E+02 1.85419E+02-1.10400E+02-3.34257E-08 6.59841E-08
 -1       100-6.62289E+01 6.46180E+02 1.73702E+02-2.13840E+02-2.11166E-08 2.34997E-08
 -1       101-4.53662E+01 5.88683E+02 1.62627E+02-1.43437E+02-5.10133E-09-1.57785E-08
 -1       102-3.27723E+00 5.07418E+02 1.50913E+02 3.02587E+01 5.03954E-09-3.69342E-08
 -1       103 3.66436E+01 4.35583E+02 1.41434E+02 1.70364E+02 1.22144E-08-3.65997E-08
 -1       104 4.37881E+01 3.85653E+02 1.28658E+02 1.73578E+02 1.07909E-08 3.68071E-09
 -1       105 2.25442E+01 3.52153E+02 1.12283E+02 5.22486E+01 1.87853E-09 7.65988E-08
 -1       106-4.71558E+00 3.11073E+02 9.18438E+01-8.49504E+01-7.11784E-09 1.46776E-07
 -1       107 2.68902E+00 2.44489E+02 7.41376E+01-1.09783E+02 1.32061E-09 1.32879E-07
 -1       108 2.68902E+00 2.44489E+02 7.41376E+01-1.09783E+02 1.32057E-09 1.32874E-07
 -1       109-4.71558E+00 3.11073E+02 9.18438E+01-8.49504E+01-7.11761E-09 1.46776E-07
 -1       110 2.25442E+01 3.52153E+02 1.12283E+02 5.22486E+01 1.87841E-09 7.65993E-08
 -1       111 4.37881E+01 3.85653E+02 1.28658E+02 1.73578E+02 1.07910E-08 3.67856E-09
 -1       112 3.66436E+01 4.35583E+02 1.41434E+02 1.70364E+02 1.22142E-08-3.65949E-08
 -1       113-3.27723E+00 5.07418E+02 1.50913E+02 3.02587E+01 5.03949E-09-3.69339E-08
 -1       114-4.53662E+01 5.88683E+02 1.62627E+02-1.43437E+02-5.10092E-09-1.57784E-08
 -1       115-6.62289E+01 6.46180E+02 1.73702E+02-2.13840E+02-2.11166E-08 2.35022E-08
 -1       116-4.34790E+01 6.62126E+02 1.85419E+02-1.10400E+02-3.34257E-08 6.59832E-08
 -1       117 3.31355E+00 6.36336E+02 1.91692E+02 1.24492E+02-2.93194E-08 7.97419E-08
 -1       118 7.07419E+01 5.99622E+02 2.00570E+02 3.58605E+02-3.23461E-08 8.48738E-08
 -1       119 1.20081E+02 5.63111E+02 2.03888E+02 5.02319E+02-3.32495E-08 3.88350E-08
 -1       120 1.48448E+02 5.19302E+02 1.98924E+02 5.95897E+02-2.02511E-08-1.54265E-08
 -1       121 1.75968E+02 4.41194E+02 1.84235E+02 7.32874E+02-1.15165E-09-6.23698E-08
 -1       122 2.21152E+02 3.39269E+02 1.69242E+02 9.02311E+02 5.77204E-09-8.61272E-08
 -1       123 2.19585E+02 2.32877E+02 1.41249E+02 1.01298E+03 3.93184E-09-8.71545E-08
 -1       124 1.71592E+02 1.40248E+02 1.06519E+02 1.03863E+03-4.01579E-09-7.19379E-08
 -1       125 8.62100E+01 2.36058E+01 6.25989E+01 1.15190E+03-8.95984E-09-3.48833E-08
 -1       126 3.34379E+01-1.83715E+02-2.31957E+01 9.68848E+02-3.99168E-09-1.10696E-08
 -3
    1PSTEP                       175          44           1          
  100CL  144 4.40000E-01         126                     1   44           1
 -4  TOSTRAIN    6    1
 -5  EXX         1    4    1    1
 -5  EYY         1    4    2    2
 -5  EZZ         1    4    3    3
 -5  EXY         1    4    1    2
 -5  EYZ         1    4    2    3
 -5  EZX         1    4    3    1
 -1         1-1.42295E-04 4.10027E-02-1.36785E-27 1.82412E-02 5.82240E-19-4.16809E-16
 -1         2-1.42295E-04 4.10027E-02-1.36785E-27 1.82412E-02 5.82240E-19-4.16809E-16
 -1         3-2.28266E-05-2.61237E-04 2.06499E-25-2.03937E-04 3.31982E-14 3.23655E-13
 -1         4-2.28266E-05-2.61237E-04 2.06492E-25-2.03937E-04 3.31987E-14 3.23650E-13
 -1         5-9.89802E-05 8.31189E-04 1.87247E-25-2.72340E-04 1.79421E-13 2.56032E-13
 -1         6-9.89802E-05 8.31189E-04 1.87247E-25-2.72340E-04 1.79421E-13 2.56032E-13
 -1         7-1.41737E-04-3.90970E-02-9.81978E-28 1.67204E-02-1.10296E-19 2.79509E-16
 -1         8-1.41737E-04-3.90970E-02-9.81978E-28 1.67204E-02-1.10296E-19 2.79509E-16
 -1         9-6.09034E-05 3.81526E-04 1.57170E-25-3.21217E-04 7.91439E-14 2.78112E-13
 -1        10-6.09034E-05 3.81526E-04 1.57185E-25-3.21217E-04 7.91435E-14 2.78121E-13
 -1        11-1.42016E-04 1.65122E-04-3.84381E-28 1.24529E-02 2.39535E-19-9.53356E-17
 -1        12-1.42016E-04 1.65122E-04-3.84381E-28 1.24529E-02 2.39535E-19-9.53356E-17
 -1        13-1.08416E-02 3.82911E-02 6.31509E-27 4.77919E-03-5.46017E-14-3.97647E-14
 -1        14-7.13117E-03 3.17568E-02 3.94633E-26 2.45948E-03-9.24426E-14-1.14873E-13
 -1        15-5.82670E-03 2.45260E-02 8.58831E-26 2.59975E-03-8.27930E-14-1.94743E-13
 -1        16-4.22443E-03 1.77471E-02 1.51973E-25 2.43909E-03-3.04913E-14-2.74776E-13
 -1        17-2.84048E-03 1.14566E-02 1.43636E-25 2.15159E-03 2.74739E-14-2.67340E-13
 -1        18-1.78623E-03 6.31141E-03 9.52379E-26 1.67385E-03 6.26522E-14-2.18016E-13
 -1        19-9.20210E-04 2.36143E-03-2.96600E-27 1.29164E-03 6.34975E-14-5.31890E-14
 -1        20-2.44587E-04-8.33414E-04 2.25843E-26 1.04888E-03 3.56703E-14 1.34740E-13
 -1        21 2.99324E-04-3.32470E-03 1.79260E-25 6.82641E-04-1.22416E-14 3.05274E-13
 -1        22 5.51172E-04-4.51762E-03 1.18154E-25 7.90442E-05-7.18673E-14 2.34473E-13
 -1        23 5.03485E-04-3.98717E-03 1.23977E-25-5.08301E-04-1.23841E-13 2.20406E-13
 -1        24 1.11156E-04-2.21305E-03 5.22367E-26-7.39309E-04-1.47911E-13 9.09410E-14
 -1        25-2.93905E-04-3.97772E-04 1.67045E-26-5.38689E-04-1.04701E-13-2.82858E-14
 -1        26-4.71660E-04 3.46514E-04 2.24742E-26-9.93342E-05-3.66465E-14-1.08258E-13
 -1        27-2.56788E-04-2.37236E-04 1.11563E-26 2.60591E-04 5.21486E-14-7.63986E-14
 -1        28 7.68613E-05-1.42123E-03 3.10278E-26 2.97876E-04 1.43402E-13 4.54297E-14
 -1        29 2.91649E-04-2.13050E-03 1.54625E-25 2.09644E-05 1.79583E-13 2.38713E-13
 -1        30 2.31694E-04-1.79633E-03 4.92677E-25-3.05065E-04 1.29473E-13 4.87080E-13
 -1        31 5.70916E-05-8.06839E-04 3.75595E-25-3.39997E-04 4.24895E-14 4.33204E-13
 -1        32-1.08416E-02 3.82911E-02 6.31509E-27 4.77919E-03-5.46017E-14-3.97647E-14
 -1        33-7.13117E-03 3.17568E-02 3.94633E-26 2.45948E-03-9.24425E-14-1.14873E-13
 -1        34-5.82670E-03 2.45260E-02 8.58838E-26 2.59975E-03-8.27931E-14-1.94743E-13
 -1        35-4.22443E-03 1.77471E-02 1.51972E-25 2.43909E-03-3.04912E-14-2.74775E-13
 -1        36-2.84048E-03 1.14566E-02 1.43637E-25 2.15159E-03 2.74736E-14-2.67341E-13
 -1        37-1.78623E-03 6.31141E-03 9.52378E-26 1.67385E-03 6.26525E-14-2.18015E-13
 -1        38-9.20210E-04 2.36143E-03-2.96326E-27 1.29164E-03 6.34958E-14-5.32002E-14
 -1        39-2.44587E-04-8.33414E-04 2.25854E-26 1.04888E-03 3.56707E-14 1.34743E-13
 -1        40 2.99324E-04-3.32470E-03 1.79259E-25 6.82641E-04-1.22419E-14 3.05273E-13
 -1        41 5.51172E-04-4.51762E-03 1.18154E-25 7.90442E-05-7.18671E-14 2.34474E-13
 -1        42 5.03485E-04-3.98717E-03 1.23977E-25-5.08301E-04-1.23840E-13 2.20407E-13
 -1        43 1.11156E-04-2.21305E-03 5.22340E-26-7.39309E-04-1.47911E-13 9.09366E-14
 -1        44-2.93905E-04-3.97772E-04 1.67041E-26-5.38689E-04-1.04702E-13-2.82888E-14
 -1        45-4.71660E-04 3.46514E-04 2.24765E-26-9.93342E-05-3.66472E-14-1.08264E-13
 -1        46-2.56788E-04-2.37236E-04 1.11583E-26 2.60591E-04 5.21482E-14-7.64046E-14
 -1        47 7.68613E-05-1.42123E-03 3.10286E-26 2.97876E-04 1.43403E-13 4.54329E-14
 -1        48 2.91649E-04-2.13050E-03 1.54652E-25 2.09644E-05 1.79586E-13 2.38732E-13
 -1        49 2.31694E-04-1.79633E-03 4.92670E-25-3.05065E-04 1.29472E-13 4.87073E-13
 -1        50 5.70916E-05-8.06839E-04 3.75606E-25-3.39997E-04 4.24907E-14 4.33211E-13
 -1        51-3.51448E-04 1.62559E-03 2.78762E-25-3.05471E-04 1.18314E-13 3.61172E-13
 -1        52-7.21534E-04 3.05560E-03 4.21397E-25-2.52628E-04-2.86323E-14 4.66616E-13
 -1        53-9.35264E-04 3.74362E-03 1.12279E-25 6.61183E-05-1.21391E-13 2.33607E-13
 -1        54-8.65876E-04 3.32179E-03 1.51923E-27 3.33084E-04-9.63048E-14 1.55817E-14
 -1        55-6.49358E-04 2.35962E-03 1.97733E-26 2.89789E-04-1.19956E-14-1.09272E-13
 -1        56-5.31403E-04 1.96305E-03 2.67957E-26-7.51520E-05 4.55123E-14-1.10914E-13
 -1        57-7.83214E-04 2.89478E-03 4.14757E-27-5.16894E-04 5.58335E-14-3.55860E-14
 -1        58-1.28286E-03 4.90545E-03-1.23385E-28-7.15076E-04 3.82524E-14 6.06258E-14
 -1        59-1.77357E-03 6.86753E-03 1.05190E-25-4.77466E-04-1.04663E-14 2.37120E-13
 -1        60-1.95988E-03 7.56410E-03 1.51533E-25 1.02923E-04-7.64667E-14 2.65250E-13
 -1        61-1.75047E-03 6.49064E-03 1.69124E-25 6.86798E-04-1.38852E-13 2.60976E-13
 -1        62-1.18315E-03 4.03072E-03 9.33125E-26 1.04380E-03-1.87907E-13 1.28411E-13
 -1        63-4.79705E-04 7.72322E-04 5.18312E-26 1.28739E-03-1.78147E-13-1.45088E-14
 -1        64 3.91117E-04-3.29601E-03 8.11321E-26 1.66375E-03-1.25824E-13-1.72287E-13
 -1        65 1.51705E-03-8.57804E-03 1.45009E-25 2.14619E-03-6.54005E-14-2.64718E-13
 -1        66 2.88761E-03-1.50152E-02 1.49166E-25 2.45228E-03-1.74166E-14-2.74075E-13
 -1        67 4.39987E-03-2.19520E-02 1.11635E-25 2.64230E-03 2.34807E-14-2.40847E-13
 -1        68 5.46067E-03-2.95231E-02 2.01131E-26 2.49437E-03 4.02396E-14-1.05918E-13
 -1        69 9.26164E-03-3.63506E-02 4.91111E-27 4.67687E-03 2.80767E-14-4.96698E-14
 -1        70-3.51448E-04 1.62559E-03 2.78748E-25-3.05471E-04 1.18314E-13 3.61164E-13
 -1        71-7.21534E-04 3.05560E-03 4.21452E-25-2.52628E-04-2.86294E-14 4.66648E-13
 -1        72-9.35264E-04 3.74362E-03 1.12259E-25 6.61183E-05-1.21394E-13 2.33589E-13
 -1        73-8.65876E-04 3.32179E-03 1.51727E-27 3.33084E-04-9.63078E-14 1.55882E-14
 -1        74-6.49358E-04 2.35962E-03 1.97810E-26 2.89789E-04-1.19950E-14-1.09296E-13
 -1        75-5.31403E-04 1.96305E-03 2.67955E-26-7.51520E-05 4.55123E-14-1.10914E-13
 -1        76-7.83214E-04 2.89478E-03 4.14626E-27-5.16894E-04 5.58338E-14-3.55804E-14
 -1        77-1.28286E-03 4.90545E-03-1.23358E-28-7.15076E-04 3.82522E-14 6.06258E-14
 -1        78-1.77357E-03 6.86753E-03 1.05190E-25-4.77466E-04-1.04656E-14 2.37120E-13
 -1        79-1.95988E-03 7.56410E-03 1.51532E-25 1.02923E-04-7.64677E-14 2.65248E-13
 -1        80-1.75047E-03 6.49064E-03 1.69129E-25 6.86798E-04-1.38849E-13 2.60982E-13
 -1        81-1.18315E-03 4.03072E-03 9.33124E-26 1.04380E-03-1.87907E-13 1.28414E-13
 -1        82-4.79705E-04 7.72322E-04 5.18359E-26 1.28739E-03-1.78150E-13-1.45332E-14
 -1        83 3.91117E-04-3.29601E-03 8.11294E-26 1.66375E-03-1.25823E-13-1.72282E-13
 -1        84 1.51705E-03-8.57804E-03 1.45021E-25 2.14619E-03-6.54020E-14-2.64728E-13
 -1        85 2.88761E-03-1.50152E-02 1.49158E-25 2.45228E-03-1.74158E-14-2.74067E-13
 -1        86 4.39987E-03-2.19520E-02 1.11638E-25 2.64230E-03 2.34809E-14-2.40850E-13
 -1        87 5.46067E-03-2.95231E-02 2.01131E-26 2.49437E-03 4.02396E-14-1.05919E-13
 -1        88 9.26164E-03-3.63506E-02 4.91110E-27 4.67687E-03 2.80767E-14-4.96698E-14
 -1        89-7.90002E-04 5.47796E-04 1.10194E-27 3.15866E-03-1.44395E-14-3.53260E-14
 -1        90-8.35255E-04 9.86035E-04 2.22988E-26 3.70823E-03-3.74656E-14-1.10670E-13
 -1        91-7.13413E-04 1.10924E-03 1.05414E-25 3.30570E-03-3.65390E-14-2.31071E-13
 -1        92-6.68411E-04 1.24660E-03 1.60417E-25 3.17924E-03-2.14491E-14-2.82664E-13
 -1        93-6.61717E-04 1.38199E-03 1.55742E-25 2.76579E-03-1.87308E-14-2.79885E-13
 -1        94-6.97558E-04 1.49288E-03 7.34324E-26 2.15845E-03-3.21266E-14-2.00084E-13
 -1        95-6.99957E-04 1.56203E-03-1.51735E-27 1.67902E-03-7.21703E-14-3.99771E-14
 -1        96-7.13867E-04 1.59697E-03 4.21318E-26 1.35763E-03-8.88322E-14 1.40583E-13
 -1        97-7.25575E-04 1.59231E-03 1.69778E-25 8.81252E-04-6.58477E-14 2.87918E-13
 -1        98-7.04353E-04 1.53121E-03 1.52342E-25 1.19409E-04-6.00181E-14 2.69597E-13
 -1        99-6.35042E-04 1.43546E-03 1.10687E-25-6.32491E-04-8.05067E-14 2.26411E-13
 -1       100-5.85850E-04 1.33726E-03 1.14574E-26-9.50667E-04-5.87174E-14 8.40629E-14
 -1       101-5.38560E-04 1.24326E-03-4.92301E-28-6.94585E-04-2.25442E-14-4.89762E-14
 -1       102-5.01532E-04 1.15580E-03 2.79336E-26-9.93400E-05 2.03866E-15-1.21152E-13
 -1       103-4.53073E-04 1.06603E-03 2.81841E-26 3.85564E-04 2.53896E-14-1.22834E-13
 -1       104-3.94508E-04 9.51572E-04-1.44477E-26 4.19778E-04 3.61830E-14 7.78599E-15
 -1       105-3.21808E-04 8.07547E-04 9.84090E-26 4.48530E-05 3.41746E-14 2.46677E-13
 -1       106-2.44920E-04 6.42266E-04 4.45569E-25-3.81145E-04 2.94997E-14 4.76710E-13
 -1       107-1.47178E-04 4.68262E-04 3.67885E-25-4.32376E-04 5.09653E-14 4.28889E-13
 -1       108-1.47178E-04 4.68262E-04 3.67860E-25-4.32376E-04 5.09635E-14 4.28873E-13
 -1       109-2.44920E-04 6.42266E-04 4.45566E-25-3.81145E-04 2.95004E-14 4.76709E-13
 -1       110-3.21808E-04 8.07547E-04 9.84054E-26 4.48530E-05 3.41744E-14 2.46679E-13
 -1       111-3.94508E-04 9.51572E-04-1.44482E-26 4.19778E-04 3.61824E-14 7.77900E-15
 -1       112-4.53073E-04 1.06603E-03 2.81791E-26 3.85564E-04 2.53907E-14-1.22818E-13
 -1       113-5.01532E-04 1.15580E-03 2.79337E-26-9.93400E-05 2.03862E-15-1.21151E-13
 -1       114-5.38560E-04 1.24326E-03-4.90866E-28-6.94585E-04-2.25428E-14-4.89760E-14
 -1       115-5.85850E-04 1.33726E-03 1.14624E-26-9.50667E-04-5.87166E-14 8.40711E-14
 -1       116-6.35042E-04 1.43546E-03 1.10686E-25-6.32491E-04-8.05070E-14 2.26408E-13
 -1       117-7.04353E-04 1.53121E-03 1.52342E-25 1.19409E-04-6.00185E-14 2.69597E-13
 -1       118-7.25575E-04 1.59231E-03 1.69779E-25 8.81252E-04-6.58477E-14 2.87919E-13
 -1       119-7.13867E-04 1.59697E-03 4.21297E-26 1.35763E-03-8.88331E-14 1.40577E-13
 -1       120-6.99957E-04 1.56203E-03-1.51941E-27 1.67902E-03-7.21688E-14-3.99671E-14
 -1       121-6.97558E-04 1.49288E-03 7.34351E-26 2.15845E-03-3.21275E-14-2.00088E-13
 -1       122-6.61717E-04 1.38199E-03 1.55739E-25 2.76579E-03-1.87303E-14-2.79882E-13
 -1       123-6.68411E-04 1.24660E-03 1.60419E-25 3.17924E-03-2.14493E-14-2.82666E-13
 -1       124-7.13413E-04 1.10924E-03 1.05412E-25 3.30570E-03-3.65392E-14-2.31070E-13
 -1       125-8.35255E-04 9.86035E-04 2.22986E-26 3.70823E-03-3.74657E-14-1.10670E-13
 -1       126-7.90002E-04 5.47796E-04 1.10195E-27 3.15866E-03-1.44394E-14-3.53260E-14
 -3
    1PSTEP                       176          44           1          
  100CL  144 4.40000E-01         126                     1   44           1
 -4  ERROR       1    1
 -5  STR(%)      1    1    0    0
 -1         1 6.38934E+01
 -1         2 6.38934E+01
 -1         3 6.47438E+01
 -1         4 6.47438E+01
 -1         5 1.78517E+01
 -1         6 1.78517E+01
 -1         7 6.27374E+01
 -1         8 6.27374E+01
 -1         9 6.47438E+01
 -1        10 6.47438E+01
 -1        11 6.38934E+01
 -1        12 6.38934E+01
 -1        13 6.38934E+01
 -1        14 6.07913E+01
 -1        15 6.00620E+01
 -1        16 5.79508E+01
 -1        17 5.36323E+01
 -1        18 4.52125E+01
 -1        19 3.23778E+01
 -1        20 7.20662E+01
 -1        21 8.47349E+01
 -1        22 8.47349E+01
 -1        23 8.19285E+01
 -1        24 8.68005E+01
 -1        25 8.68005E+01
 -1        26 4.47499E+01
 -1        27 9.68747E+01
 -1        28 9.68747E+01
 -1        29 8.67740E+01
 -1        30 8.46682E+01
 -1        31 7.19459E+01
 -1        32 6.38934E+01
 -1        33 6.07913E+01
 -1        34 6.00620E+01
 -1        35 5.79508E+01
 -1        36 5.36323E+01
 -1        37 4.52125E+01
 -1        38 3.23778E+01
 -1        39 7.20662E+01
 -1        40 8.47349E+01
 -1        41 8.47349E+01
 -1        42 8.19285E+01
 -1        43 8.68005E+01
 -1        44 8.68005E+01
 -1        45 4.47499E+01
 -1        46 9.68747E+01
 -1        47 9.68747E+01
 -1        48 8.67740E+01
 -1        49 8.46682E+01
 -1        50 7.19459E+01
 -1        51 3.91751E+01
 -1        52 4.48869E+01
 -1        53 4.48869E+01
 -1        54 4.35494E+01
 -1        55 3.30536E+01
 -1        56 1.65417E+01
 -1        57 3.17706E+01
 -1        58 4.33195E+01
 -1        59 4.61420E+01
 -1        60 4.61420E+01
 -1        61 4.54704E+01
 -1        62 3.72881E+01
 -1        63 6.33112E+01
 -1        64 6.33841E+01
 -1        65 6.60368E+01
 -1        66 6.60597E+01
 -1        67 6.60597E+01
 -1        68 6.49691E+01
 -1        69 6.33591E+01
 -1        70 3.91751E+01
 -1        71 4.48869E+01
 -1        72 4.48869E+01
 -1        73 4.35494E+01
 -1        74 3.30536E+01
 -1        75 1.65417E+01
 -1        76 3.17706E+01
 -1        77 4.33195E+01
 -1        78 4.61420E+01
 -1        79 4.61420E+01
 -1        80 4.54704E+01
 -1        81 3.72881E+01
 -1        82 6.33112E+01
 -1        83 6.33841E+01
 -1        84 6.60368E+01
 -1        85 6.60597E+01
 -1        86 6.60597E+01
 -1        87 6.49691E+01
 -1        88 6.33591E+01
 -1        89 6.38934E+01
 -1        90 6.49691E+01
 -1        91 6.60597E+01
 -1        92 6.60597E+01
 -1        93 6.60368E+01
 -1        94 6.33841E+01
 -1        95 6.33112E+01
 -1        96 7.20662E+01
 -1        97 8.47349E+01
 -1        98 8.47349E+01
 -1        99 8.19285E+01
 -1       100 8.68005E+01
 -1       101 8.68005E+01
 -1       102 4.47499E+01
 -1       103 9.68747E+01
 -1       104 9.68747E+01
 -1       105 8.67740E+01
 -1       106 8.46682E+01
 -1       107 7.19459E+01
 -1       108 7.19459E+01
 -1       109 8.46682E+01
 -1       110 8.67740E+01
 -1       111 9.68747E+01
 -1       112 9.68747E+01
 -1       113 4.47499E+01
 -1       114 8.68005E+01
 -1       115 8.68005E+01
 -1       116 8.19285E+01
 -1       117 8.47349E+01
 -1       118 8.47349E+01
 -1       119 7.20662E+01
 -1       120 6.33112E+01
 -1       121 6.33841E+01
 -1       122 6.60368E+01
 -1       123 6.60597E+01
 -1       124 6.60597E+01
 -1       125 6.49691E+01
 -1       126 6.38934E+01
 -3
    1PSTEP                       177          45           1          
  100CL  145 4.50000E-01         126                     1   45           1
 -4  DISP        4    1
 -5  D1          1    2    1    0
 -5  D2          1    2    2    0
 -5  D3          1    2    3    0
 -5  ALL         1    2    0    0    1ALL
 -1         1 0.00000E+00 0.00000E+00 0.00000E+00
 -1         2 0.00000E+00 0.00000E+00 0.00000E+00
 -1         3 1.22397E-01-5.48600E-04 0.00000E+00
 -1         4 1.22397E-01-5.48600E-04 0.00000E+00
 -1         5 1.21658E-01-1.26398E-02 0.00000E+00
 -1         6 1.21658E-01-1.26398E-02 0.00000E+00
 -1         7 0.00000E+00 0.00000E+00 0.00000E+00
 -1         8 0.00000E+00 0.00000E+00 0.00000E+00
 -1         9 1.22030E-01-6.58631E-03 0.00000E+00
 -1        10 1.22030E-01-6.58631E-03 0.00000E+00
 -1        11 0.00000E+00 0.00000E+00 0.00000E+00
 -1        12 0.00000E+00 0.00000E+00 0.00000E+00
 -1        13 1.76122E-03 1.96788E-03 0.00000E+00
 -1        14 4.99509E-03 3.62401E-03 0.00000E+00
 -1        15 9.78299E-03 4.80200E-03 0.00000E+00
 -1        16 1.57076E-02 5.55617E-03 0.00000E+00
 -1        17 2.24706E-02 5.91539E-03 0.00000E+00
 -1        18 2.97744E-02 5.92163E-03 0.00000E+00
 -1        19 3.73197E-02 5.64271E-03 0.00000E+00
 -1        20 4.48792E-02 5.16686E-03 0.00000E+00
 -1        21 5.23094E-02 4.57315E-03 0.00000E+00
 -1        22 5.95220E-02 3.91238E-03 0.00000E+00
 -1        23 6.64235E-02 3.23379E-03 0.00000E+00
 -1        24 7.29801E-02 2.60488E-03 0.00000E+00
 -1        25 7.92627E-02 2.08894E-03 0.00000E+00
 -1        26 8.54334E-02 1.69526E-03 0.00000E+00
 -1        27 9.16286E-02 1.36887E-03 0.00000E+00
 -1        28 9.78919E-02 1.03113E-03 0.00000E+00
 -1        29 1.04151E-01 6.43008E-04 0.00000E+00
 -1        30 1.10317E-01 2.24135E-04 0.00000E+00
 -1        31 1.16373E-01-1.78582E-04 0.00000E+00
 -1        32 1.76122E-03 1.96788E-03 0.00000E+00
 -1        33 4.99509E-03 3.62401E-03 0.00000E+00
 -1        34 9.78299E-03 4.80200E-03 0.00000E+00
 -1        35 1.57076E-02 5.55617E-03 0.00000E+00
 -1        36 2.24706E-02 5.91539E-03 0.00000E+00
 -1        37 2.97744E-02 5.92163E-03 0.00000E+00
 -1        38 3.73197E-02 5.64271E-03 0.00000E+00
 -1        39 4.48792E-02 5.16686E-03 0.00000E+00
 -1        40 5.23094E-02 4.57315E-03 0.00000E+00
 -1        41 5.95220E-02 3.91238E-03 0.00000E+00
 -1        42 6.64235E-02 3.23379E-03 0.00000E+00
 -1        43 7.29801E-02 2.60488E-03 0.00000E+00
 -1        44 7.92627E-02 2.08894E-03 0.00000E+00
 -1        45 8.54334E-02 1.69526E-03 0.00000E+00
 -1        46 9.16286E-02 1.36887E-03 0.00000E+00
 -1        47 9.78919E-02 1.03113E-03 0.00000E+00
 -1        48 1.04151E-01 6.43008E-04 0.00000E+00
 -1        49 1.10317E-01 2.24135E-04 0.00000E+00
 -1        50 1.16373E-01-1.78582E-04 0.00000E+00
 -1        51 1.15620E-01-1.23082E-02 0.00000E+00
 -1        52 1.09537E-01-1.20240E-02 0.00000E+00
 -1        53 1.03343E-01-1.17475E-02 0.00000E+00
 -1        54 9.70700E-02-1.14344E-02 0.00000E+00
 -1        55 9.08021E-02-1.10853E-02 0.00000E+00
 -1        56 8.45983E-02-1.07561E-02 0.00000E+00
 -1        57 7.84023E-02-1.05128E-02 0.00000E+00
 -1        58 7.20650E-02-1.03731E-02 0.00000E+00
 -1        59 6.54286E-02-1.02845E-02 0.00000E+00
 -1        60 5.84442E-02-1.01633E-02 0.00000E+00
 -1        61 5.11658E-02-9.94672E-03 0.00000E+00
 -1        62 4.36951E-02-9.60715E-03 0.00000E+00
 -1        63 3.61378E-02-9.11906E-03 0.00000E+00
 -1        64 2.86517E-02-8.44522E-03 0.00000E+00
 -1        65 2.14740E-02-7.56177E-03 0.00000E+00
 -1        66 1.48951E-02-6.47509E-03 0.00000E+00
 -1        67 9.19365E-03-5.19587E-03 0.00000E+00
 -1        68 4.62701E-03-3.71375E-03 0.00000E+00
 -1        69 1.59093E-03-1.95032E-03 0.00000E+00
 -1        70 1.15620E-01-1.23082E-02 0.00000E+00
 -1        71 1.09537E-01-1.20240E-02 0.00000E+00
 -1        72 1.03343E-01-1.17475E-02 0.00000E+00
 -1        73 9.70700E-02-1.14344E-02 0.00000E+00
 -1        74 9.08021E-02-1.10853E-02 0.00000E+00
 -1        75 8.45983E-02-1.07561E-02 0.00000E+00
 -1        76 7.84023E-02-1.05128E-02 0.00000E+00
 -1        77 7.20650E-02-1.03731E-02 0.00000E+00
 -1        78 6.54286E-02-1.02845E-02 0.00000E+00
 -1        79 5.84442E-02-1.01633E-02 0.00000E+00
 -1        80 5.11658E-02-9.94672E-03 0.00000E+00
 -1        81 4.36951E-02-9.60715E-03 0.00000E+00
 -1        82 3.61378E-02-9.11906E-03 0.00000E+00
 -1        83 2.86517E-02-8.44522E-03 0.00000E+00
 -1        84 2.14740E-02-7.56177E-03 0.00000E+00
 -1        85 1.48951E-02-6.47509E-03 0.00000E+00
 -1        86 9.19365E-03-5.19587E-03 0.00000E+00
 -1        87 4.62701E-03-3.71375E-03 0.00000E+00
 -1        88 1.59093E-03-1.95032E-03 0.00000E+00
 -1        89 1.18150E-03 2.08745E-05 0.00000E+00
 -1        90 4.49857E-03-1.56238E-05 0.00000E+00
 -1        91 9.23183E-03-1.65195E-04 0.00000E+00
 -1        92 1.51130E-02-4.32647E-04 0.00000E+00
 -1        93 2.18446E-02-8.03501E-04 0.00000E+00
 -1        94 2.91409E-02-1.25066E-03 0.00000E+00
 -1        95 3.67059E-02-1.73489E-03 0.00000E+00
 -1        96 4.42988E-02-2.22167E-03 0.00000E+00
 -1        97 5.17732E-02-2.69160E-03 0.00000E+00
 -1        98 5.90340E-02-3.13224E-03 0.00000E+00
 -1        99 6.59848E-02-3.53206E-03 0.00000E+00
 -1       100 7.25712E-02-3.88881E-03 0.00000E+00
 -1       101 7.88581E-02-4.21369E-03 0.00000E+00
 -1       102 8.50176E-02-4.52891E-03 0.00000E+00
 -1       103 9.12100E-02-4.85596E-03 0.00000E+00
 -1       104 9.74814E-02-5.20067E-03 0.00000E+00
 -1       105 1.03758E-01-5.55194E-03 0.00000E+00
 -1       106 1.09939E-01-5.89865E-03 0.00000E+00
 -1       107 1.16004E-01-6.24048E-03 0.00000E+00
 -1       108 1.16004E-01-6.24048E-03 0.00000E+00
 -1       109 1.09939E-01-5.89865E-03 0.00000E+00
 -1       110 1.03758E-01-5.55194E-03 0.00000E+00
 -1       111 9.74814E-02-5.20067E-03 0.00000E+00
 -1       112 9.12100E-02-4.85596E-03 0.00000E+00
 -1       113 8.50176E-02-4.52891E-03 0.00000E+00
 -1       114 7.88581E-02-4.21369E-03 0.00000E+00
 -1       115 7.25712E-02-3.88881E-03 0.00000E+00
 -1       116 6.59848E-02-3.53206E-03 0.00000E+00
 -1       117 5.90340E-02-3.13224E-03 0.00000E+00
 -1       118 5.17732E-02-2.69160E-03 0.00000E+00
 -1       119 4.42988E-02-2.22167E-03 0.00000E+00
 -1       120 3.67059E-02-1.73489E-03 0.00000E+00
 -1       121 2.91409E-02-1.25066E-03 0.00000E+00
 -1       122 2.18446E-02-8.03501E-04 0.00000E+00
 -1       123 1.51130E-02-4.32647E-04 0.00000E+00
 -1       124 9.23183E-03-1.65195E-04 0.00000E+00
 -1       125 4.49857E-03-1.56238E-05 0.00000E+00
 -1       126 1.18150E-03 2.08745E-05 0.00000E+00
 -3
    1PSTEP                       178          45           1          
  100CL  145 4.50000E-01         126                     1   45           1
 -4  STRESS      6    1
 -5  SXX         1    4    1    1
 -5  SYY         1    4    2    2
 -5  SZZ         1    4    3    3
 -5  SXY         1    4    1    2
 -5  SYZ         1    4    2    3
 -5  SZX         1    4    3    1
 -1         1 9.37510E+03 2.24783E+04 9.04653E+03 6.10773E+03-8.11972E-12-3.45167E-11
 -1         2 9.37510E+03 2.24783E+04 9.04653E+03 6.10773E+03-8.11972E-12-3.45167E-11
 -1         3-5.67080E+01-6.04683E+01-3.51491E+01-4.27838E+01-2.43556E-08 9.80606E-08
 -1         4-5.67080E+01-6.04683E+01-3.51491E+01-4.27838E+01-2.43559E-08 9.80616E-08
 -1         5 9.92880E+01 3.58889E+02 1.37311E+02-3.27251E+01 4.53021E-08 1.07107E-07
 -1         6 9.92880E+01 3.58889E+02 1.37311E+02-3.27251E+01 4.53000E-08 1.07105E-07
 -1         7-8.81338E+03-1.98355E+04-9.06074E+03 4.30420E+03-5.07697E-11 8.47192E-11
 -1         8-8.81338E+03-1.98355E+04-9.06074E+03 4.30420E+03-5.07697E-11 8.47192E-11
 -1         9 3.76174E+01 1.99565E+02 7.11073E+01-5.12127E+01 1.80517E-08 1.11645E-07
 -1        10 3.76174E+01 1.99565E+02 7.11073E+01-5.12127E+01 1.80523E-08 1.11644E-07
 -1        11 2.72571E+02 5.74263E+01 1.60733E+02 3.63031E+03-2.57226E-11 7.12629E-12
 -1        12 2.72571E+02 5.74263E+01 1.60733E+02 3.63031E+03-2.57226E-11 7.12629E-12
 -1        13 3.08133E+03 1.85691E+04 6.17991E+03 2.12255E+03-5.29288E-09-9.97089E-10
 -1        14 3.61602E+03 1.58534E+04 5.59949E+03 1.66987E+03-5.55549E-09-2.15712E-08
 -1        15 2.80331E+03 1.22593E+04 4.36779E+03 1.73894E+03-8.03536E-09-4.17623E-08
 -1        16 2.19559E+03 9.20037E+03 3.32876E+03 1.56751E+03-2.21079E-08-4.48887E-08
 -1        17 1.55174E+03 6.33823E+03 2.32034E+03 1.32934E+03-3.77548E-08-7.54608E-08
 -1        18 9.01888E+02 3.75057E+03 1.37675E+03 1.00535E+03-3.11758E-08-1.43913E-07
 -1        19 3.49960E+02 1.64036E+03 5.91768E+02 6.45608E+02 1.18711E-08-1.94539E-07
 -1        20-1.00006E+02 8.12704E+01-6.56825E+00 3.45073E+02 6.23426E-08-1.84072E-07
 -1        21-4.10975E+02-1.01531E+03-4.28865E+02 1.31264E+02 7.91064E-08-7.99281E-08
 -1        22-6.45797E+02-1.75845E+03-7.23936E+02-4.06324E+01 5.24501E-08 4.04453E-08
 -1        23-7.10805E+02-1.98495E+03-8.12311E+02-2.00615E+02 7.37929E-09 9.22469E-08
 -1        24-6.27649E+02-1.56213E+03-6.59407E+02-2.90114E+02-2.84166E-08 9.95515E-08
 -1        25-4.21010E+02-6.67822E+02-3.27347E+02-2.50852E+02-4.01773E-08 8.90288E-08
 -1        26-2.09247E+02 1.62602E+02-1.42447E+01-1.04456E+02-2.54647E-08 5.70943E-08
 -1        27-4.96427E+01 4.76452E+02 1.27652E+02 4.68062E+01 1.06423E-09 6.44991E-08
 -1        28-5.81836E+01 2.10492E+02 4.55103E+01 1.07548E+02 2.62237E-08 7.92380E-08
 -1        29-1.44177E+02-2.20899E+02-1.09620E+02 4.94798E+01 3.22091E-08 1.09959E-07
 -1        30-1.83563E+02-3.79452E+02-1.69060E+02-4.73353E+01 1.01844E-08 1.57506E-07
 -1        31-1.17768E+02-2.03493E+02-9.64242E+01-7.20830E+01-1.40737E-08 1.42367E-07
 -1        32 3.08133E+03 1.85691E+04 6.17991E+03 2.12255E+03-5.29288E-09-9.97089E-10
 -1        33 3.61602E+03 1.58534E+04 5.59949E+03 1.66987E+03-5.55549E-09-2.15712E-08
 -1        34 2.80331E+03 1.22593E+04 4.36779E+03 1.73894E+03-8.03538E-09-4.17623E-08
 -1        35 2.19559E+03 9.20037E+03 3.32876E+03 1.56751E+03-2.21080E-08-4.48887E-08
 -1        36 1.55174E+03 6.33823E+03 2.32034E+03 1.32934E+03-3.77548E-08-7.54610E-08
 -1        37 9.01888E+02 3.75057E+03 1.37675E+03 1.00535E+03-3.11760E-08-1.43913E-07
 -1        38 3.49960E+02 1.64036E+03 5.91768E+02 6.45608E+02 1.18716E-08-1.94535E-07
 -1        39-1.00006E+02 8.12704E+01-6.56825E+00 3.45073E+02 6.23426E-08-1.84072E-07
 -1        40-4.10975E+02-1.01531E+03-4.28865E+02 1.31264E+02 7.91063E-08-7.99267E-08
 -1        41-6.45797E+02-1.75845E+03-7.23936E+02-4.06324E+01 5.24501E-08 4.04449E-08
 -1        42-7.10805E+02-1.98495E+03-8.12311E+02-2.00615E+02 7.37929E-09 9.22487E-08
 -1        43-6.27649E+02-1.56213E+03-6.59407E+02-2.90114E+02-2.84166E-08 9.95505E-08
 -1        44-4.21010E+02-6.67822E+02-3.27347E+02-2.50852E+02-4.01772E-08 8.90279E-08
 -1        45-2.09247E+02 1.62602E+02-1.42447E+01-1.04456E+02-2.54647E-08 5.70984E-08
 -1        46-4.96427E+01 4.76452E+02 1.27652E+02 4.68062E+01 1.06414E-09 6.44991E-08
 -1        47-5.81836E+01 2.10492E+02 4.55103E+01 1.07548E+02 2.62237E-08 7.92380E-08
 -1        48-1.44177E+02-2.20899E+02-1.09620E+02 4.94798E+01 3.22092E-08 1.09962E-07
 -1        49-1.83563E+02-3.79452E+02-1.69060E+02-4.73353E+01 1.01844E-08 1.57508E-07
 -1        50-1.17768E+02-2.03493E+02-9.64242E+01-7.20830E+01-1.40737E-08 1.42368E-07
 -1        51 1.17600E+02 5.89667E+02 2.11722E+02 6.45325E+00 2.43616E-08 1.40603E-07
 -1        52 1.77274E+02 9.18928E+02 3.27831E+02 8.58499E+01-3.79106E-09 1.24617E-07
 -1        53 1.56329E+02 8.59578E+02 3.03795E+02 1.61182E+02-2.44683E-08 1.01248E-07
 -1        54 9.28052E+01 5.55948E+02 1.94152E+02 1.43653E+02-2.11755E-08 4.97028E-08
 -1        55 4.42426E+01 4.59554E+02 1.50822E+02 4.61269E+01-1.30016E-08 4.98390E-08
 -1        56 1.14412E+02 9.51637E+02 3.18552E+02-3.27194E+01-5.05900E-09 6.00682E-08
 -1        57 2.91368E+02 1.94336E+03 6.65856E+02 3.49650E+00-2.54819E-09 7.89024E-08
 -1        58 5.22296E+02 2.93923E+03 1.02869E+03 1.66591E+02-2.39438E-08 1.05955E-07
 -1        59 6.58130E+02 3.39693E+03 1.20356E+03 3.69608E+02-5.95618E-08 8.75737E-08
 -1        60 6.65232E+02 3.17382E+03 1.14000E+03 4.94360E+02-8.65465E-08 1.53522E-08
 -1        61 5.04815E+02 2.42206E+03 8.70489E+02 5.16133E+02-7.84220E-08-1.04633E-07
 -1        62 2.34360E+02 1.27934E+03 4.50852E+02 4.80255E+02-3.21345E-08-1.82964E-07
 -1        63-1.38769E+02-3.41150E+02-1.45407E+02 4.12109E+02 2.82292E-08-2.00483E-07
 -1        64-6.31722E+02-2.49883E+03-9.46165E+02 2.86809E+02 5.46471E-08-1.31349E-07
 -1        65-1.28195E+03-5.05822E+03-1.92785E+03 1.06958E+02 4.47975E-08-7.35513E-08
 -1        66-2.00754E+03-7.80585E+03-3.00507E+03-6.09472E+01 2.70221E-08-3.42212E-08
 -1        67-2.72537E+03-1.06810E+04-4.13729E+03-9.87220E+01 1.60884E-08-2.85742E-08
 -1        68-3.86402E+03-1.40770E+04-5.58782E+03-8.17423E+01 1.38064E-08-2.84887E-08
 -1        69-3.33597E+03-1.65040E+04-6.23476E+03 7.18843E+02 8.51009E-09-5.79496E-09
 -1        70 1.17600E+02 5.89667E+02 2.11722E+02 6.45325E+00 2.43624E-08 1.40604E-07
 -1        71 1.77274E+02 9.18928E+02 3.27831E+02 8.58499E+01-3.79091E-09 1.24621E-07
 -1        72 1.56329E+02 8.59578E+02 3.03795E+02 1.61182E+02-2.44684E-08 1.01247E-07
 -1        73 9.28052E+01 5.55948E+02 1.94152E+02 1.43653E+02-2.11745E-08 4.97105E-08
 -1        74 4.42426E+01 4.59554E+02 1.50822E+02 4.61269E+01-1.30025E-08 4.98321E-08
 -1        75 1.14412E+02 9.51637E+02 3.18552E+02-3.27194E+01-5.05897E-09 6.00671E-08
 -1        76 2.91368E+02 1.94336E+03 6.65856E+02 3.49650E+00-2.54722E-09 7.89048E-08
 -1        77 5.22296E+02 2.93923E+03 1.02869E+03 1.66591E+02-2.39443E-08 1.05955E-07
 -1        78 6.58130E+02 3.39693E+03 1.20356E+03 3.69608E+02-5.95607E-08 8.75738E-08
 -1        79 6.65232E+02 3.17382E+03 1.14000E+03 4.94360E+02-8.65475E-08 1.53487E-08
 -1        80 5.04815E+02 2.42206E+03 8.70489E+02 5.16133E+02-7.84215E-08-1.04632E-07
 -1        81 2.34360E+02 1.27934E+03 4.50852E+02 4.80255E+02-3.21346E-08-1.82963E-07
 -1        82-1.38769E+02-3.41150E+02-1.45407E+02 4.12109E+02 2.82295E-08-2.00486E-07
 -1        83-6.31722E+02-2.49883E+03-9.46165E+02 2.86809E+02 5.46471E-08-1.31347E-07
 -1        84-1.28195E+03-5.05822E+03-1.92785E+03 1.06958E+02 4.47977E-08-7.35522E-08
 -1        85-2.00754E+03-7.80585E+03-3.00507E+03-6.09472E+01 2.70226E-08-3.42188E-08
 -1        86-2.72537E+03-1.06810E+04-4.13729E+03-9.87220E+01 1.60885E-08-2.85752E-08
 -1        87-3.86402E+03-1.40770E+04-5.58782E+03-8.17423E+01 1.38064E-08-2.84887E-08
 -1        88-3.33597E+03-1.65040E+04-6.23476E+03 7.18843E+02 8.51009E-09-5.79496E-09
 -1        89 6.46396E-01 7.91214E+00 2.33334E+01 8.88279E+02 1.54959E-09-3.90172E-09
 -1        90 5.71332E+01 2.14258E+02 1.10919E+02 1.09871E+03 9.85181E-09-2.56160E-08
 -1        91 1.29967E+02 3.18791E+02 1.49155E+02 9.58375E+02 8.62391E-09-2.99189E-08
 -1        92 1.66738E+02 3.99803E+02 1.76966E+02 9.13448E+02 1.47972E-09-4.04101E-08
 -1        93 1.93087E+02 4.69432E+02 2.00598E+02 8.74390E+02 3.93334E-09-6.99282E-08
 -1        94 1.84152E+02 5.34095E+02 2.14743E+02 7.95995E+02 1.24226E-08-1.40331E-07
 -1        95 1.46166E+02 6.05408E+02 2.23924E+02 6.52737E+02 2.38479E-08-2.10463E-07
 -1        96 9.68239E+01 6.55122E+02 2.24199E+02 4.99671E+02 1.75322E-08-1.91067E-07
 -1        97 6.69154E+01 6.77574E+02 2.22547E+02 3.80713E+02-3.20295E-09-9.53327E-08
 -1        98 2.42882E+01 6.83216E+02 2.11928E+02 2.58471E+02-1.81125E-08 3.28271E-08
 -1        99-2.16932E+01 6.90402E+02 2.00352E+02 7.74940E+01-2.45585E-08 1.01316E-07
 -1       100-6.32005E+01 6.86506E+02 1.86635E+02-1.14384E+02-2.79907E-08 1.10335E-07
 -1       101-8.14062E+01 6.50677E+02 1.70346E+02-1.95162E+02-2.24254E-08 8.45332E-08
 -1       102-5.85281E+01 5.69144E+02 1.52726E+02-1.15339E+02-1.59593E-08 5.45707E-08
 -1       103-4.76500E+00 4.64795E+02 1.37641E+02 4.42519E+01-1.07211E-08 5.06255E-08
 -1       104 2.36722E+01 3.77178E+02 1.20005E+02 1.49592E+02 1.29706E-09 6.42028E-08
 -1       105 1.52710E+01 3.23594E+02 1.01459E+02 1.24168E+02 5.66697E-10 1.05734E-07
 -1       106 7.36334E-01 2.81268E+02 8.44663E+01 1.43584E+01 1.02472E-09 1.48010E-07
 -1       107 8.17277E+00 2.24788E+02 6.98485E+01-4.79333E+01 1.13954E-08 1.45429E-07
 -1       108 8.17277E+00 2.24788E+02 6.98485E+01-4.79333E+01 1.13954E-08 1.45436E-07
 -1       109 7.36334E-01 2.81268E+02 8.44663E+01 1.43584E+01 1.02482E-09 1.48012E-07
 -1       110 1.52710E+01 3.23594E+02 1.01459E+02 1.24168E+02 5.66809E-10 1.05733E-07
 -1       111 2.36722E+01 3.77178E+02 1.20005E+02 1.49592E+02 1.29692E-09 6.42027E-08
 -1       112-4.76500E+00 4.64795E+02 1.37641E+02 4.42519E+01-1.07208E-08 5.06262E-08
 -1       113-5.85281E+01 5.69144E+02 1.52726E+02-1.15339E+02-1.59593E-08 5.45681E-08
 -1       114-8.14062E+01 6.50677E+02 1.70346E+02-1.95162E+02-2.24257E-08 8.45297E-08
 -1       115-6.32005E+01 6.86506E+02 1.86635E+02-1.14384E+02-2.79907E-08 1.10337E-07
 -1       116-2.16932E+01 6.90402E+02 2.00352E+02 7.74940E+01-2.45585E-08 1.01313E-07
 -1       117 2.42882E+01 6.83216E+02 2.11928E+02 2.58471E+02-1.81125E-08 3.28284E-08
 -1       118 6.69154E+01 6.77574E+02 2.22547E+02 3.80713E+02-3.20283E-09-9.53363E-08
 -1       119 9.68239E+01 6.55122E+02 2.24199E+02 4.99671E+02 1.75322E-08-1.91067E-07
 -1       120 1.46166E+02 6.05408E+02 2.23924E+02 6.52737E+02 2.38475E-08-2.10463E-07
 -1       121 1.84152E+02 5.34095E+02 2.14743E+02 7.95995E+02 1.24226E-08-1.40330E-07
 -1       122 1.93087E+02 4.69432E+02 2.00598E+02 8.74390E+02 3.93317E-09-6.99275E-08
 -1       123 1.66738E+02 3.99803E+02 1.76966E+02 9.13448E+02 1.47984E-09-4.04104E-08
 -1       124 1.29967E+02 3.18791E+02 1.49155E+02 9.58375E+02 8.62396E-09-2.99190E-08
 -1       125 5.71332E+01 2.14258E+02 1.10919E+02 1.09871E+03 9.85181E-09-2.56160E-08
 -1       126 6.46396E-01 7.91214E+00 2.33334E+01 8.88279E+02 1.54959E-09-3.90172E-09
 -3
    1PSTEP                       179          45           1          
  100CL  145 4.50000E-01         126                     1   45           1
 -4  TOSTRAIN    6    1
 -5  EXX         1    4    1    1
 -5  EYY         1    4    2    2
 -5  EZZ         1    4    3    3
 -5  EXY         1    4    1    2
 -5  EYZ         1    4    2    3
 -5  EZX         1    4    3    1
 -1         1-1.37377E-04 4.06141E-02-5.75507E-29 1.76119E-02-9.02264E-20-1.08667E-16
 -1         2-1.37377E-04 4.06141E-02-5.75507E-29 1.76119E-02-9.02264E-20-1.08667E-16
 -1         3-3.69848E-05-1.15344E-04 2.01665E-25-1.33594E-04-4.00927E-14 3.25951E-13
 -1         4-3.69848E-05-1.15344E-04 2.01671E-25-1.33594E-04-4.00931E-14 3.25954E-13
 -1         5-8.57729E-05 6.81120E-04 2.77563E-25-2.04146E-04 1.88114E-13 3.27712E-13
 -1         6-8.57729E-05 6.81120E-04 2.77549E-25-2.04146E-04 1.88106E-13 3.27707E-13
 -1         7-1.35255E-04-3.78737E-02-3.87431E-28 1.59090E-02-3.94673E-19 2.25043E-16
 -1         8-1.35255E-04-3.78737E-02-3.87431E-28 1.59090E-02-3.94673E-19 2.25043E-16
 -1         9-6.13789E-05 3.69575E-04 2.61458E-25-2.24472E-04 1.02064E-13 3.53102E-13
 -1        10-6.13789E-05 3.69575E-04 2.61449E-25-2.24472E-04 1.02065E-13 3.53097E-13
 -1        11-1.36316E-04 5.60393E-04-2.91973E-29 1.18148E-02-2.42974E-20 2.92918E-17
 -1        12-1.36316E-04 5.60393E-04-2.91973E-29 1.18148E-02-2.42974E-20 2.92918E-17
 -1        13-1.08854E-02 3.81400E-02-4.07551E-28 4.50999E-03-1.64878E-14-2.40161E-15
 -1        14-7.30865E-03 3.20143E-02 8.08248E-27 2.28259E-03-2.22442E-14-6.80352E-14
 -1        15-6.07453E-03 2.52722E-02 3.55014E-26 2.34009E-03-3.84462E-14-1.31760E-13
 -1        16-4.67389E-03 1.92608E-02 4.72358E-26 2.12878E-03-8.68558E-14-1.35405E-13
 -1        17-3.42496E-03 1.35632E-02 1.30766E-25 2.01891E-03-1.51996E-13-2.25445E-13
 -1        18-2.30518E-03 8.30434E-03 4.33147E-25 1.77736E-03-1.65672E-13-4.47376E-13
 -1        19-1.31667E-03 3.88979E-03 7.91508E-25 1.37800E-03-5.49254E-14-6.30874E-13
 -1        20-6.24462E-04 5.97227E-04 7.70771E-25 9.82885E-04 1.11896E-13-6.22225E-13
 -1        21-1.12146E-04-1.74412E-03 1.98130E-25 6.92591E-04 2.17185E-13-2.94959E-13
 -1        22 2.09435E-04-3.34063E-03 4.10226E-26 3.79266E-04 1.88149E-13 1.06138E-13
 -1        23 4.17167E-04-3.92995E-03 1.67490E-25-7.38565E-05 6.46513E-14 2.94223E-13
 -1        24 2.85810E-04-3.13820E-03 2.23913E-25-5.22426E-04-4.97739E-14 3.33131E-13
 -1        25-1.16754E-04-1.30001E-03 1.98039E-25-6.90558E-04-9.32305E-14 3.03616E-13
 -1        26-5.32576E-04 4.71131E-04 7.89850E-26-4.78271E-04-5.89881E-14 1.94476E-13
 -1        27-5.88289E-04 1.14175E-03 8.43012E-26-6.37059E-05 2.95034E-14 2.07627E-13
 -1        28-4.10394E-04 6.07841E-04 1.41068E-25 2.30353E-04 1.16589E-13 2.44909E-13
 -1        29-1.56661E-04-3.18194E-04 2.67555E-25 1.86251E-04 1.48236E-13 3.41721E-13
 -1        30-2.05339E-05-7.11829E-04 5.20449E-25-7.19212E-05 9.56433E-14 5.04195E-13
 -1        31-1.73629E-05-4.00365E-04 4.25693E-25-1.93950E-04 1.07097E-14 4.64935E-13
 -1        32-1.08854E-02 3.81400E-02-4.07551E-28 4.50999E-03-1.64878E-14-2.40161E-15
 -1        33-7.30865E-03 3.20143E-02 8.08248E-27 2.28259E-03-2.22442E-14-6.80352E-14
 -1        34-6.07453E-03 2.52722E-02 3.55014E-26 2.34009E-03-3.84463E-14-1.31760E-13
 -1        35-4.67389E-03 1.92608E-02 4.72358E-26 2.12878E-03-8.68559E-14-1.35405E-13
 -1        36-3.42496E-03 1.35632E-02 1.30766E-25 2.01891E-03-1.51996E-13-2.25446E-13
 -1        37-2.30518E-03 8.30434E-03 4.33148E-25 1.77736E-03-1.65673E-13-4.47376E-13
 -1        38-1.31667E-03 3.88979E-03 7.91478E-25 1.37800E-03-5.49221E-14-6.30862E-13
 -1        39-6.24462E-04 5.97227E-04 7.70771E-25 9.82885E-04 1.11897E-13-6.22225E-13
 -1        40-1.12146E-04-1.74412E-03 1.98126E-25 6.92591E-04 2.17185E-13-2.94954E-13
 -1        41 2.09435E-04-3.34063E-03 4.10237E-26 3.79266E-04 1.88149E-13 1.06137E-13
 -1        42 4.17167E-04-3.92995E-03 1.67498E-25-7.38565E-05 6.46521E-14 2.94229E-13
 -1        43 2.85810E-04-3.13820E-03 2.23909E-25-5.22426E-04-4.97744E-14 3.33128E-13
 -1        44-1.16754E-04-1.30001E-03 1.98037E-25-6.90558E-04-9.32306E-14 3.03613E-13
 -1        45-5.32576E-04 4.71131E-04 7.89960E-26-4.78271E-04-5.89862E-14 1.94489E-13
 -1        46-5.88289E-04 1.14175E-03 8.43013E-26-6.37059E-05 2.95031E-14 2.07627E-13
 -1        47-4.10394E-04 6.07841E-04 1.41068E-25 2.30353E-04 1.16589E-13 2.44909E-13
 -1        48-1.56661E-04-3.18194E-04 2.67570E-25 1.86251E-04 1.48238E-13 3.41731E-13
 -1        49-2.05339E-05-7.11829E-04 5.20461E-25-7.19212E-05 9.56439E-14 5.04201E-13
 -1        50-1.73629E-05-4.00365E-04 4.25698E-25-1.93950E-04 1.07101E-14 4.64937E-13
 -1        51-2.88608E-04 1.20705E-03 4.25239E-25-1.64144E-04 1.33847E-13 4.43935E-13
 -1        52-5.22315E-04 1.94469E-03 3.23441E-25-2.27495E-05 3.73200E-14 4.03377E-13
 -1        53-5.74204E-04 1.89223E-03 2.21044E-25 2.25628E-04-3.80177E-14 3.36362E-13
 -1        54-4.21968E-04 1.26408E-03 5.45935E-26 2.65029E-04-4.80503E-14 1.68879E-13
 -1        55-3.63060E-04 1.01706E-03 5.58846E-26-2.14574E-05-2.17090E-14 1.65984E-13
 -1        56-5.95893E-04 1.97868E-03 7.55140E-26-4.36328E-04 7.99172E-15 1.95735E-13
 -1        57-1.13862E-03 4.03231E-03 1.27840E-25-6.54484E-04 2.39985E-14 2.55366E-13
 -1        58-1.66371E-03 6.13827E-03 2.45288E-25-4.82909E-04-3.21559E-14 3.51285E-13
 -1        59-1.94636E-03 7.18381E-03 2.18859E-25-3.59366E-05-1.51846E-13 3.07934E-13
 -1        60-1.84139E-03 6.80167E-03 1.06543E-25 3.99591E-04-2.69001E-13 8.91555E-14
 -1        61-1.54727E-03 5.33220E-03 2.96960E-25 7.01844E-04-2.99447E-13-2.98887E-13
 -1        62-1.09204E-03 3.05072E-03 6.98730E-25 9.89147E-04-1.90439E-13-5.72336E-13
 -1        63-3.91974E-04-2.35397E-04 8.51861E-25 1.37868E-03-5.45655E-15-6.58409E-13
 -1        64 6.12172E-04-4.69724E-03 4.08159E-25 1.77664E-03 1.15152E-13-4.49000E-13
 -1        65 1.73653E-03-1.00372E-02 1.43501E-25 2.02136E-03 1.13569E-13-2.57498E-13
 -1        66 2.92863E-03-1.58247E-02 3.53545E-26 2.13917E-03 7.53209E-14-1.21712E-13
 -1        67 4.25039E-03-2.19411E-02 2.28757E-26 2.38374E-03 4.40114E-14-9.82494E-14
 -1        68 5.22602E-03-2.89981E-02 2.07290E-26 2.33004E-03 3.97603E-14-9.63222E-14
 -1        69 8.88041E-03-3.53891E-02 1.17625E-27 4.34442E-03 2.84215E-14-2.01627E-14
 -1        70-2.88608E-04 1.20705E-03 4.25247E-25-1.64144E-04 1.33850E-13 4.43940E-13
 -1        71-5.22315E-04 1.94469E-03 3.23465E-25-2.27495E-05 3.73223E-14 4.03392E-13
 -1        72-5.74204E-04 1.89223E-03 2.21040E-25 2.25628E-04-3.80183E-14 3.36359E-13
 -1        73-4.21968E-04 1.26408E-03 5.46095E-26 2.65029E-04-4.80439E-14 1.68903E-13
 -1        74-3.63060E-04 1.01706E-03 5.58703E-26-2.14574E-05-2.17147E-14 1.65962E-13
 -1        75-5.95893E-04 1.97868E-03 7.55107E-26-4.36328E-04 7.99137E-15 1.95731E-13
 -1        76-1.13862E-03 4.03231E-03 1.27848E-25-6.54484E-04 2.40026E-14 2.55374E-13
 -1        77-1.66371E-03 6.13827E-03 2.45289E-25-4.82909E-04-3.21576E-14 3.51285E-13
 -1        78-1.94636E-03 7.18381E-03 2.18858E-25-3.59366E-05-1.51843E-13 3.07934E-13
 -1        79-1.84139E-03 6.80167E-03 1.06547E-25 3.99591E-04-2.69005E-13 8.91447E-14
 -1        80-1.54727E-03 5.33220E-03 2.96957E-25 7.01844E-04-2.99445E-13-2.98883E-13
 -1        81-1.09204E-03 3.05072E-03 6.98722E-25 9.89147E-04-1.90439E-13-5.72333E-13
 -1        82-3.91974E-04-2.35397E-04 8.51890E-25 1.37868E-03-5.45716E-15-6.58420E-13
 -1        83 6.12172E-04-4.69724E-03 4.08152E-25 1.77664E-03 1.15153E-13-4.48995E-13
 -1        84 1.73653E-03-1.00372E-02 1.43505E-25 2.02136E-03 1.13570E-13-2.57501E-13
 -1        85 2.92863E-03-1.58247E-02 3.53511E-26 2.13917E-03 7.53234E-14-1.21705E-13
 -1        86 4.25039E-03-2.19411E-02 2.28772E-26 2.38374E-03 4.40116E-14-9.82527E-14
 -1        87 5.22602E-03-2.89981E-02 2.07290E-26 2.33004E-03 3.97603E-14-9.63222E-14
 -1        88 8.88041E-03-3.53891E-02 1.17625E-27 4.34442E-03 2.84215E-14-2.01627E-14
 -1        89-1.00248E-03 9.66171E-04-7.87230E-28 2.86641E-03 4.56881E-15-1.28652E-14
 -1        90-1.04131E-03 1.40311E-03 1.46363E-26 3.48279E-03 2.57714E-14-8.55657E-14
 -1        91-9.12069E-04 1.49100E-03 1.95601E-26 2.97822E-03 1.79648E-14-9.97342E-14
 -1        92-8.72632E-04 1.60168E-03 3.06817E-26 2.77931E-03-1.12027E-14-1.30955E-13
 -1        93-8.44215E-04 1.69623E-03 8.74103E-26 2.60575E-03-1.80520E-14-2.26883E-13
 -1        94-8.46503E-04 1.77180E-03 3.95955E-25 2.30664E-03-2.55488E-14-4.57187E-13
 -1        95-8.54321E-04 1.82435E-03 9.40338E-25 1.80148E-03-2.42863E-14-6.88104E-13
 -1        96-8.58252E-04 1.83016E-03 7.54721E-25 1.28100E-03-3.53667E-14-6.22699E-13
 -1        97-8.29707E-04 1.79326E-03 1.24247E-25 8.95133E-04-5.52014E-14-3.05033E-13
 -1        98-8.15977E-04 1.73189E-03-2.48794E-26 5.05457E-04-4.31814E-14 1.13997E-13
 -1        99-7.64594E-04 1.62980E-03 2.18032E-25-6.75417E-05-3.44943E-14 3.37153E-13
 -1       100-6.88952E-04 1.49560E-03 2.72897E-25-6.70363E-04-4.35506E-14 3.67411E-13
 -1       101-6.27685E-04 1.36522E-03 1.57617E-25-9.08307E-04-3.75942E-14 2.81727E-13
 -1       102-5.64235E-04 1.22627E-03 6.63323E-26-6.13192E-04-2.93288E-14 1.82440E-13
 -1       103-4.75675E-04 1.07249E-03 5.56278E-26-4.90543E-05-1.40515E-14 1.67620E-13
 -1       104-4.16181E-04 9.36423E-04 8.09682E-26 3.28038E-04 3.01695E-14 2.06516E-13
 -1       105-3.65433E-04 8.05103E-04 2.27456E-25 2.67212E-04 4.43754E-14 3.40784E-13
 -1       106-2.71424E-04 6.37351E-04 4.58978E-25-6.56154E-05 6.21933E-14 4.77044E-13
 -1       107-1.52986E-04 4.55640E-04 4.46418E-25-2.35676E-04 9.40512E-14 4.64704E-13
 -1       108-1.52986E-04 4.55640E-04 4.46457E-25-2.35676E-04 9.40537E-14 4.64725E-13
 -1       109-2.71424E-04 6.37351E-04 4.58994E-25-6.56154E-05 6.21948E-14 4.77053E-13
 -1       110-3.65433E-04 8.05103E-04 2.27448E-25 2.67212E-04 4.43752E-14 3.40779E-13
 -1       111-4.16181E-04 9.36423E-04 8.09686E-26 3.28038E-04 3.01690E-14 2.06516E-13
 -1       112-4.75675E-04 1.07249E-03 5.56291E-26-4.90543E-05-1.40503E-14 1.67622E-13
 -1       113-5.64235E-04 1.22627E-03 6.63256E-26-6.13192E-04-2.93300E-14 1.82432E-13
 -1       114-6.27685E-04 1.36522E-03 1.57604E-25-9.08307E-04-3.75967E-14 2.81716E-13
 -1       115-6.88952E-04 1.49560E-03 2.72905E-25-6.70363E-04-4.35496E-14 3.67417E-13
 -1       116-7.64594E-04 1.62980E-03 2.18017E-25-6.75417E-05-3.44960E-14 3.37142E-13
 -1       117-8.15977E-04 1.73189E-03-2.48821E-26 5.05457E-04-4.31806E-14 1.14001E-13
 -1       118-8.29707E-04 1.79326E-03 1.24257E-25 8.95133E-04-5.52027E-14-3.05045E-13
 -1       119-8.58252E-04 1.83016E-03 7.54722E-25 1.28100E-03-3.53668E-14-6.22699E-13
 -1       120-8.54321E-04 1.82435E-03 9.40336E-25 1.80148E-03-2.42876E-14-6.88103E-13
 -1       121-8.46503E-04 1.77180E-03 3.95948E-25 2.30664E-03-2.55485E-14-4.57185E-13
 -1       122-8.44215E-04 1.69623E-03 8.74076E-26 2.60575E-03-1.80522E-14-2.26880E-13
 -1       123-8.72632E-04 1.60168E-03 3.06823E-26 2.77931E-03-1.12024E-14-1.30956E-13
 -1       124-9.12069E-04 1.49100E-03 1.95602E-26 2.97822E-03 1.79649E-14-9.97344E-14
 -1       125-1.04131E-03 1.40311E-03 1.46363E-26 3.48279E-03 2.57714E-14-8.55657E-14
 -1       126-1.00248E-03 9.66171E-04-7.87230E-28 2.86641E-03 4.56881E-15-1.28652E-14
 -3
    1PSTEP                       180          45           1          
  100CL  145 4.50000E-01         126                     1   45           1
 -4  ERROR       1    1
 -5  STR(%)      1    1    0    0
 -1         1 6.30641E+01
 -1         2 6.30641E+01
 -1         3 6.03610E+01
 -1         4 6.03610E+01
 -1         5 1.51886E+01
 -1         6 1.51886E+01
 -1         7 6.32539E+01
 -1         8 6.32539E+01
 -1         9 6.03610E+01
 -1        10 6.03610E+01
 -1        11 6.32539E+01
 -1        12 6.32539E+01
 -1        13 6.30641E+01
 -1        14 5.98011E+01
 -1        15 5.90566E+01
 -1        16 5.72549E+01
 -1        17 5.41713E+01
 -1        18 4.77463E+01
 -1        19 3.21091E+01
 -1        20 8.08928E+01
 -1        21 8.73299E+01
 -1        22 8.73299E+01
 -1        23 8.62721E+01
 -1        24 8.62721E+01
 -1        25 7.79480E+01
 -1        26 6.37472E+01
 -1        27 3.30421E+00
 -1        28 5.57738E+01
 -1        29 8.46363E+01
 -1        30 8.66946E+01
 -1        31 8.66946E+01
 -1        32 6.30641E+01
 -1        33 5.98011E+01
 -1        34 5.90566E+01
 -1        35 5.72549E+01
 -1        36 5.41713E+01
 -1        37 4.77463E+01
 -1        38 3.21091E+01
 -1        39 8.08928E+01
 -1        40 8.73299E+01
 -1        41 8.73299E+01
 -1        42 8.62721E+01
 -1        43 8.62721E+01
 -1        44 7.79480E+01
 -1        45 6.37472E+01
 -1        46 3.30421E+00
 -1        47 5.57738E+01
 -1        48 8.46363E+01
 -1        49 8.66946E+01
 -1        50 8.66946E+01
 -1        51 3.45913E+01
 -1        52 3.61086E+01
 -1        53 3.61086E+01
 -1        54 1.89938E+01
 -1        55 2.96268E+00
 -1        56 2.12540E+01
 -1        57 3.94213E+01
 -1        58 4.42480E+01
 -1        59 4.42480E+01
 -1        60 4.36458E+01
 -1        61 4.02347E+01
 -1        62 2.82408E+01
 -1        63 7.88304E+01
 -1        64 7.88304E+01
 -1        65 7.00770E+01
 -1        66 7.00770E+01
 -1        67 6.81236E+01
 -1        68 6.62483E+01
 -1        69 6.44748E+01
 -1        70 3.45913E+01
 -1        71 3.61086E+01
 -1        72 3.61086E+01
 -1        73 1.89938E+01
 -1        74 2.96268E+00
 -1        75 2.12540E+01
 -1        76 3.94213E+01
 -1        77 4.42480E+01
 -1        78 4.42480E+01
 -1        79 4.36458E+01
 -1        80 4.02347E+01
 -1        81 2.82408E+01
 -1        82 7.88304E+01
 -1        83 7.88304E+01
 -1        84 7.00770E+01
 -1        85 7.00770E+01
 -1        86 6.81236E+01
 -1        87 6.62483E+01
 -1        88 6.44748E+01
 -1        89 6.44748E+01
 -1        90 6.62483E+01
 -1        91 6.81236E+01
 -1        92 7.00770E+01
 -1        93 7.00770E+01
 -1        94 7.88304E+01
 -1        95 7.88304E+01
 -1        96 8.08928E+01
 -1        97 8.73299E+01
 -1        98 8.73299E+01
 -1        99 8.62721E+01
 -1       100 8.62721E+01
 -1       101 7.79480E+01
 -1       102 6.37472E+01
 -1       103 3.30421E+00
 -1       104 5.57738E+01
 -1       105 8.46363E+01
 -1       106 8.66946E+01
 -1       107 8.66946E+01
 -1       108 8.66946E+01
 -1       109 8.66946E+01
 -1       110 8.46363E+01
 -1       111 5.57738E+01
 -1       112 3.30421E+00
 -1       113 6.37472E+01
 -1       114 7.79480E+01
 -1       115 8.62721E+01
 -1       116 8.62721E+01
 -1       117 8.73299E+01
 -1       118 8.73299E+01
 -1       119 8.08928E+01
 -1       120 7.88304E+01
 -1       121 7.88304E+01
 -1       122 7.00770E+01
 -1       123 7.00770E+01
 -1       124 6.81236E+01
 -1       125 6.62483E+01
 -1       126 6.44748E+01
 -3
    1PSTEP                       181          46           1          
  100CL  146 4.60000E-01         126                     1   46           1
 -4  DISP        4    1
 -5  D1          1    2    1    0
 -5  D2          1    2    2    0
 -5  D3          1    2    3    0
 -5  ALL         1    2    0    0    1ALL
 -1         1 0.00000E+00 0.00000E+00 0.00000E+00
 -1         2 0.00000E+00 0.00000E+00 0.00000E+00
 -1         3 1.28332E-01-4.19294E-04 0.00000E+00
 -1         4 1.28332E-01-4.19294E-04 0.00000E+00
 -1         5 1.27395E-01-1.40350E-02 0.00000E+00
 -1         6 1.27395E-01-1.40350E-02 0.00000E+00
 -1         7 0.00000E+00 0.00000E+00 0.00000E+00
 -1         8 0.00000E+00 0.00000E+00 0.00000E+00
 -1         9 1.27862E-01-7.21818E-03 0.00000E+00
 -1        10 1.27862E-01-7.21818E-03 0.00000E+00
 -1        11 0.00000E+00 0.00000E+00 0.00000E+00
 -1        12 0.00000E+00 0.00000E+00 0.00000E+00
 -1        13 1.68623E-03 1.94589E-03 0.00000E+00
 -1        14 4.84631E-03 3.61386E-03 0.00000E+00
 -1        15 9.56990E-03 4.82415E-03 0.00000E+00
 -1        16 1.54366E-02 5.63128E-03 0.00000E+00
 -1        17 2.21822E-02 6.07204E-03 0.00000E+00
 -1        18 2.95651E-02 6.17273E-03 0.00000E+00
 -1        19 3.73065E-02 5.96645E-03 0.00000E+00
 -1        20 4.51451E-02 5.52669E-03 0.00000E+00
 -1        21 5.29023E-02 4.94829E-03 0.00000E+00
 -1        22 6.04960E-02 4.29848E-03 0.00000E+00
 -1        23 6.78616E-02 3.61367E-03 0.00000E+00
 -1        24 7.49402E-02 2.93174E-03 0.00000E+00
 -1        25 8.17081E-02 2.31223E-03 0.00000E+00
 -1        26 8.82476E-02 1.80666E-03 0.00000E+00
 -1        27 9.47114E-02 1.42141E-03 0.00000E+00
 -1        28 1.01253E-01 1.10686E-03 0.00000E+00
 -1        29 1.07930E-01 7.92005E-04 0.00000E+00
 -1        30 1.14709E-01 4.31756E-04 0.00000E+00
 -1        31 1.21522E-01 2.28741E-05 0.00000E+00
 -1        32 1.68623E-03 1.94589E-03 0.00000E+00
 -1        33 4.84631E-03 3.61386E-03 0.00000E+00
 -1        34 9.56990E-03 4.82415E-03 0.00000E+00
 -1        35 1.54366E-02 5.63128E-03 0.00000E+00
 -1        36 2.21822E-02 6.07204E-03 0.00000E+00
 -1        37 2.95651E-02 6.17273E-03 0.00000E+00
 -1        38 3.73065E-02 5.96645E-03 0.00000E+00
 -1        39 4.51451E-02 5.52669E-03 0.00000E+00
 -1        40 5.29023E-02 4.94829E-03 0.00000E+00
 -1        41 6.04960E-02 4.29848E-03 0.00000E+00
 -1        42 6.78616E-02 3.61367E-03 0.00000E+00
 -1        43 7.49402E-02 2.93174E-03 0.00000E+00
 -1        44 8.17081E-02 2.31223E-03 0.00000E+00
 -1        45 8.82476E-02 1.80666E-03 0.00000E+00
 -1        46 9.47114E-02 1.42141E-03 0.00000E+00
 -1        47 1.01253E-01 1.10686E-03 0.00000E+00
 -1        48 1.07930E-01 7.92005E-04 0.00000E+00
 -1        49 1.14709E-01 4.31756E-04 0.00000E+00
 -1        50 1.21522E-01 2.28741E-05 0.00000E+00
 -1        51 1.20576E-01-1.35742E-02 0.00000E+00
 -1        52 1.13762E-01-1.31059E-02 0.00000E+00
 -1        53 1.06993E-01-1.26167E-02 0.00000E+00
 -1        54 1.00330E-01-1.21260E-02 0.00000E+00
 -1        55 9.37964E-02-1.16873E-02 0.00000E+00
 -1        56 8.73173E-02-1.13549E-02 0.00000E+00
 -1        57 8.07307E-02-1.11372E-02 0.00000E+00
 -1        58 7.38899E-02-1.09848E-02 0.00000E+00
 -1        59 6.67333E-02-1.08194E-02 0.00000E+00
 -1        60 5.92965E-02-1.05826E-02 0.00000E+00
 -1        61 5.16520E-02-1.02522E-02 0.00000E+00
 -1        62 4.38718E-02-9.81127E-03 0.00000E+00
 -1        63 3.60527E-02-9.22003E-03 0.00000E+00
 -1        64 2.83903E-02-8.44088E-03 0.00000E+00
 -1        65 2.11565E-02-7.47500E-03 0.00000E+00
 -1        66 1.46104E-02-6.35129E-03 0.00000E+00
 -1        67 8.97172E-03-5.07474E-03 0.00000E+00
 -1        68 4.46924E-03-3.61351E-03 0.00000E+00
 -1        69 1.50380E-03-1.88498E-03 0.00000E+00
 -1        70 1.20576E-01-1.35742E-02 0.00000E+00
 -1        71 1.13762E-01-1.31059E-02 0.00000E+00
 -1        72 1.06993E-01-1.26167E-02 0.00000E+00
 -1        73 1.00330E-01-1.21260E-02 0.00000E+00
 -1        74 9.37964E-02-1.16873E-02 0.00000E+00
 -1        75 8.73173E-02-1.13549E-02 0.00000E+00
 -1        76 8.07307E-02-1.11372E-02 0.00000E+00
 -1        77 7.38899E-02-1.09848E-02 0.00000E+00
 -1        78 6.67333E-02-1.08194E-02 0.00000E+00
 -1        79 5.92965E-02-1.05826E-02 0.00000E+00
 -1        80 5.16520E-02-1.02522E-02 0.00000E+00
 -1        81 4.38718E-02-9.81127E-03 0.00000E+00
 -1        82 3.60527E-02-9.22003E-03 0.00000E+00
 -1        83 2.83903E-02-8.44088E-03 0.00000E+00
 -1        84 2.11565E-02-7.47500E-03 0.00000E+00
 -1        85 1.46104E-02-6.35129E-03 0.00000E+00
 -1        86 8.97172E-03-5.07474E-03 0.00000E+00
 -1        87 4.46924E-03-3.61351E-03 0.00000E+00
 -1        88 1.50380E-03-1.88498E-03 0.00000E+00
 -1        89 1.10798E-03 3.92601E-05 0.00000E+00
 -1        90 4.34413E-03 2.76493E-05 0.00000E+00
 -1        91 9.01063E-03-9.47948E-05 0.00000E+00
 -1        92 1.48256E-02-3.33217E-04 0.00000E+00
 -1        93 2.15245E-02-6.79260E-04 0.00000E+00
 -1        94 2.88853E-02-1.11790E-03 0.00000E+00
 -1        95 3.66393E-02-1.61870E-03 0.00000E+00
 -1        96 4.45065E-02-2.14131E-03 0.00000E+00
 -1        97 5.22994E-02-2.65509E-03 0.00000E+00
 -1        98 5.99332E-02-3.14697E-03 0.00000E+00
 -1        99 6.73474E-02-3.60922E-03 0.00000E+00
 -1       100 7.44671E-02-4.03218E-03 0.00000E+00
 -1       101 8.12587E-02-4.41539E-03 0.00000E+00
 -1       102 8.77964E-02-4.77368E-03 0.00000E+00
 -1       103 9.42457E-02-5.12955E-03 0.00000E+00
 -1       104 1.00771E-01-5.50414E-03 0.00000E+00
 -1       105 1.07442E-01-5.90702E-03 0.00000E+00
 -1       106 1.14222E-01-6.33259E-03 0.00000E+00
 -1       107 1.21044E-01-6.77113E-03 0.00000E+00
 -1       108 1.21044E-01-6.77113E-03 0.00000E+00
 -1       109 1.14222E-01-6.33259E-03 0.00000E+00
 -1       110 1.07442E-01-5.90702E-03 0.00000E+00
 -1       111 1.00771E-01-5.50414E-03 0.00000E+00
 -1       112 9.42457E-02-5.12955E-03 0.00000E+00
 -1       113 8.77964E-02-4.77368E-03 0.00000E+00
 -1       114 8.12587E-02-4.41539E-03 0.00000E+00
 -1       115 7.44671E-02-4.03218E-03 0.00000E+00
 -1       116 6.73474E-02-3.60922E-03 0.00000E+00
 -1       117 5.99332E-02-3.14697E-03 0.00000E+00
 -1       118 5.22994E-02-2.65509E-03 0.00000E+00
 -1       119 4.45065E-02-2.14131E-03 0.00000E+00
 -1       120 3.66393E-02-1.61870E-03 0.00000E+00
 -1       121 2.88853E-02-1.11790E-03 0.00000E+00
 -1       122 2.15245E-02-6.79260E-04 0.00000E+00
 -1       123 1.48256E-02-3.33217E-04 0.00000E+00
 -1       124 9.01063E-03-9.47948E-05 0.00000E+00
 -1       125 4.34413E-03 2.76493E-05 0.00000E+00
 -1       126 1.10798E-03 3.92601E-05 0.00000E+00
 -3
    1PSTEP                       182          46           1          
  100CL  146 4.60000E-01         126                     1   46           1
 -4  STRESS      6    1
 -5  SXX         1    4    1    1
 -5  SYY         1    4    2    2
 -5  SZZ         1    4    3    3
 -5  SXY         1    4    1    2
 -5  SYZ         1    4    2    3
 -5  SZX         1    4    3    1
 -1         1 9.23477E+03 2.21975E+04 8.93740E+03 5.83707E+03 1.84040E-11 6.47161E-11
 -1         2 9.23477E+03 2.21975E+04 8.93740E+03 5.83707E+03 1.84040E-11 6.47161E-11
 -1         3 5.64102E+01 2.18021E+02 8.22686E+01 4.61283E+01 1.88787E-08 1.03360E-07
 -1         4 5.64102E+01 2.18021E+02 8.22686E+01 4.61283E+01 1.88790E-08 1.03367E-07
 -1         5 2.42847E+01 6.33439E+01 2.62891E+01 7.08581E+00-4.97420E-08 1.38584E-07
 -1         6 2.42847E+01 6.33439E+01 2.62891E+01 7.08581E+00-4.97439E-08 1.38584E-07
 -1         7-8.54192E+03-1.92249E+04-8.76016E+03 4.08807E+03 3.61986E-11-9.25660E-12
 -1         8-8.54192E+03-1.92249E+04-8.76016E+03 4.08807E+03 3.61986E-11-9.25268E-12
 -1         9 6.56135E+01 1.90167E+02 7.66878E+01 3.88383E+01-1.15357E-08 1.07047E-07
 -1        10 6.56135E+01 1.90167E+02 7.66878E+01 3.88383E+01-1.15359E-08 1.07034E-07
 -1        11 3.31146E+02 2.51507E+02 2.37719E+02 3.40716E+03 4.21923E-11 4.76206E-11
 -1        12 3.31146E+02 2.51507E+02 2.37719E+02 3.40716E+03 4.21924E-11 4.76133E-11
 -1        13 3.02742E+03 1.84840E+04 6.14048E+03 2.00182E+03 9.77427E-09 2.51098E-09
 -1        14 3.58319E+03 1.60196E+04 5.63402E+03 1.61919E+03 7.42415E-09 2.70912E-08
 -1        15 2.82187E+03 1.26281E+04 4.47555E+03 1.71164E+03-8.52495E-09 2.24414E-08
 -1        16 2.26756E+03 9.82922E+03 3.52786E+03 1.55906E+03-3.52251E-08-9.80069E-09
 -1        17 1.68869E+03 7.23909E+03 2.61933E+03 1.38155E+03-5.47496E-08-6.16391E-08
 -1        18 1.09566E+03 4.73706E+03 1.72140E+03 1.13172E+03-4.04696E-08-1.55865E-07
 -1        19 5.67313E+02 2.49062E+03 9.07516E+02 7.93982E+02 4.27023E-09-2.23678E-07
 -1        20 9.28047E+01 7.59933E+02 2.53725E+02 4.58698E+02 6.11638E-08-2.34917E-07
 -1        21-2.56759E+02-3.93363E+02-1.95461E+02 2.13864E+02 1.02223E-07-1.78884E-07
 -1        22-5.01922E+02-1.16834E+03-5.02131E+02 5.57242E+01 1.04247E-07-6.76953E-08
 -1        23-6.15836E+02-1.64152E+03-6.79386E+02-7.74547E+01 7.86448E-08 5.36334E-08
 -1        24-6.53015E+02-1.69659E+03-7.07476E+02-1.99102E+02 4.22084E-08 1.06690E-07
 -1        25-5.42617E+02-1.16952E+03-5.15140E+02-2.71337E+02 6.17757E-09 1.38687E-07
 -1        26-3.32798E+02-2.33751E+02-1.70468E+02-2.37625E+02-1.56047E-08 1.46491E-07
 -1        27-6.64011E+01 6.80944E+02 1.83453E+02-1.01278E+02-2.53381E-08 1.16097E-07
 -1        28 1.08106E+02 1.13427E+03 3.71065E+02 6.31437E+01-3.37012E-08 1.08714E-07
 -1        29 1.59968E+02 1.05941E+03 3.64396E+02 1.51510E+02-2.85554E-08 7.85647E-08
 -1        30 1.03963E+02 7.00806E+02 2.40755E+02 1.39455E+02-8.34201E-10 4.16075E-08
 -1        31 5.24016E+01 3.55834E+02 1.22272E+02 7.57457E+01 1.88087E-08 5.86483E-08
 -1        32 3.02742E+03 1.84840E+04 6.14048E+03 2.00182E+03 9.77427E-09 2.51098E-09
 -1        33 3.58319E+03 1.60196E+04 5.63402E+03 1.61919E+03 7.42415E-09 2.70912E-08
 -1        34 2.82187E+03 1.26281E+04 4.47555E+03 1.71164E+03-8.52495E-09 2.24413E-08
 -1        35 2.26756E+03 9.82922E+03 3.52786E+03 1.55906E+03-3.52251E-08-9.80047E-09
 -1        36 1.68869E+03 7.23909E+03 2.61933E+03 1.38155E+03-5.47496E-08-6.16381E-08
 -1        37 1.09566E+03 4.73706E+03 1.72140E+03 1.13172E+03-4.04696E-08-1.55864E-07
 -1        38 5.67313E+02 2.49062E+03 9.07516E+02 7.93982E+02 4.27018E-09-2.23678E-07
 -1        39 9.28047E+01 7.59933E+02 2.53725E+02 4.58698E+02 6.11639E-08-2.34917E-07
 -1        40-2.56759E+02-3.93363E+02-1.95461E+02 2.13864E+02 1.02223E-07-1.78884E-07
 -1        41-5.01922E+02-1.16834E+03-5.02131E+02 5.57242E+01 1.04247E-07-6.76961E-08
 -1        42-6.15836E+02-1.64152E+03-6.79386E+02-7.74547E+01 7.86448E-08 5.36334E-08
 -1        43-6.53015E+02-1.69659E+03-7.07476E+02-1.99102E+02 4.22086E-08 1.06690E-07
 -1        44-5.42617E+02-1.16952E+03-5.15140E+02-2.71337E+02 6.17751E-09 1.38687E-07
 -1        45-3.32798E+02-2.33751E+02-1.70468E+02-2.37625E+02-1.56046E-08 1.46491E-07
 -1        46-6.64011E+01 6.80944E+02 1.83453E+02-1.01278E+02-2.53382E-08 1.16100E-07
 -1        47 1.08106E+02 1.13427E+03 3.71065E+02 6.31437E+01-3.37012E-08 1.08713E-07
 -1        48 1.59968E+02 1.05941E+03 3.64396E+02 1.51510E+02-2.85554E-08 7.85656E-08
 -1        49 1.03963E+02 7.00806E+02 2.40755E+02 1.39455E+02-8.34146E-10 4.16041E-08
 -1        50 5.24016E+01 3.55834E+02 1.22272E+02 7.57457E+01 1.88086E-08 5.86473E-08
 -1        51-1.10891E+01-1.17506E+00-3.67273E+00 4.20832E+01-2.30965E-08 6.82354E-08
 -1        52-5.08624E+01-1.77237E+02-6.84438E+01 4.92376E+01 7.53788E-09 6.41986E-08
 -1        53-1.28662E+02-3.83379E+02-1.53723E+02 2.58431E+00 2.01570E-08 7.51806E-08
 -1        54-1.50026E+02-2.75883E+02-1.27927E+02-8.22813E+01 3.48535E-09 1.12226E-07
 -1        55-4.53771E+01 3.86337E+02 1.01717E+02-1.32058E+02-1.39092E-08 1.23339E-07
 -1        56 1.93992E+02 1.48677E+03 5.01235E+02-6.51780E+01-2.71886E-08 1.31928E-07
 -1        57 4.30051E+02 2.54920E+03 8.86232E+02 1.18660E+02-4.73158E-08 1.42314E-07
 -1        58 5.93019E+02 3.13283E+03 1.10665E+03 3.23553E+02-6.76332E-08 1.01547E-07
 -1        59 6.33467E+02 3.10112E+03 1.10931E+03 4.52500E+02-7.75165E-08 1.95020E-08
 -1        60 5.56337E+02 2.63082E+03 9.47740E+02 4.86857E+02-7.09583E-08-8.98479E-08
 -1        61 3.69168E+02 1.86519E+03 6.65338E+02 4.76985E+02-3.05591E-08-1.89238E-07
 -1        62 1.05453E+02 7.07031E+02 2.41833E+02 4.51783E+02 3.22214E-08-2.50060E-07
 -1        63-3.01880E+02-1.02880E+03-4.01258E+02 3.76265E+02 7.21169E-08-2.14215E-07
 -1        64-8.49519E+02-3.23378E+03-1.23561E+03 2.07425E+02 8.40276E-08-1.43240E-07
 -1        65-1.48253E+03-5.60608E+03-2.15717E+03 2.36182E+00 6.96315E-08-4.27356E-08
 -1        66-2.13436E+03-8.03122E+03-3.11272E+03-1.36341E+02 4.05324E-08 2.02641E-08
 -1        67-2.77411E+03-1.06528E+04-4.14098E+03-1.28535E+02 2.01236E-08 2.35630E-08
 -1        68-3.84492E+03-1.38858E+04-5.51752E+03-9.87649E+01 7.56394E-09 3.47962E-08
 -1        69-3.29877E+03-1.61158E+04-6.09160E+03 6.42606E+02 1.47622E-09 5.77132E-09
 -1        70-1.10891E+01-1.17507E+00-3.67273E+00 4.20832E+01-2.30959E-08 6.82345E-08
 -1        71-5.08624E+01-1.77237E+02-6.84438E+01 4.92376E+01 7.53783E-09 6.42014E-08
 -1        72-1.28662E+02-3.83379E+02-1.53723E+02 2.58431E+00 2.01569E-08 7.51831E-08
 -1        73-1.50026E+02-2.75883E+02-1.27927E+02-8.22813E+01 3.48528E-09 1.12219E-07
 -1        74-4.53771E+01 3.86337E+02 1.01717E+02-1.32058E+02-1.39090E-08 1.23340E-07
 -1        75 1.93992E+02 1.48677E+03 5.01235E+02-6.51780E+01-2.71886E-08 1.31928E-07
 -1        76 4.30051E+02 2.54920E+03 8.86232E+02 1.18660E+02-4.73165E-08 1.42315E-07
 -1        77 5.93019E+02 3.13283E+03 1.10665E+03 3.23553E+02-6.76329E-08 1.01546E-07
 -1        78 6.33467E+02 3.10112E+03 1.10931E+03 4.52500E+02-7.75167E-08 1.95020E-08
 -1        79 5.56337E+02 2.63082E+03 9.47740E+02 4.86857E+02-7.09582E-08-8.98480E-08
 -1        80 3.69168E+02 1.86519E+03 6.65338E+02 4.76985E+02-3.05597E-08-1.89237E-07
 -1        81 1.05453E+02 7.07031E+02 2.41833E+02 4.51783E+02 3.22214E-08-2.50060E-07
 -1        82-3.01880E+02-1.02880E+03-4.01258E+02 3.76265E+02 7.21169E-08-2.14212E-07
 -1        83-8.49519E+02-3.23378E+03-1.23561E+03 2.07425E+02 8.40285E-08-1.43241E-07
 -1        84-1.48253E+03-5.60608E+03-2.15717E+03 2.36182E+00 6.96311E-08-4.27341E-08
 -1        85-2.13436E+03-8.03122E+03-3.11272E+03-1.36341E+02 4.05333E-08 2.02642E-08
 -1        86-2.77411E+03-1.06528E+04-4.14098E+03-1.28535E+02 2.01234E-08 2.35629E-08
 -1        87-3.84492E+03-1.38858E+04-5.51752E+03-9.87649E+01 7.56394E-09 3.47962E-08
 -1        88-3.29877E+03-1.61158E+04-6.09160E+03 6.42606E+02 1.47622E-09 5.77130E-09
 -1        89-1.25673E+01 1.86304E+02 7.16305E+01 7.89596E+02 6.78588E-09 6.86115E-09
 -1        90 4.82586E+01 4.04535E+02 1.64705E+02 1.04940E+03 4.59015E-09 2.92771E-08
 -1        91 1.13340E+02 5.11571E+02 2.02744E+02 9.16825E+02 4.95653E-09 2.70935E-08
 -1        92 1.38620E+02 5.91904E+02 2.27283E+02 8.48849E+02 3.36493E-09 1.40924E-08
 -1        93 1.65932E+02 6.38512E+02 2.43945E+02 8.28650E+02 5.91665E-09-5.26894E-08
 -1        94 1.79467E+02 6.49986E+02 2.48401E+02 8.16201E+02 2.40479E-08-1.53921E-07
 -1        95 1.75591E+02 6.68118E+02 2.51563E+02 7.17126E+02 4.04131E-08-2.26360E-07
 -1        96 1.26993E+02 6.95003E+02 2.44988E+02 5.47701E+02 5.01388E-08-2.55432E-07
 -1        97 7.56336E+01 7.13384E+02 2.35578E+02 4.02485E+02 4.01270E-08-1.94448E-07
 -1        98 4.29378E+01 7.10576E+02 2.25469E+02 3.10628E+02 1.55877E-08-7.67391E-08
 -1        99 1.99952E+01 7.10669E+02 2.18873E+02 2.07183E+02 5.08324E-10 3.51338E-08
 -1       100-2.88420E+01 7.12301E+02 2.04666E+02 4.34190E+01-1.14063E-08 1.13680E-07
 -1       101-6.87414E+01 6.97938E+02 1.88237E+02-1.35375E+02-2.38717E-08 1.43003E-07
 -1       102-8.78381E+01 6.42393E+02 1.65757E+02-2.23376E+02-2.17563E-08 1.41451E-07
 -1       103-6.83787E+01 5.49281E+02 1.43706E+02-1.68498E+02-1.82355E-08 1.23941E-07
 -1       104-2.43995E+01 4.34268E+02 1.22587E+02-2.69356E+01-1.65564E-08 1.09587E-07
 -1       105 1.90582E+01 3.33203E+02 1.05500E+02 8.81403E+01 8.16648E-11 7.80460E-08
 -1       106 3.56226E+01 2.61258E+02 8.89569E+01 1.16751E+02 1.10744E-08 4.34052E-08
 -1       107 3.94530E+01 2.04870E+02 7.32317E+01 7.74827E+01 3.29908E-09 6.56705E-08
 -1       108 3.94530E+01 2.04870E+02 7.32317E+01 7.74827E+01 3.29897E-09 6.56725E-08
 -1       109 3.56226E+01 2.61258E+02 8.89569E+01 1.16751E+02 1.10746E-08 4.34065E-08
 -1       110 1.90582E+01 3.33203E+02 1.05500E+02 8.81403E+01 8.15587E-11 7.80412E-08
 -1       111-2.43995E+01 4.34268E+02 1.22587E+02-2.69356E+01-1.65564E-08 1.09590E-07
 -1       112-6.83787E+01 5.49281E+02 1.43706E+02-1.68498E+02-1.82353E-08 1.23938E-07
 -1       113-8.78381E+01 6.42393E+02 1.65757E+02-2.23376E+02-2.17564E-08 1.41451E-07
 -1       114-6.87414E+01 6.97938E+02 1.88237E+02-1.35375E+02-2.38719E-08 1.43002E-07
 -1       115-2.88420E+01 7.12301E+02 2.04666E+02 4.34190E+01-1.14065E-08 1.13680E-07
 -1       116 1.99952E+01 7.10669E+02 2.18873E+02 2.07183E+02 5.08384E-10 3.51338E-08
 -1       117 4.29378E+01 7.10576E+02 2.25469E+02 3.10628E+02 1.55878E-08-7.67375E-08
 -1       118 7.56336E+01 7.13384E+02 2.35578E+02 4.02485E+02 4.01268E-08-1.94449E-07
 -1       119 1.26993E+02 6.95003E+02 2.44988E+02 5.47701E+02 5.01388E-08-2.55432E-07
 -1       120 1.75591E+02 6.68118E+02 2.51563E+02 7.17126E+02 4.04133E-08-2.26359E-07
 -1       121 1.79467E+02 6.49986E+02 2.48401E+02 8.16201E+02 2.40476E-08-1.53923E-07
 -1       122 1.65932E+02 6.38512E+02 2.43945E+02 8.28650E+02 5.91683E-09-5.26910E-08
 -1       123 1.38620E+02 5.91904E+02 2.27283E+02 8.48849E+02 3.36466E-09 1.40918E-08
 -1       124 1.13340E+02 5.11571E+02 2.02744E+02 9.16825E+02 4.95666E-09 2.70938E-08
 -1       125 4.82586E+01 4.04535E+02 1.64705E+02 1.04940E+03 4.59014E-09 2.92771E-08
 -1       126-1.25673E+01 1.86304E+02 7.16305E+01 7.89596E+02 6.78588E-09 6.86117E-09
 -3
    1PSTEP                       183          46           1          
  100CL  146 4.60000E-01         126                     1   46           1
 -4  TOSTRAIN    6    1
 -5  EXX         1    4    1    1
 -5  EYY         1    4    2    2
 -5  EZZ         1    4    3    3
 -5  EXY         1    4    1    2
 -5  EYZ         1    4    2    3
 -5  EZX         1    4    3    1
 -1         1-1.32133E-04 4.01105E-02-2.85666E-28 1.68620E-02-4.67177E-19 1.98928E-16
 -1         2-1.32133E-04 4.01105E-02-2.85666E-28 1.68620E-02-4.67177E-19 1.98928E-16
 -1         3-1.14735E-04 4.71354E-04 2.22966E-25 7.34910E-05 1.06400E-13 3.24422E-13
 -1         4-1.14735E-04 4.71354E-04 2.22996E-25 7.34910E-05 1.06404E-13 3.24446E-13
 -1         5-1.03738E-05 1.24294E-04 4.29995E-25 5.01738E-06-9.87316E-14 4.68212E-13
 -1         6-1.03738E-05 1.24294E-04 4.29997E-25 5.01738E-06-9.87375E-14 4.68213E-13
 -1         7-1.28787E-04-3.66645E-02-1.06108E-28 1.50378E-02-1.40737E-19 7.81248E-18
 -1         8-1.28787E-04-3.66645E-02-1.06107E-28 1.50378E-02-1.40437E-19 7.82514E-18
 -1         9-6.25545E-05 3.94972E-04 2.32466E-25 6.68596E-05 1.02251E-14 3.49732E-13
 -1        10-6.25545E-05 3.94972E-04 2.32409E-25 6.68596E-05 1.02184E-14 3.49687E-13
 -1        11-1.30460E-04 9.00501E-04-3.06010E-28 1.10796E-02-3.32347E-19 1.45515E-16
 -1        12-1.30460E-04 9.00501E-04-3.06011E-28 1.10796E-02-3.32906E-19 1.45491E-16
 -1        13-1.08840E-02 3.79642E-02 4.89985E-28 4.19586E-03 3.03708E-14 6.62738E-15
 -1        14-7.49759E-03 3.23596E-02 1.49380E-26 2.12803E-03 2.90507E-14 8.54264E-14
 -1        15-6.33127E-03 2.60103E-02 8.56860E-27 2.17701E-03-1.97310E-14 7.50479E-14
 -1        16-5.05781E-03 2.05265E-02 1.14178E-26 1.90147E-03-1.14544E-13-1.75189E-14
 -1        17-3.96620E-03 1.54204E-02 1.04027E-25 1.83476E-03-1.99480E-13-1.73297E-13
 -1        18-2.87806E-03 1.03865E-02 5.01940E-25 1.76427E-03-2.01422E-13-4.80702E-13
 -1        19-1.74928E-03 5.69875E-03 1.03765E-24 1.49903E-03-9.60096E-14-7.20151E-13
 -1        20-9.30152E-04 2.03263E-03 1.23442E-24 1.08371E-03 7.90603E-14-7.85410E-13
 -1        21-4.23346E-04-4.23085E-04 8.56812E-25 7.29165E-04 2.40116E-13-6.26020E-13
 -1        22-1.06599E-04-2.06671E-03 2.52042E-25 4.93729E-04 3.03188E-13-2.68612E-13
 -1        23 2.00912E-04-3.14012E-03 1.36302E-25 2.36305E-04 2.79298E-13 1.35603E-13
 -1        24 2.79897E-04-3.34036E-03 2.58173E-25-1.55184E-04 1.84944E-13 3.24743E-13
 -1        25 1.01928E-04-2.33114E-03 4.00266E-25-5.80067E-04 8.07833E-14 4.44481E-13
 -1        26-3.23969E-04-4.13743E-04 4.56802E-25-7.87723E-04 1.24110E-14 4.78980E-13
 -1        27-6.87387E-04 1.48346E-03 2.96488E-25-6.31850E-04-3.21122E-14 3.84927E-13
 -1        28-8.52850E-04 2.46302E-03 2.71166E-25-2.38087E-04-6.16132E-14 3.64690E-13
 -1        29-7.44358E-04 2.32559E-03 1.39613E-25 8.61463E-05-5.75582E-14 2.65468E-13
 -1        30-5.31141E-04 1.57551E-03 3.14683E-26 1.75833E-04 1.55893E-14 1.34342E-13
 -1        31-2.75256E-04 8.05460E-04 7.46686E-26 1.03999E-04 8.63771E-14 1.80515E-13
 -1        32-1.08840E-02 3.79642E-02 4.89985E-28 4.19586E-03 3.03708E-14 6.62738E-15
 -1        33-7.49759E-03 3.23596E-02 1.49380E-26 2.12803E-03 2.90507E-14 8.54264E-14
 -1        34-6.33127E-03 2.60103E-02 8.56857E-27 2.17701E-03-1.97310E-14 7.50477E-14
 -1        35-5.05781E-03 2.05265E-02 1.14181E-26 1.90147E-03-1.14543E-13-1.75182E-14
 -1        36-3.96620E-03 1.54204E-02 1.04025E-25 1.83476E-03-1.99480E-13-1.73294E-13
 -1        37-2.87806E-03 1.03865E-02 5.01932E-25 1.76427E-03-2.01421E-13-4.80698E-13
 -1        38-1.74928E-03 5.69875E-03 1.03766E-24 1.49903E-03-9.60099E-14-7.20152E-13
 -1        39-9.30152E-04 2.03263E-03 1.23442E-24 1.08371E-03 7.90603E-14-7.85410E-13
 -1        40-4.23346E-04-4.23085E-04 8.56814E-25 7.29165E-04 2.40116E-13-6.26021E-13
 -1        41-1.06599E-04-2.06671E-03 2.52045E-25 4.93729E-04 3.03187E-13-2.68614E-13
 -1        42 2.00912E-04-3.14012E-03 1.36302E-25 2.36305E-04 2.79298E-13 1.35603E-13
 -1        43 2.79897E-04-3.34036E-03 2.58173E-25-1.55184E-04 1.84945E-13 3.24743E-13
 -1        44 1.01928E-04-2.33114E-03 4.00266E-25-5.80067E-04 8.07831E-14 4.44481E-13
 -1        45-3.23969E-04-4.13743E-04 4.56802E-25-7.87723E-04 1.24114E-14 4.78980E-13
 -1        46-6.87387E-04 1.48346E-03 2.96499E-25-6.31850E-04-3.21116E-14 3.84935E-13
 -1        47-8.52850E-04 2.46302E-03 2.71163E-25-2.38087E-04-6.16134E-14 3.64688E-13
 -1        48-7.44358E-04 2.32559E-03 1.39615E-25 8.61463E-05-5.75578E-14 2.65471E-13
 -1        49-5.31141E-04 1.57551E-03 3.14611E-26 1.75833E-04 1.55880E-14 1.34331E-13
 -1        50-2.75256E-04 8.05460E-04 7.46644E-26 1.03999E-04 8.63761E-14 1.80512E-13
 -1        51-6.04522E-05 4.45059E-05 9.61128E-26 1.27359E-04-4.41856E-14 2.29944E-13
 -1        52 6.29840E-06-3.02899E-04 8.51057E-26 2.09330E-04 5.25628E-14 2.03405E-13
 -1        53 6.31623E-05-7.29223E-04 1.23528E-25 1.18156E-04 9.78060E-14 2.33377E-13
 -1        54-1.07571E-05-5.43568E-04 2.61543E-25-2.04073E-04 5.95808E-14 3.60149E-13
 -1        55-3.44180E-04 7.85930E-04 3.24662E-25-5.94445E-04 7.77272E-15 4.03373E-13
 -1        56-8.73754E-04 3.05132E-03 3.82036E-25-7.47605E-04-3.10004E-14 4.36513E-13
 -1        57-1.46905E-03 5.32247E-03 4.69460E-25-5.41470E-04-8.94947E-14 4.78679E-13
 -1        58-1.81132E-03 6.62573E-03 2.86896E-25-1.26578E-04-1.70232E-13 3.57146E-13
 -1        59-1.81022E-03 6.63639E-03 7.71953E-26 2.58709E-04-2.38056E-13 9.91586E-14
 -1        60-1.59618E-03 5.71767E-03 2.05462E-25 5.11822E-04-2.69503E-13-2.54003E-13
 -1        61-1.32216E-03 4.21331E-03 7.25152E-25 7.39740E-04-1.90670E-13-5.92383E-13
 -1        62-8.48627E-04 1.89927E-03 1.32751E-24 1.09822E-03-2.11996E-14-8.19348E-13
 -1        63-1.09769E-04-1.62468E-03 1.06646E-24 1.52762E-03 1.26154E-13-7.24815E-13
 -1        64 8.66590E-04-6.19867E-03 5.48034E-25 1.79109E-03 2.03862E-13-5.02056E-13
 -1        65 1.88907E-03-1.11737E-02 1.04550E-25 1.85473E-03 2.08598E-13-1.69490E-13
 -1        66 2.92019E-03-1.62773E-02 3.15825E-26 1.92557E-03 1.41730E-13 4.91947E-14
 -1        67 4.13314E-03-2.18429E-02 1.90689E-26 2.23025E-03 7.48427E-14 6.96941E-14
 -1        68 5.07612E-03-2.85588E-02 2.47074E-26 2.18278E-03 3.38212E-14 1.11410E-13
 -1        69 8.57341E-03-3.44894E-02-9.39139E-28 3.97589E-03 5.60350E-15 1.85366E-14
 -1        70-6.04522E-05 4.45059E-05 9.61098E-26 1.27359E-04-4.41844E-14 2.29941E-13
 -1        71 6.29840E-06-3.02899E-04 8.51126E-26 2.09330E-04 5.25639E-14 2.03414E-13
 -1        72 6.31623E-05-7.29223E-04 1.23536E-25 1.18156E-04 9.78066E-14 2.33386E-13
 -1        73-1.07571E-05-5.43568E-04 2.61508E-25-2.04073E-04 5.95775E-14 3.60126E-13
 -1        74-3.44180E-04 7.85930E-04 3.24666E-25-5.94445E-04 7.77382E-15 4.03376E-13
 -1        75-8.73754E-04 3.05132E-03 3.82036E-25-7.47605E-04-3.10002E-14 4.36514E-13
 -1        76-1.46905E-03 5.32247E-03 4.69464E-25-5.41470E-04-8.94968E-14 4.78680E-13
 -1        77-1.81132E-03 6.62573E-03 2.86895E-25-1.26578E-04-1.70232E-13 3.57145E-13
 -1        78-1.81022E-03 6.63639E-03 7.71959E-26 2.58709E-04-2.38057E-13 9.91587E-14
 -1        79-1.59618E-03 5.71767E-03 2.05462E-25 5.11822E-04-2.69503E-13-2.54004E-13
 -1        80-1.32216E-03 4.21331E-03 7.25149E-25 7.39740E-04-1.90672E-13-5.92381E-13
 -1        81-8.48627E-04 1.89927E-03 1.32751E-24 1.09822E-03-2.11997E-14-8.19348E-13
 -1        82-1.09769E-04-1.62468E-03 1.06643E-24 1.52762E-03 1.26155E-13-7.24805E-13
 -1        83 8.66590E-04-6.19867E-03 5.48043E-25 1.79109E-03 2.03865E-13-5.02059E-13
 -1        84 1.88907E-03-1.11737E-02 1.04545E-25 1.85473E-03 2.08598E-13-1.69485E-13
 -1        85 2.92019E-03-1.62773E-02 3.15837E-26 1.92557E-03 1.41733E-13 4.91945E-14
 -1        86 4.13314E-03-2.18429E-02 1.90686E-26 2.23025E-03 7.48421E-14 6.96939E-14
 -1        87 5.07612E-03-2.85588E-02 2.47075E-26 2.18278E-03 3.38212E-14 1.11410E-13
 -1        88 8.57341E-03-3.44894E-02-9.39144E-28 3.97589E-03 5.60350E-15 1.85366E-14
 -1        89-1.15531E-03 1.33265E-03 8.03845E-28 2.52123E-03 2.26882E-14 2.13039E-14
 -1        90-1.21074E-03 1.80706E-03 1.75635E-26 3.27575E-03 2.15028E-14 9.37084E-14
 -1        91-1.09907E-03 1.90909E-03 1.50901E-26 2.77789E-03 2.45015E-14 8.59405E-14
 -1        92-1.06881E-03 2.01304E-03-9.46761E-27 2.48962E-03 1.60805E-14 4.40531E-14
 -1        93-1.03856E-03 2.07477E-03 1.93212E-26 2.37387E-03-4.25205E-15-1.72323E-13
 -1        94-1.00573E-03 2.07416E-03 4.72380E-25 2.30460E-03 4.12079E-15-5.06527E-13
 -1        95-9.29523E-04 2.01836E-03 1.10560E-24 1.97124E-03 1.79666E-14-7.47433E-13
 -1        96-8.89390E-04 1.95170E-03 1.42722E-24 1.40828E-03 3.35271E-14-8.45717E-13
 -1        97-8.72755E-04 1.89377E-03 7.87872E-25 9.30839E-04 3.26740E-14-6.44723E-13
 -1        98-8.51390E-04 1.82733E-03 5.47986E-26 6.41817E-04 1.28857E-14-2.54267E-13
 -1        99-8.04654E-04 1.75102E-03-2.95948E-26 3.22702E-04 1.80245E-14 1.12767E-13
 -1       100-7.65711E-04 1.65034E-03 2.53044E-25-1.95897E-04 1.46467E-14 3.71149E-13
 -1       101-6.83559E-04 1.49794E-03 4.40860E-25-7.53429E-04-1.43436E-14 4.71081E-13
 -1       102-5.98862E-04 1.31697E-03 4.32670E-25-1.00695E-03-9.54835E-15 4.65109E-13
 -1       103-5.15784E-04 1.13876E-03 3.30964E-25-7.87138E-04-5.91464E-15 4.07174E-13
 -1       104-4.31804E-04 9.63088E-04 2.56029E-25-2.79128E-04-6.17867E-15 3.60201E-13
 -1       105-3.40598E-04 7.97740E-04 1.22255E-25 1.40232E-04 3.42498E-14 2.51341E-13
 -1       106-2.62421E-04 6.47955E-04 3.84635E-26 2.66675E-04 5.47211E-14 1.34872E-13
 -1       107-1.67854E-04 4.85275E-04 8.56359E-26 1.69817E-04 3.96225E-14 2.09978E-13
 -1       108-1.67854E-04 4.85275E-04 8.56439E-26 1.69817E-04 3.96230E-14 2.09984E-13
 -1       109-2.62421E-04 6.47955E-04 3.84671E-26 2.66675E-04 5.47221E-14 1.34876E-13
 -1       110-3.40598E-04 7.97740E-04 1.22241E-25 1.40232E-04 3.42473E-14 2.51325E-13
 -1       111-4.31804E-04 9.63088E-04 2.56042E-25-2.79128E-04-6.17753E-15 3.60210E-13
 -1       112-5.15784E-04 1.13876E-03 3.30949E-25-7.87138E-04-5.91526E-15 4.07164E-13
 -1       113-5.98862E-04 1.31697E-03 4.32669E-25-1.00695E-03-9.54875E-15 4.65108E-13
 -1       114-6.83559E-04 1.49794E-03 4.40855E-25-7.53429E-04-1.43445E-14 4.71079E-13
 -1       115-7.65711E-04 1.65034E-03 2.53045E-25-1.95897E-04 1.46461E-14 3.71149E-13
 -1       116-8.04654E-04 1.75102E-03-2.95949E-26 3.22702E-04 1.80247E-14 1.12767E-13
 -1       117-8.51390E-04 1.82733E-03 5.47922E-26 6.41817E-04 1.28866E-14-2.54262E-13
 -1       118-8.72755E-04 1.89377E-03 7.87874E-25 9.30839E-04 3.26733E-14-6.44725E-13
 -1       119-8.89390E-04 1.95170E-03 1.42722E-24 1.40828E-03 3.35271E-14-8.45717E-13
 -1       120-9.29523E-04 2.01836E-03 1.10560E-24 1.97124E-03 1.79673E-14-7.47432E-13
 -1       121-1.00573E-03 2.07416E-03 4.72389E-25 2.30460E-03 4.11923E-15-5.06531E-13
 -1       122-1.03856E-03 2.07477E-03 1.93257E-26 2.37387E-03-4.25221E-15-1.72328E-13
 -1       123-1.06881E-03 2.01304E-03-9.46825E-27 2.48962E-03 1.60794E-14 4.40514E-14
 -1       124-1.09907E-03 1.90909E-03 1.50904E-26 2.77789E-03 2.45021E-14 8.59413E-14
 -1       125-1.21074E-03 1.80706E-03 1.75634E-26 3.27575E-03 2.15027E-14 9.37083E-14
 -1       126-1.15531E-03 1.33265E-03 8.03855E-28 2.52123E-03 2.26882E-14 2.13040E-14
 -3
    1PSTEP                       184          46           1          
  100CL  146 4.60000E-01         126                     1   46           1
 -4  ERROR       1    1
 -5  STR(%)      1    1    0    0
 -1         1 6.22361E+01
 -1         2 6.22361E+01
 -1         3 6.46571E+00
 -1         4 6.46571E+00
 -1         5 3.16305E+01
 -1         6 3.16305E+01
 -1         7 6.36579E+01
 -1         8 6.36579E+01
 -1         9 3.16305E+01
 -1        10 3.16305E+01
 -1        11 6.36579E+01
 -1        12 6.36579E+01
 -1        13 6.22361E+01
 -1        14 5.89139E+01
 -1        15 5.80145E+01
 -1        16 5.61645E+01
 -1        17 5.36652E+01
 -1        18 4.90735E+01
 -1        19 3.81495E+01
 -1        20 4.30393E+01
 -1        21 1.00942E+02
 -1        22 1.00942E+02
 -1        23 8.98875E+01
 -1        24 8.82179E+01
 -1        25 9.73375E+01
 -1        26 9.73375E+01
 -1        27 2.62652E+01
 -1        28 3.69040E+01
 -1        29 3.69040E+01
 -1        30 3.36524E+01
 -1        31 2.27278E+01
 -1        32 6.22361E+01
 -1        33 5.89139E+01
 -1        34 5.80145E+01
 -1        35 5.61645E+01
 -1        36 5.36652E+01
 -1        37 4.90735E+01
 -1        38 3.81495E+01
 -1        39 4.30393E+01
 -1        40 1.00942E+02
 -1        41 1.00942E+02
 -1        42 8.98875E+01
 -1        43 8.82179E+01
 -1        44 9.73375E+01
 -1        45 9.73375E+01
 -1        46 2.62652E+01
 -1        47 3.69040E+01
 -1        48 3.69040E+01
 -1        49 3.36524E+01
 -1        50 2.27278E+01
 -1        51 5.47527E+01
 -1        52 8.67742E+01
 -1        53 9.82567E+01
 -1        54 9.82567E+01
 -1        55 6.79905E+01
 -1        56 3.35567E+01
 -1        57 4.19903E+01
 -1        58 4.22219E+01
 -1        59 4.22219E+01
 -1        60 4.01733E+01
 -1        61 3.37376E+01
 -1        62 3.81436E+01
 -1        63 6.59668E+01
 -1        64 7.43451E+01
 -1        65 7.43451E+01
 -1        66 7.33266E+01
 -1        67 7.01273E+01
 -1        68 6.76712E+01
 -1        69 6.55326E+01
 -1        70 5.47527E+01
 -1        71 8.67742E+01
 -1        72 9.82567E+01
 -1        73 9.82567E+01
 -1        74 6.79905E+01
 -1        75 3.35567E+01
 -1        76 4.19903E+01
 -1        77 4.22219E+01
 -1        78 4.22219E+01
 -1        79 4.01733E+01
 -1        80 3.37376E+01
 -1        81 3.81436E+01
 -1        82 6.59668E+01
 -1        83 7.43451E+01
 -1        84 7.43451E+01
 -1        85 7.33266E+01
 -1        86 7.01273E+01
 -1        87 6.76712E+01
 -1        88 6.55326E+01
 -1        89 6.55326E+01
 -1        90 6.76712E+01
 -1        91 7.01273E+01
 -1        92 7.33266E+01
 -1        93 7.43451E+01
 -1        94 7.43451E+01
 -1        95 6.59668E+01
 -1        96 4.30393E+01
 -1        97 1.00942E+02
 -1        98 1.00942E+02
 -1        99 8.98875E+01
 -1       100 8.82179E+01
 -1       101 9.73375E+01
 -1       102 9.73375E+01
 -1       103 6.79905E+01
 -1       104 9.82567E+01
 -1       105 9.82567E+01
 -1       106 8.67742E+01
 -1       107 5.47527E+01
 -1       108 5.47527E+01
 -1       109 8.67742E+01
 -1       110 9.82567E+01
 -1       111 9.82567E+01
 -1       112 6.79905E+01
 -1       113 9.73375E+01
 -1       114 9.73375E+01
 -1       115 8.82179E+01
 -1       116 8.98875E+01
 -1       117 1.00942E+02
 -1       118 1.00942E+02
 -1       119 4.30393E+01
 -1       120 6.59668E+01
 -1       121 7.43451E+01
 -1       122 7.43451E+01
 -1       123 7.33266E+01
 -1       124 7.01273E+01
 -1       125 6.76712E+01
 -1       126 6.55326E+01
 -3
    1PSTEP                       185          47           1          
  100CL  147 4.70000E-01         126                     1   47           1
 -4  DISP        4    1
 -5  D1          1    2    1    0
 -5  D2          1    2    2    0
 -5  D3          1    2    3    0
 -5  ALL         1    2    0    0    1ALL
 -1         1 0.00000E+00 0.00000E+00 0.00000E+00
 -1         2 0.00000E+00 0.00000E+00 0.00000E+00
 -1         3 1.34233E-01-3.83609E-04 0.00000E+00
 -1         4 1.34233E-01-3.83609E-04 0.00000E+00
 -1         5 1.33081E-01-1.54730E-02 0.00000E+00
 -1         6 1.33081E-01-1.54730E-02 0.00000E+00
 -1         7 0.00000E+00 0.00000E+00 0.00000E+00
 -1         8 0.00000E+00 0.00000E+00 0.00000E+00
 -1         9 1.33651E-01-7.91994E-03 0.00000E+00
 -1        10 1.33651E-01-7.91994E-03 0.00000E+00
 -1        11 0.00000E+00 0.00000E+00 0.00000E+00
 -1        12 0.00000E+00 0.00000E+00 0.00000E+00
 -1        13 1.63985E-03 1.91663E-03 0.00000E+00
 -1        14 4.70271E-03 3.58755E-03 0.00000E+00
 -1        15 9.33725E-03 4.84233E-03 0.00000E+00
 -1        16 1.51743E-02 5.70812E-03 0.00000E+00
 -1        17 2.19332E-02 6.20443E-03 0.00000E+00
 -1        18 2.93602E-02 6.37204E-03 0.00000E+00
 -1        19 3.72287E-02 6.25168E-03 0.00000E+00
 -1        20 4.53320E-02 5.88314E-03 0.00000E+00
 -1        21 5.34566E-02 5.32935E-03 0.00000E+00
 -1        22 6.14521E-02 4.66965E-03 0.00000E+00
 -1        23 6.92452E-02 3.96690E-03 0.00000E+00
 -1        24 7.68100E-02 3.25126E-03 0.00000E+00
 -1        25 8.41026E-02 2.55456E-03 0.00000E+00
 -1        26 9.11144E-02 1.93435E-03 0.00000E+00
 -1        27 9.79385E-02 1.44880E-03 0.00000E+00
 -1        28 1.04775E-01 1.10392E-03 0.00000E+00
 -1        29 1.11815E-01 8.35476E-04 0.00000E+00
 -1        30 1.19136E-01 5.38398E-04 0.00000E+00
 -1        31 1.26661E-01 1.32535E-04 0.00000E+00
 -1        32 1.63985E-03 1.91663E-03 0.00000E+00
 -1        33 4.70271E-03 3.58755E-03 0.00000E+00
 -1        34 9.33725E-03 4.84233E-03 0.00000E+00
 -1        35 1.51743E-02 5.70812E-03 0.00000E+00
 -1        36 2.19332E-02 6.20443E-03 0.00000E+00
 -1        37 2.93602E-02 6.37204E-03 0.00000E+00
 -1        38 3.72287E-02 6.25168E-03 0.00000E+00
 -1        39 4.53320E-02 5.88314E-03 0.00000E+00
 -1        40 5.34566E-02 5.32935E-03 0.00000E+00
 -1        41 6.14521E-02 4.66965E-03 0.00000E+00
 -1        42 6.92452E-02 3.96690E-03 0.00000E+00
 -1        43 7.68100E-02 3.25126E-03 0.00000E+00
 -1        44 8.41026E-02 2.55456E-03 0.00000E+00
 -1        45 9.11144E-02 1.93435E-03 0.00000E+00
 -1        46 9.79385E-02 1.44880E-03 0.00000E+00
 -1        47 1.04775E-01 1.10392E-03 0.00000E+00
 -1        48 1.11815E-01 8.35476E-04 0.00000E+00
 -1        49 1.19136E-01 5.38398E-04 0.00000E+00
 -1        50 1.26661E-01 1.32535E-04 0.00000E+00
 -1        51 1.25514E-01-1.48666E-02 0.00000E+00
 -1        52 1.18016E-01-1.41943E-02 0.00000E+00
 -1        53 1.10744E-01-1.34982E-02 0.00000E+00
 -1        54 1.03748E-01-1.28740E-02 0.00000E+00
 -1        55 9.69206E-02-1.23983E-02 0.00000E+00
 -1        56 9.00631E-02-1.20791E-02 0.00000E+00
 -1        57 8.29877E-02-1.18536E-02 0.00000E+00
 -1        58 7.56193E-02-1.16348E-02 0.00000E+00
 -1        59 6.79814E-02-1.13651E-02 0.00000E+00
 -1        60 6.01253E-02-1.10241E-02 0.00000E+00
 -1        61 5.20901E-02-1.05897E-02 0.00000E+00
 -1        62 4.39625E-02-1.00245E-02 0.00000E+00
 -1        63 3.59100E-02-9.30046E-03 0.00000E+00
 -1        64 2.81501E-02-8.42139E-03 0.00000E+00
 -1        65 2.08893E-02-7.40382E-03 0.00000E+00
 -1        66 1.43390E-02-6.25255E-03 0.00000E+00
 -1        67 8.73534E-03-4.95631E-03 0.00000E+00
 -1        68 4.32142E-03-3.49927E-03 0.00000E+00
 -1        69 1.44592E-03-1.81440E-03 0.00000E+00
 -1        70 1.25514E-01-1.48666E-02 0.00000E+00
 -1        71 1.18016E-01-1.41943E-02 0.00000E+00
 -1        72 1.10744E-01-1.34982E-02 0.00000E+00
 -1        73 1.03748E-01-1.28740E-02 0.00000E+00
 -1        74 9.69206E-02-1.23983E-02 0.00000E+00
 -1        75 9.00631E-02-1.20791E-02 0.00000E+00
 -1        76 8.29877E-02-1.18536E-02 0.00000E+00
 -1        77 7.56193E-02-1.16348E-02 0.00000E+00
 -1        78 6.79814E-02-1.13651E-02 0.00000E+00
 -1        79 6.01253E-02-1.10241E-02 0.00000E+00
 -1        80 5.20901E-02-1.05897E-02 0.00000E+00
 -1        81 4.39625E-02-1.00245E-02 0.00000E+00
 -1        82 3.59100E-02-9.30046E-03 0.00000E+00
 -1        83 2.81501E-02-8.42139E-03 0.00000E+00
 -1        84 2.08893E-02-7.40382E-03 0.00000E+00
 -1        85 1.43390E-02-6.25255E-03 0.00000E+00
 -1        86 8.73534E-03-4.95631E-03 0.00000E+00
 -1        87 4.32142E-03-3.49927E-03 0.00000E+00
 -1        88 1.44592E-03-1.81440E-03 0.00000E+00
 -1        89 1.06711E-03 5.76663E-05 0.00000E+00
 -1        90 4.19834E-03 7.16373E-05 0.00000E+00
 -1        91 8.76966E-03-2.49685E-05 0.00000E+00
 -1        92 1.45507E-02-2.43212E-04 0.00000E+00
 -1        93 2.12572E-02-5.75428E-04 0.00000E+00
 -1        94 2.86471E-02-1.00568E-03 0.00000E+00
 -1        95 3.65076E-02-1.51223E-03 0.00000E+00
 -1        96 4.46264E-02-2.06579E-03 0.00000E+00
 -1        97 5.27840E-02-2.63099E-03 0.00000E+00
 -1        98 6.08172E-02-3.18083E-03 0.00000E+00
 -1        99 6.86546E-02-3.70444E-03 0.00000E+00
 -1       100 7.62629E-02-4.19800E-03 0.00000E+00
 -1       101 8.35918E-02-4.65497E-03 0.00000E+00
 -1       102 9.06171E-02-5.07440E-03 0.00000E+00
 -1       103 9.74294E-02-5.47262E-03 0.00000E+00
 -1       104 1.04231E-01-5.87914E-03 0.00000E+00
 -1       105 1.11234E-01-6.32311E-03 0.00000E+00
 -1       106 1.18535E-01-6.81963E-03 0.00000E+00
 -1       107 1.26068E-01-7.36100E-03 0.00000E+00
 -1       108 1.26068E-01-7.36100E-03 0.00000E+00
 -1       109 1.18535E-01-6.81963E-03 0.00000E+00
 -1       110 1.11234E-01-6.32311E-03 0.00000E+00
 -1       111 1.04231E-01-5.87914E-03 0.00000E+00
 -1       112 9.74294E-02-5.47262E-03 0.00000E+00
 -1       113 9.06171E-02-5.07440E-03 0.00000E+00
 -1       114 8.35918E-02-4.65497E-03 0.00000E+00
 -1       115 7.62629E-02-4.19800E-03 0.00000E+00
 -1       116 6.86546E-02-3.70444E-03 0.00000E+00
 -1       117 6.08172E-02-3.18083E-03 0.00000E+00
 -1       118 5.27840E-02-2.63099E-03 0.00000E+00
 -1       119 4.46264E-02-2.06579E-03 0.00000E+00
 -1       120 3.65076E-02-1.51223E-03 0.00000E+00
 -1       121 2.86471E-02-1.00568E-03 0.00000E+00
 -1       122 2.12572E-02-5.75428E-04 0.00000E+00
 -1       123 1.45507E-02-2.43212E-04 0.00000E+00
 -1       124 8.76966E-03-2.49685E-05 0.00000E+00
 -1       125 4.19834E-03 7.16373E-05 0.00000E+00
 -1       126 1.06711E-03 5.76663E-05 0.00000E+00
 -3
    1PSTEP                       186          47           1          
  100CL  147 4.70000E-01         126                     1   47           1
 -4  STRESS      6    1
 -5  SXX         1    4    1    1
 -5  SYY         1    4    2    2
 -5  SZZ         1    4    3    3
 -5  SXY         1    4    1    2
 -5  SYZ         1    4    2    3
 -5  SZX         1    4    3    1
 -1         1 9.08051E+03 2.18434E+04 8.80057E+03 5.66595E+03 1.78629E-10 1.97500E-10
 -1         2 9.08051E+03 2.18434E+04 8.80057E+03 5.66595E+03 1.78629E-10 1.97500E-10
 -1         3 1.87453E+02 5.59998E+02 2.23862E+02 1.39275E+02 3.78090E-08 3.99001E-08
 -1         4 1.87453E+02 5.59998E+02 2.23862E+02 1.39275E+02 3.78090E-08 3.99006E-08
 -1         5-8.11196E+01-3.18397E+02-1.19907E+02 2.60599E+01-6.52592E-08 2.70455E-09
 -1         6-8.11196E+01-3.18397E+02-1.19907E+02 2.60599E+01-6.52622E-08 2.70454E-09
 -1         7-8.22883E+03-1.85497E+04-8.43015E+03 3.94981E+03 1.56304E-10-1.86594E-10
 -1         8-8.22883E+03-1.85497E+04-8.43015E+03 3.94981E+03 1.56304E-10-1.86594E-10
 -1         9 8.44117E+01 1.53989E+02 7.14869E+01 1.21796E+02-1.69403E-08 2.74903E-08
 -1        10 8.44117E+01 1.53989E+02 7.14869E+01 1.21796E+02-1.69400E-08 2.74893E-08
 -1        11 4.03712E+02 4.56235E+02 3.18442E+02 3.28467E+03 1.56641E-10-9.42881E-12
 -1        12 4.03712E+02 4.56235E+02 3.18442E+02 3.28467E+03 1.56641E-10-9.42881E-12
 -1        13 2.97460E+03 1.83169E+04 6.08004E+03 1.91216E+03 1.22153E-08 2.92456E-08
 -1        14 3.57010E+03 1.61980E+04 5.67853E+03 1.54312E+03-3.24291E-12 7.02039E-08
 -1        15 2.88540E+03 1.31002E+04 4.62430E+03 1.70331E+03-2.12732E-08 5.95503E-08
 -1        16 2.37928E+03 1.03968E+04 3.72022E+03 1.60413E+03-2.78456E-08 2.27407E-08
 -1        17 1.83614E+03 7.89847E+03 2.85186E+03 1.42195E+03-1.96961E-08-3.08769E-08
 -1        18 1.29120E+03 5.62400E+03 2.03710E+03 1.18526E+03-6.00676E-09-7.76608E-08
 -1        19 8.13593E+02 3.53920E+03 1.28886E+03 9.17656E+02 3.02667E-09-1.02163E-07
 -1        20 3.42246E+02 1.67675E+03 6.00349E+02 6.26696E+02 1.51829E-08-1.14424E-07
 -1        21-5.59858E+01 2.46330E+02 5.61464E+01 3.36251E+02 4.47172E-08-1.38279E-07
 -1        22-3.59617E+02-6.84381E+02-3.13641E+02 1.10565E+02 8.59462E-08-1.38001E-07
 -1        23-5.05434E+02-1.23276E+03-5.22516E+02-3.28961E+01 1.01432E-07-5.97214E-08
 -1        24-5.91118E+02-1.53710E+03-6.40366E+02-1.34798E+02 8.52754E-08 3.08622E-08
 -1        25-5.82303E+02-1.42841E+03-6.05161E+02-2.39192E+02 4.99247E-08 1.13695E-07
 -1        26-4.43531E+02-7.04186E+02-3.45340E+02-3.00399E+02-3.69799E-10 1.41914E-07
 -1        27-1.27357E+02 5.24272E+02 1.17916E+02-2.37626E+02-4.47723E-08 1.30637E-07
 -1        28 1.94949E+02 1.69076E+03 5.62016E+02-3.49321E+01-6.22347E-08 7.22285E-08
 -1        29 3.96621E+02 2.20814E+03 7.75771E+02 1.98836E+02-4.96913E-08 2.90055E-09
 -1        30 3.91321E+02 1.85726E+03 6.70356E+02 3.13641E+02-1.29186E-08-3.71036E-08
 -1        31 2.62399E+02 1.01808E+03 3.82662E+02 2.29912E+02 2.53449E-08-9.64187E-09
 -1        32 2.97460E+03 1.83169E+04 6.08004E+03 1.91216E+03 1.22153E-08 2.92456E-08
 -1        33 3.57010E+03 1.61980E+04 5.67853E+03 1.54312E+03-3.23504E-12 7.02039E-08
 -1        34 2.88540E+03 1.31002E+04 4.62430E+03 1.70331E+03-2.12732E-08 5.95503E-08
 -1        35 2.37928E+03 1.03968E+04 3.72022E+03 1.60413E+03-2.78456E-08 2.27407E-08
 -1        36 1.83614E+03 7.89847E+03 2.85186E+03 1.42195E+03-1.96961E-08-3.08777E-08
 -1        37 1.29120E+03 5.62400E+03 2.03710E+03 1.18526E+03-6.00659E-09-7.76606E-08
 -1        38 8.13593E+02 3.53920E+03 1.28886E+03 9.17656E+02 3.02627E-09-1.02164E-07
 -1        39 3.42246E+02 1.67675E+03 6.00349E+02 6.26696E+02 1.51829E-08-1.14424E-07
 -1        40-5.59858E+01 2.46330E+02 5.61464E+01 3.36251E+02 4.47172E-08-1.38279E-07
 -1        41-3.59617E+02-6.84381E+02-3.13641E+02 1.10565E+02 8.59461E-08-1.38001E-07
 -1        42-5.05434E+02-1.23276E+03-5.22516E+02-3.28961E+01 1.01432E-07-5.97214E-08
 -1        43-5.91118E+02-1.53710E+03-6.40366E+02-1.34798E+02 8.52755E-08 3.08622E-08
 -1        44-5.82303E+02-1.42841E+03-6.05161E+02-2.39192E+02 4.99247E-08 1.13697E-07
 -1        45-4.43531E+02-7.04186E+02-3.45340E+02-3.00399E+02-3.69698E-10 1.41914E-07
 -1        46-1.27357E+02 5.24272E+02 1.17916E+02-2.37626E+02-4.47723E-08 1.30635E-07
 -1        47 1.94949E+02 1.69076E+03 5.62016E+02-3.49321E+01-6.22347E-08 7.22290E-08
 -1        48 3.96621E+02 2.20814E+03 7.75771E+02 1.98836E+02-4.96912E-08 2.90055E-09
 -1        49 3.91321E+02 1.85726E+03 6.70356E+02 3.13641E+02-1.29186E-08-3.71036E-08
 -1        50 2.62399E+02 1.01808E+03 3.82662E+02 2.29912E+02 2.53449E-08-9.64279E-09
 -1        51-1.64073E+02-7.01893E+02-2.60302E+02 4.22837E+01-4.15950E-08-3.45966E-08
 -1        52-3.15516E+02-1.32481E+03-4.93891E+02-4.39671E+01-1.04325E-09-3.93441E-08
 -1        53-4.11353E+02-1.41176E+03-5.49134E+02-1.99205E+02 2.85904E-08 2.11837E-08
 -1        54-2.99747E+02-6.33415E+02-2.81004E+02-2.81548E+02 3.55208E-08 8.74132E-08
 -1        55-2.25218E+01 7.30342E+02 2.10809E+02-2.07017E+02 1.60997E-08 1.40414E-07
 -1        56 3.03530E+02 2.06768E+03 7.06014E+02 5.30309E+00-2.20866E-08 1.49082E-07
 -1        57 5.18384E+02 2.84898E+03 1.00096E+03 2.42923E+02-5.37978E-08 1.01738E-07
 -1        58 6.03517E+02 3.00090E+03 1.07110E+03 3.89727E+02-6.38261E-08 1.15962E-08
 -1        59 5.64390E+02 2.74432E+03 9.83787E+02 4.41198E+02-4.71732E-08-6.83477E-08
 -1        60 4.55426E+02 2.22176E+03 7.96773E+02 4.62454E+02 3.00450E-09-1.45820E-07
 -1        61 2.41354E+02 1.30639E+03 4.61113E+02 4.70402E+02 4.36246E-08-1.52791E-07
 -1        62-8.54725E+01-9.71350E+01-5.59135E+01 4.08572E+02 5.59108E-08-1.20457E-07
 -1        63-5.35881E+02-1.88133E+03-7.28917E+02 2.58628E+02 5.93603E-08-9.19619E-08
 -1        64-1.05106E+03-3.84872E+03-1.48374E+03 7.94852E+01 6.08608E-08-5.73155E-08
 -1        65-1.61928E+03-5.96121E+03-2.30770E+03-6.66231E+01 5.65946E-08-1.87203E-08
 -1        66-2.22885E+03-8.27825E+03-3.21853E+03-1.65210E+02 4.12089E-08 2.36713E-08
 -1        67-2.84664E+03-1.07903E+04-4.20633E+03-1.66591E+02 1.39816E-08 6.33070E-08
 -1        68-3.85150E+03-1.37448E+04-5.47102E+03-1.41639E+02-1.22765E-08 6.17401E-08
 -1        69-3.26898E+03-1.56761E+04-5.93302E+03 5.95631E+02-1.63620E-08 2.10780E-08
 -1        70-1.64073E+02-7.01893E+02-2.60302E+02 4.22837E+01-4.15966E-08-3.45966E-08
 -1        71-3.15516E+02-1.32481E+03-4.93891E+02-4.39671E+01-1.04219E-09-3.93441E-08
 -1        72-4.11353E+02-1.41176E+03-5.49134E+02-1.99205E+02 2.85905E-08 2.11837E-08
 -1        73-2.99747E+02-6.33415E+02-2.81004E+02-2.81548E+02 3.55211E-08 8.74155E-08
 -1        74-2.25218E+01 7.30342E+02 2.10809E+02-2.07017E+02 1.60988E-08 1.40405E-07
 -1        75 3.03530E+02 2.06768E+03 7.06014E+02 5.30309E+00-2.20866E-08 1.49081E-07
 -1        76 5.18384E+02 2.84898E+03 1.00096E+03 2.42923E+02-5.37976E-08 1.01739E-07
 -1        77 6.03517E+02 3.00090E+03 1.07110E+03 3.89727E+02-6.38270E-08 1.15985E-08
 -1        78 5.64390E+02 2.74432E+03 9.83787E+02 4.41198E+02-4.71730E-08-6.83504E-08
 -1        79 4.55426E+02 2.22176E+03 7.96773E+02 4.62454E+02 3.00427E-09-1.45816E-07
 -1        80 2.41354E+02 1.30639E+03 4.61113E+02 4.70402E+02 4.36257E-08-1.52792E-07
 -1        81-8.54725E+01-9.71350E+01-5.59135E+01 4.08572E+02 5.59107E-08-1.20457E-07
 -1        82-5.35881E+02-1.88133E+03-7.28917E+02 2.58628E+02 5.93604E-08-9.19619E-08
 -1        83-1.05106E+03-3.84872E+03-1.48374E+03 7.94852E+01 6.08608E-08-5.73179E-08
 -1        84-1.61928E+03-5.96121E+03-2.30770E+03-6.66231E+01 5.65947E-08-1.87179E-08
 -1        85-2.22885E+03-8.27825E+03-3.21853E+03-1.65210E+02 4.12081E-08 2.36702E-08
 -1        86-2.84664E+03-1.07903E+04-4.20633E+03-1.66591E+02 1.39815E-08 6.33075E-08
 -1        87-3.85150E+03-1.37448E+04-5.47102E+03-1.41639E+02-1.22765E-08 6.17401E-08
 -1        88-3.26898E+03-1.56761E+04-5.93302E+03 5.95631E+02-1.63620E-08 2.10780E-08
 -1        89-2.86356E+01 3.65853E+02 1.20963E+02 7.23107E+02-4.61052E-09 2.50563E-08
 -1        90 3.72683E+01 5.82172E+02 2.14537E+02 9.64450E+02-5.48592E-09 6.93567E-08
 -1        91 1.10082E+02 6.64112E+02 2.47623E+02 8.79695E+02-2.47827E-09 6.75402E-08
 -1        92 1.47543E+02 7.27750E+02 2.71413E+02 8.49664E+02 7.37460E-09 2.32540E-08
 -1        93 1.67519E+02 7.67670E+02 2.84341E+02 7.99411E+02 2.02860E-08-2.55495E-08
 -1        94 1.72200E+02 7.69898E+02 2.83081E+02 7.57063E+02 2.57681E-08-6.76498E-08
 -1        95 1.83519E+02 7.56001E+02 2.80604E+02 7.12753E+02 2.69446E-08-9.76388E-08
 -1        96 1.63226E+02 7.43136E+02 2.70167E+02 6.23948E+02 3.36899E-08-1.22705E-07
 -1        97 1.17103E+02 7.47970E+02 2.58009E+02 4.76230E+02 4.71911E-08-1.49384E-07
 -1        98 6.43510E+01 7.48076E+02 2.42779E+02 3.30868E+02 4.93694E-08-1.50755E-07
 -1        99 4.04379E+01 7.34244E+02 2.31951E+02 2.31136E+02 2.75930E-08-6.78246E-08
 -1       100 1.10352E+01 7.14461E+02 2.17370E+02 1.32489E+02 1.05149E-08 2.58628E-08
 -1       101-3.65646E+01 7.09832E+02 2.01473E+02-3.01685E+01-1.67063E-09 1.13050E-07
 -1       102-8.67929E+01 6.99768E+02 1.83098E+02-2.18806E+02-1.30641E-08 1.55576E-07
 -1       103-9.94290E+01 6.49819E+02 1.64259E+02-3.10967E+02-1.47466E-08 1.42199E-07
 -1       104-7.16664E+01 5.40972E+02 1.40148E+02-2.27570E+02-1.08126E-08 8.21099E-08
 -1       105-8.78944E+00 3.95408E+02 1.15638E+02-1.68136E+01-1.05500E-08 4.09880E-09
 -1       106 5.48668E+01 2.53749E+02 9.24707E+01 1.73631E+02-1.31188E-08-4.71255E-08
 -1       107 7.72121E+01 1.67070E+02 7.33240E+01 1.87391E+02-1.45490E-08-3.50680E-08
 -1       108 7.72121E+01 1.67070E+02 7.33240E+01 1.87391E+02-1.45485E-08-3.50663E-08
 -1       109 5.48668E+01 2.53749E+02 9.24707E+01 1.73631E+02-1.31189E-08-4.71255E-08
 -1       110-8.78944E+00 3.95408E+02 1.15638E+02-1.68136E+01-1.05503E-08 4.09880E-09
 -1       111-7.16664E+01 5.40972E+02 1.40148E+02-2.27570E+02-1.08126E-08 8.21086E-08
 -1       112-9.94290E+01 6.49819E+02 1.64259E+02-3.10967E+02-1.47463E-08 1.42203E-07
 -1       113-8.67929E+01 6.99768E+02 1.83098E+02-2.18806E+02-1.30641E-08 1.55577E-07
 -1       114-3.65646E+01 7.09832E+02 2.01473E+02-3.01685E+01-1.67094E-09 1.13044E-07
 -1       115 1.10352E+01 7.14461E+02 2.17370E+02 1.32489E+02 1.05149E-08 2.58623E-08
 -1       116 4.04379E+01 7.34244E+02 2.31951E+02 2.31136E+02 2.75930E-08-6.78226E-08
 -1       117 6.43510E+01 7.48076E+02 2.42779E+02 3.30868E+02 4.93695E-08-1.50755E-07
 -1       118 1.17103E+02 7.47970E+02 2.58009E+02 4.76230E+02 4.71906E-08-1.49383E-07
 -1       119 1.63226E+02 7.43136E+02 2.70167E+02 6.23948E+02 3.36899E-08-1.22705E-07
 -1       120 1.83519E+02 7.56001E+02 2.80604E+02 7.12753E+02 2.69448E-08-9.76384E-08
 -1       121 1.72200E+02 7.69898E+02 2.83081E+02 7.57063E+02 2.57680E-08-6.76485E-08
 -1       122 1.67519E+02 7.67670E+02 2.84341E+02 7.99411E+02 2.02860E-08-2.55484E-08
 -1       123 1.47543E+02 7.27750E+02 2.71413E+02 8.49664E+02 7.37477E-09 2.32541E-08
 -1       124 1.10082E+02 6.64112E+02 2.47623E+02 8.79695E+02-2.47828E-09 6.75400E-08
 -1       125 3.72683E+01 5.82172E+02 2.14537E+02 9.64450E+02-5.48592E-09 6.93567E-08
 -1       126-2.86356E+01 3.65853E+02 1.20963E+02 7.23107E+02-4.61052E-09 2.50563E-08
 -3
    1PSTEP                       187          47           1          
  100CL  147 4.70000E-01         126                     1   47           1
 -4  TOSTRAIN    6    1
 -5  EXX         1    4    1    1
 -5  EYY         1    4    2    2
 -5  EZZ         1    4    3    3
 -5  EXY         1    4    1    2
 -5  EYZ         1    4    2    3
 -5  EZX         1    4    3    1
 -1         1-1.25940E-04 3.94780E-02-3.28317E-27 1.63983E-02-7.17451E-21 4.00810E-16
 -1         2-1.25940E-04 3.94780E-02-3.28317E-27 1.63983E-02-7.17451E-21 4.00810E-16
 -1         3-2.25911E-04 1.19679E-03 4.35643E-26 2.50493E-04 1.40806E-13 1.09572E-13
 -1         4-2.25911E-04 1.19679E-03 4.35640E-26 2.50493E-04 1.40807E-13 1.09574E-13
 -1         5 8.30367E-05-6.02527E-04 7.37293E-26 1.96451E-04-2.08491E-13 4.08184E-14
 -1         6 8.30367E-05-6.02527E-04 7.37360E-26 1.96451E-04-2.08500E-13 4.08198E-14
 -1         7-1.21739E-04-3.53322E-02-2.58107E-27 1.44590E-02 5.76290E-19-4.50771E-16
 -1         8-1.21739E-04-3.53322E-02-2.58107E-27 1.44590E-02 5.76290E-19-4.50771E-16
 -1         9-7.14371E-05 3.81186E-04-2.05280E-27 3.43656E-04-4.09123E-14 9.66528E-14
 -1        10-7.14371E-05 3.81186E-04-2.05292E-27 3.43656E-04-4.09118E-14 9.66497E-14
 -1        11-1.23840E-04 1.25781E-03-2.16871E-27 1.06709E-02 1.57976E-19-6.99137E-17
 -1        12-1.23840E-04 1.25781E-03-2.16871E-27 1.06709E-02 1.57976E-19-6.99137E-17
 -1        13-1.08066E-02 3.76192E-02 1.48820E-26 3.98755E-03 4.10451E-14 9.27585E-14
 -1        14-7.64016E-03 3.27025E-02 1.00530E-25 1.91090E-03 1.53500E-14 2.26174E-13
 -1        15-6.59926E-03 2.69423E-02 8.03190E-26 2.05825E-03-4.81811E-14 1.98641E-13
 -1        16-5.34139E-03 2.16644E-02 1.48346E-26 1.87028E-03-7.87842E-14 8.42178E-14
 -1        17-4.25288E-03 1.67332E-02 1.26436E-26 1.72180E-03-7.54473E-14-9.02451E-14
 -1        18-3.28253E-03 1.21753E-02 1.18946E-25 1.57466E-03-5.58163E-14-2.46243E-13
 -1        19-2.26606E-03 7.88040E-03 2.17343E-25 1.44764E-03-4.15675E-14-3.29195E-13
 -1        20-1.37714E-03 3.98743E-03 2.77848E-25 1.23774E-03-1.04436E-14-3.74984E-13
 -1        21-6.88241E-04 9.32678E-04 4.42236E-25 8.78657E-04 7.18033E-14-4.67221E-13
 -1        22-2.91971E-04-1.06632E-03 5.41956E-25 5.05516E-04 2.05761E-13-4.87492E-13
 -1        23 2.71150E-05-2.28884E-03 2.49448E-25 2.57256E-04 2.96934E-13-2.42782E-13
 -1        24 2.13729E-04-2.98457E-03 1.26702E-25 3.37596E-05 2.90209E-13 5.79602E-14
 -1        25 2.30321E-04-2.84899E-03 2.98528E-25-3.54750E-04 2.14695E-13 3.42784E-13
 -1        26-7.15990E-05-1.42309E-03 4.16783E-25-8.21265E-04 6.36228E-14 4.57321E-13
 -1        27-5.49211E-04 1.06201E-03 3.89628E-25-1.03003E-03-8.51644E-14 4.40588E-13
 -1        28-1.07341E-03 3.51457E-03 1.66312E-25-7.76779E-04-1.66686E-13 2.60419E-13
 -1        29-1.30396E-03 4.67451E-03 3.26659E-26-2.13148E-04-1.57482E-13 3.24081E-14
 -1        30-1.10633E-03 4.01827E-03 2.41244E-26 2.79682E-04-5.89304E-14-1.13001E-13
 -1        31-5.58103E-04 2.21942E-03-1.82563E-28 3.47688E-04 7.65467E-14-4.33649E-14
 -1        32-1.08066E-02 3.76192E-02 1.48820E-26 3.98755E-03 4.10451E-14 9.27585E-14
 -1        33-7.64016E-03 3.27025E-02 1.00530E-25 1.91090E-03 1.53501E-14 2.26174E-13
 -1        34-6.59926E-03 2.69423E-02 8.03190E-26 2.05825E-03-4.81813E-14 1.98641E-13
 -1        35-5.34139E-03 2.16644E-02 1.48344E-26 1.87028E-03-7.87843E-14 8.42179E-14
 -1        36-4.25288E-03 1.67332E-02 1.26446E-26 1.72180E-03-7.54478E-14-9.02480E-14
 -1        37-3.28253E-03 1.21753E-02 1.18946E-25 1.57466E-03-5.58157E-14-2.46243E-13
 -1        38-2.26606E-03 7.88040E-03 2.17344E-25 1.44764E-03-4.15689E-14-3.29196E-13
 -1        39-1.37714E-03 3.98743E-03 2.77848E-25 1.23774E-03-1.04436E-14-3.74984E-13
 -1        40-6.88241E-04 9.32678E-04 4.42236E-25 8.78657E-04 7.18032E-14-4.67221E-13
 -1        41-2.91971E-04-1.06632E-03 5.41956E-25 5.05516E-04 2.05761E-13-4.87492E-13
 -1        42 2.71150E-05-2.28884E-03 2.49448E-25 2.57256E-04 2.96934E-13-2.42782E-13
 -1        43 2.13729E-04-2.98457E-03 1.26702E-25 3.37596E-05 2.90209E-13 5.79602E-14
 -1        44 2.30321E-04-2.84899E-03 2.98538E-25-3.54750E-04 2.14696E-13 3.42790E-13
 -1        45-7.15990E-05-1.42309E-03 4.16780E-25-8.21265E-04 6.36229E-14 4.57320E-13
 -1        46-5.49211E-04 1.06201E-03 3.89618E-25-1.03003E-03-8.51652E-14 4.40582E-13
 -1        47-1.07341E-03 3.51457E-03 1.66314E-25-7.76779E-04-1.66686E-13 2.60421E-13
 -1        48-1.30396E-03 4.67451E-03 3.26658E-26-2.13148E-04-1.57482E-13 3.24080E-14
 -1        49-1.10633E-03 4.01827E-03 2.41245E-26 2.79682E-04-5.89305E-14-1.13001E-13
 -1        50-5.58103E-04 2.21942E-03-1.81897E-28 3.47688E-04 7.65462E-14-4.33679E-14
 -1        51 2.31689E-04-1.35851E-03 5.38052E-26 3.91814E-04-1.50794E-13-9.07918E-14
 -1        52 5.44841E-04-2.68210E-03 2.17105E-26 3.42585E-04-2.22671E-14-1.26028E-13
 -1        53 5.56691E-04-2.93294E-03 5.00060E-27-1.59626E-04 1.02250E-13 5.48578E-14
 -1        54 1.65888E-04-1.38183E-03 1.67887E-25-7.28980E-04 1.54344E-13 2.65482E-13
 -1        55-5.30533E-04 1.44695E-03 4.12010E-25-9.78767E-04 1.14865E-13 4.44936E-13
 -1        56-1.20741E-03 4.27604E-03 4.72947E-25-7.73030E-04-3.07631E-15 4.89612E-13
 -1        57-1.64669E-03 5.99991E-03 2.50131E-25-3.20128E-04-1.24351E-13 3.52121E-13
 -1        58-1.72934E-03 6.38863E-03 4.10780E-26 6.17145E-05-1.97862E-13 6.81493E-14
 -1        59-1.63835E-03 5.91686E-03 9.83061E-26 2.87833E-04-1.84173E-13-1.95749E-13
 -1        60-1.44045E-03 4.90386E-03 4.25342E-25 5.31906E-04-6.43966E-14-4.69337E-13
 -1        61-1.11305E-03 3.11602E-03 5.30621E-25 9.00346E-04 6.05957E-14-5.12970E-13
 -1        62-5.21550E-04 2.81020E-04 3.69201E-25 1.26558E-03 1.17023E-13-4.15982E-13
 -1        63 2.47598E-04-3.39836E-03 2.47804E-25 1.48297E-03 1.44701E-13-3.26124E-13
 -1        64 1.09991E-03-7.50059E-03 1.40927E-25 1.60607E-03 1.69765E-13-2.14509E-13
 -1        65 1.97731E-03-1.19071E-02 6.74303E-26 1.74446E-03 1.76844E-13-8.61989E-14
 -1        66 2.96663E-03-1.67748E-02 3.85372E-26 1.88995E-03 1.45605E-13 6.00266E-14
 -1        67 4.12628E-03-2.21148E-02 8.26299E-26 2.09782E-03 6.74788E-14 2.00911E-13
 -1        68 4.93420E-03-2.82277E-02 7.94768E-26 1.94958E-03-2.68787E-14 2.04274E-13
 -1        69 8.19551E-03-3.34530E-02 1.12684E-26 3.70511E-03-5.34326E-14 7.10799E-14
 -1        70 2.31689E-04-1.35851E-03 5.38069E-26 3.91814E-04-1.50799E-13-9.07910E-14
 -1        71 5.44841E-04-2.68210E-03 2.17098E-26 3.42585E-04-2.22637E-14-1.26029E-13
 -1        72 5.56691E-04-2.93294E-03 5.00058E-27-1.59626E-04 1.02251E-13 5.48577E-14
 -1        73 1.65888E-04-1.38183E-03 1.67900E-25-7.28980E-04 1.54345E-13 2.65489E-13
 -1        74-5.30533E-04 1.44695E-03 4.11963E-25-9.78767E-04 1.14858E-13 4.44908E-13
 -1        75-1.20741E-03 4.27604E-03 4.72947E-25-7.73030E-04-3.07639E-15 4.89612E-13
 -1        76-1.64669E-03 5.99991E-03 2.50139E-25-3.20128E-04-1.24349E-13 3.52125E-13
 -1        77-1.72934E-03 6.38863E-03 4.10808E-26 6.17145E-05-1.97863E-13 6.81571E-14
 -1        78-1.63835E-03 5.91686E-03 9.83119E-26 2.87833E-04-1.84173E-13-1.95758E-13
 -1        79-1.44045E-03 4.90386E-03 4.25319E-25 5.31906E-04-6.43955E-14-4.69325E-13
 -1        80-1.11305E-03 3.11602E-03 5.30631E-25 9.00346E-04 6.05984E-14-5.12975E-13
 -1        81-5.21550E-04 2.81020E-04 3.69200E-25 1.26558E-03 1.17022E-13-4.15982E-13
 -1        82 2.47598E-04-3.39836E-03 2.47804E-25 1.48297E-03 1.44702E-13-3.26124E-13
 -1        83 1.09991E-03-7.50059E-03 1.40932E-25 1.60607E-03 1.69764E-13-2.14517E-13
 -1        84 1.97731E-03-1.19071E-02 6.74284E-26 1.74446E-03 1.76846E-13-8.61911E-14
 -1        85 2.96663E-03-1.67748E-02 3.85357E-26 1.88995E-03 1.45602E-13 6.00236E-14
 -1        86 4.12628E-03-2.21148E-02 8.26310E-26 2.09782E-03 6.74785E-14 2.00913E-13
 -1        87 4.93420E-03-2.82277E-02 7.94768E-26 1.94958E-03-2.68788E-14 2.04274E-13
 -1        88 8.19551E-03-3.34530E-02 1.12684E-26 3.70511E-03-5.34326E-14 7.10799E-14
 -1        89-1.30555E-03 1.70154E-03 8.48732E-27 2.28239E-03-1.21441E-14 8.20594E-14
 -1        90-1.35298E-03 2.16627E-03 9.91611E-26 2.96093E-03-2.00752E-15 2.26305E-13
 -1        91-1.23649E-03 2.23819E-03 9.20198E-26 2.61107E-03 1.34109E-14 2.19291E-13
 -1        92-1.18738E-03 2.31956E-03 1.01536E-28 2.44193E-03 3.27020E-14 7.20618E-14
 -1        93-1.13778E-03 2.34608E-03 9.56685E-27 2.22381E-03 5.37537E-14-9.15249E-14
 -1        94-1.09131E-03 2.30732E-03 1.02210E-25 2.05489E-03 5.00372E-14-2.30161E-13
 -1        95-1.00923E-03 2.22214E-03 2.11974E-25 1.90616E-03 3.69508E-14-3.27358E-13
 -1        96-9.49346E-04 2.12045E-03 3.39198E-25 1.61900E-03 4.44709E-14-4.11424E-13
 -1        97-9.00648E-04 2.01949E-03 5.19101E-25 1.14002E-03 7.38614E-14-5.04069E-13
 -1        98-8.66209E-04 1.91811E-03 5.14539E-25 6.73793E-04 8.12838E-14-5.09346E-13
 -1        99-8.05615E-04 1.80961E-03 6.53528E-26 3.71877E-04 5.46204E-14-2.31678E-13
 -1       100-7.57803E-04 1.69792E-03-3.29938E-26 7.41735E-05 4.61608E-14 7.80434E-14
 -1       101-7.08186E-04 1.57959E-03 2.44541E-25-4.38347E-04 4.74818E-14 3.64495E-13
 -1       102-6.39505E-04 1.43228E-03 5.12518E-25-1.03410E-03 2.88250E-14 5.06760E-13
 -1       103-5.39872E-04 1.25173E-03 4.22951E-25-1.30130E-03 1.65562E-14 4.64453E-13
 -1       104-4.53761E-04 1.06058E-03 1.19520E-25-9.83135E-04 2.51663E-15 2.69188E-13
 -1       105-3.73637E-04 8.73435E-04-1.81004E-26-2.37867E-04-3.19810E-14 1.80805E-14
 -1       106-2.80744E-04 6.80341E-04 4.59140E-26 4.44981E-04-6.46539E-14-1.45156E-13
 -1       107-1.63207E-04 4.80524E-04 1.87025E-26 5.37545E-04-6.37792E-14-1.05517E-13
 -1       108-1.63207E-04 4.80524E-04 1.87008E-26 5.37545E-04-6.37770E-14-1.05512E-13
 -1       109-2.80744E-04 6.80341E-04 4.59141E-26 4.44981E-04-6.46541E-14-1.45156E-13
 -1       110-3.73637E-04 8.73435E-04-1.81003E-26-2.37867E-04-3.19818E-14 1.80806E-14
 -1       111-4.53761E-04 1.06058E-03 1.19513E-25-9.83135E-04 2.51589E-15 2.69184E-13
 -1       112-5.39872E-04 1.25173E-03 4.22976E-25-1.30130E-03 1.65592E-14 4.64468E-13
 -1       113-6.39505E-04 1.43228E-03 5.12523E-25-1.03410E-03 2.88255E-14 5.06764E-13
 -1       114-7.08186E-04 1.57959E-03 2.44507E-25-4.38347E-04 4.74776E-14 3.64474E-13
 -1       115-7.57803E-04 1.69792E-03-3.29940E-26 7.41735E-05 4.61604E-14 7.80417E-14
 -1       116-8.05615E-04 1.80961E-03 6.53475E-26 3.71877E-04 5.46215E-14-2.31672E-13
 -1       117-8.66209E-04 1.91811E-03 5.14543E-25 6.73793E-04 8.12838E-14-5.09349E-13
 -1       118-9.00648E-04 2.01949E-03 5.19094E-25 1.14002E-03 7.38605E-14-5.04066E-13
 -1       119-9.49346E-04 2.12045E-03 3.39199E-25 1.61900E-03 4.44710E-14-4.11424E-13
 -1       120-1.00923E-03 2.22214E-03 2.11972E-25 1.90616E-03 3.69516E-14-3.27357E-13
 -1       121-1.09131E-03 2.30732E-03 1.02206E-25 2.05489E-03 5.00374E-14-2.30156E-13
 -1       122-1.13778E-03 2.34608E-03 9.56572E-27 2.22381E-03 5.37543E-14-9.15213E-14
 -1       123-1.18738E-03 2.31956E-03 1.02020E-28 2.44193E-03 3.27026E-14 7.20621E-14
 -1       124-1.23649E-03 2.23819E-03 9.20194E-26 2.61107E-03 1.34108E-14 2.19290E-13
 -1       125-1.35298E-03 2.16627E-03 9.91612E-26 2.96093E-03-2.00751E-15 2.26305E-13
 -1       126-1.30555E-03 1.70154E-03 8.48732E-27 2.28239E-03-1.21441E-14 8.20594E-14
 -3
    1PSTEP                       188          47           1          
  100CL  147 4.70000E-01         126                     1   47           1
 -4  ERROR       1    1
 -5  STR(%)      1    1    0    0
 -1         1 6.15268E+01
 -1         2 6.15268E+01
 -1         3 2.81619E+01
 -1         4 2.81619E+01
 -1         5 7.26521E+01
 -1         6 7.26521E+01
 -1         7 6.43494E+01
 -1         8 6.43494E+01
 -1         9 7.26521E+01
 -1        10 7.26521E+01
 -1        11 6.43494E+01
 -1        12 6.43494E+01
 -1        13 6.15268E+01
 -1        14 5.79785E+01
 -1        15 5.71525E+01
 -1        16 5.53844E+01
 -1        17 5.30092E+01
 -1        18 4.96406E+01
 -1        19 4.32730E+01
 -1        20 2.87695E+01
 -1        21 7.22366E+01
 -1        22 1.08336E+02
 -1        23 1.08336E+02
 -1        24 9.19320E+01
 -1        25 8.64942E+01
 -1        26 8.53372E+01
 -1        27 5.68898E+01
 -1        28 4.56420E+01
 -1        29 4.86062E+01
 -1        30 4.86062E+01
 -1        31 4.42707E+01
 -1        32 6.15268E+01
 -1        33 5.79785E+01
 -1        34 5.71525E+01
 -1        35 5.53844E+01
 -1        36 5.30092E+01
 -1        37 4.96406E+01
 -1        38 4.32730E+01
 -1        39 2.87695E+01
 -1        40 7.22366E+01
 -1        41 1.08336E+02
 -1        42 1.08336E+02
 -1        43 9.19320E+01
 -1        44 8.64942E+01
 -1        45 8.53372E+01
 -1        46 5.68898E+01
 -1        47 4.56420E+01
 -1        48 4.86062E+01
 -1        49 4.86062E+01
 -1        50 4.42707E+01
 -1        51 7.28631E+01
 -1        52 8.00220E+01
 -1        53 8.32429E+01
 -1        54 8.32429E+01
 -1        55 5.01157E+01
 -1        56 3.97350E+01
 -1        57 4.14039E+01
 -1        58 4.14039E+01
 -1        59 4.02268E+01
 -1        60 3.60306E+01
 -1        61 2.56411E+01
 -1        62 7.28577E+01
 -1        63 7.74926E+01
 -1        64 7.87648E+01
 -1        65 7.87648E+01
 -1        66 7.49381E+01
 -1        67 7.13200E+01
 -1        68 6.86358E+01
 -1        69 6.65712E+01
 -1        70 7.28631E+01
 -1        71 8.00220E+01
 -1        72 8.32429E+01
 -1        73 8.32429E+01
 -1        74 5.01157E+01
 -1        75 3.97350E+01
 -1        76 4.14039E+01
 -1        77 4.14039E+01
 -1        78 4.02268E+01
 -1        79 3.60306E+01
 -1        80 2.56411E+01
 -1        81 7.28577E+01
 -1        82 7.74926E+01
 -1        83 7.87648E+01
 -1        84 7.87648E+01
 -1        85 7.49381E+01
 -1        86 7.13200E+01
 -1        87 6.86358E+01
 -1        88 6.65712E+01
 -1        89 6.65712E+01
 -1        90 6.86358E+01
 -1        91 7.13200E+01
 -1        92 7.49381E+01
 -1        93 7.87648E+01
 -1        94 7.87648E+01
 -1        95 7.74926E+01
 -1        96 7.28577E+01
 -1        97 7.22366E+01
 -1        98 1.08336E+02
 -1        99 1.08336E+02
 -1       100 9.19320E+01
 -1       101 8.64942E+01
 -1       102 8.53372E+01
 -1       103 5.68898E+01
 -1       104 8.32429E+01
 -1       105 8.32429E+01
 -1       106 8.00220E+01
 -1       107 7.28631E+01
 -1       108 7.28631E+01
 -1       109 8.00220E+01
 -1       110 8.32429E+01
 -1       111 8.32429E+01
 -1       112 5.68898E+01
 -1       113 8.53372E+01
 -1       114 8.64942E+01
 -1       115 9.19320E+01
 -1       116 1.08336E+02
 -1       117 1.08336E+02
 -1       118 7.22366E+01
 -1       119 7.28577E+01
 -1       120 7.74926E+01
 -1       121 7.87648E+01
 -1       122 7.87648E+01
 -1       123 7.49381E+01
 -1       124 7.13200E+01
 -1       125 6.86358E+01
 -1       126 6.65712E+01
 -3
    1PSTEP                       189          48           1          
  100CL  148 4.80000E-01         126                     1   48           1
 -4  DISP        4    1
 -5  D1          1    2    1    0
 -5  D2          1    2    2    0
 -5  D3          1    2    3    0
 -5  ALL         1    2    0    0    1ALL
 -1         1 0.00000E+00 0.00000E+00 0.00000E+00
 -1         2 0.00000E+00 0.00000E+00 0.00000E+00
 -1         3 1.39868E-01-5.82903E-04 0.00000E+00
 -1         4 1.39868E-01-5.82903E-04 0.00000E+00
 -1         5 1.38544E-01-1.67550E-02 0.00000E+00
 -1         6 1.38544E-01-1.67550E-02 0.00000E+00
 -1         7 0.00000E+00 0.00000E+00 0.00000E+00
 -1         8 0.00000E+00 0.00000E+00 0.00000E+00
 -1         9 1.39197E-01-8.65893E-03 0.00000E+00
 -1        10 1.39197E-01-8.65893E-03 0.00000E+00
 -1        11 0.00000E+00 0.00000E+00 0.00000E+00
 -1        12 0.00000E+00 0.00000E+00 0.00000E+00
 -1        13 1.60451E-03 1.89448E-03 0.00000E+00
 -1        14 4.58397E-03 3.56479E-03 0.00000E+00
 -1        15 9.13083E-03 4.85193E-03 0.00000E+00
 -1        16 1.49267E-02 5.76752E-03 0.00000E+00
 -1        17 2.16979E-02 6.31399E-03 0.00000E+00
 -1        18 2.91772E-02 6.53562E-03 0.00000E+00
 -1        19 3.71566E-02 6.48506E-03 0.00000E+00
 -1        20 4.54769E-02 6.19275E-03 0.00000E+00
 -1        21 5.39471E-02 5.68707E-03 0.00000E+00
 -1        22 6.23729E-02 5.02431E-03 0.00000E+00
 -1        23 7.06147E-02 4.28124E-03 0.00000E+00
 -1        24 7.86305E-02 3.51628E-03 0.00000E+00
 -1        25 8.64025E-02 2.76693E-03 0.00000E+00
 -1        26 9.39214E-02 2.07552E-03 0.00000E+00
 -1        27 1.01228E-01 1.50134E-03 0.00000E+00
 -1        28 1.08490E-01 1.07871E-03 0.00000E+00
 -1        29 1.15930E-01 7.66960E-04 0.00000E+00
 -1        30 1.23699E-01 4.47852E-04 0.00000E+00
 -1        31 1.31746E-01 3.93965E-06 0.00000E+00
 -1        32 1.60451E-03 1.89448E-03 0.00000E+00
 -1        33 4.58397E-03 3.56479E-03 0.00000E+00
 -1        34 9.13083E-03 4.85193E-03 0.00000E+00
 -1        35 1.49267E-02 5.76752E-03 0.00000E+00
 -1        36 2.16979E-02 6.31399E-03 0.00000E+00
 -1        37 2.91772E-02 6.53562E-03 0.00000E+00
 -1        38 3.71566E-02 6.48506E-03 0.00000E+00
 -1        39 4.54769E-02 6.19275E-03 0.00000E+00
 -1        40 5.39471E-02 5.68707E-03 0.00000E+00
 -1        41 6.23729E-02 5.02431E-03 0.00000E+00
 -1        42 7.06147E-02 4.28124E-03 0.00000E+00
 -1        43 7.86305E-02 3.51628E-03 0.00000E+00
 -1        44 8.64025E-02 2.76693E-03 0.00000E+00
 -1        45 9.39214E-02 2.07552E-03 0.00000E+00
 -1        46 1.01228E-01 1.50134E-03 0.00000E+00
 -1        47 1.08490E-01 1.07871E-03 0.00000E+00
 -1        48 1.15930E-01 7.66960E-04 0.00000E+00
 -1        49 1.23699E-01 4.47852E-04 0.00000E+00
 -1        50 1.31746E-01 3.93965E-06 0.00000E+00
 -1        51 1.30431E-01-1.60449E-02 0.00000E+00
 -1        52 1.22426E-01-1.52498E-02 0.00000E+00
 -1        53 1.14720E-01-1.44465E-02 0.00000E+00
 -1        54 1.07328E-01-1.37587E-02 0.00000E+00
 -1        55 1.00071E-01-1.32503E-02 0.00000E+00
 -1        56 9.27236E-02-1.28903E-02 0.00000E+00
 -1        57 8.51393E-02-1.25929E-02 0.00000E+00
 -1        58 7.72925E-02-1.22854E-02 0.00000E+00
 -1        59 6.92029E-02-1.19294E-02 0.00000E+00
 -1        60 6.09012E-02-1.14952E-02 0.00000E+00
 -1        61 5.24517E-02-1.09410E-02 0.00000E+00
 -1        62 4.40077E-02-1.02367E-02 0.00000E+00
 -1        63 3.57728E-02-9.38995E-03 0.00000E+00
 -1        64 2.79306E-02-8.42838E-03 0.00000E+00
 -1        65 2.06354E-02-7.35947E-03 0.00000E+00
 -1        66 1.40832E-02-6.16944E-03 0.00000E+00
 -1        67 8.52550E-03-4.84812E-03 0.00000E+00
 -1        68 4.19657E-03-3.39579E-03 0.00000E+00
 -1        69 1.39808E-03-1.75214E-03 0.00000E+00
 -1        70 1.30431E-01-1.60449E-02 0.00000E+00
 -1        71 1.22426E-01-1.52498E-02 0.00000E+00
 -1        72 1.14720E-01-1.44465E-02 0.00000E+00
 -1        73 1.07328E-01-1.37587E-02 0.00000E+00
 -1        74 1.00071E-01-1.32503E-02 0.00000E+00
 -1        75 9.27236E-02-1.28903E-02 0.00000E+00
 -1        76 8.51393E-02-1.25929E-02 0.00000E+00
 -1        77 7.72925E-02-1.22854E-02 0.00000E+00
 -1        78 6.92029E-02-1.19294E-02 0.00000E+00
 -1        79 6.09012E-02-1.14952E-02 0.00000E+00
 -1        80 5.24517E-02-1.09410E-02 0.00000E+00
 -1        81 4.40077E-02-1.02367E-02 0.00000E+00
 -1        82 3.57728E-02-9.38995E-03 0.00000E+00
 -1        83 2.79306E-02-8.42838E-03 0.00000E+00
 -1        84 2.06354E-02-7.35947E-03 0.00000E+00
 -1        85 1.40832E-02-6.16944E-03 0.00000E+00
 -1        86 8.52550E-03-4.84812E-03 0.00000E+00
 -1        87 4.19657E-03-3.39579E-03 0.00000E+00
 -1        88 1.39808E-03-1.75214E-03 0.00000E+00
 -1        89 1.03416E-03 7.44697E-05 0.00000E+00
 -1        90 4.07604E-03 1.10366E-04 0.00000E+00
 -1        91 8.55482E-03 3.39250E-05 0.00000E+00
 -1        92 1.42894E-02-1.70662E-04 0.00000E+00
 -1        93 2.10019E-02-4.96819E-04 0.00000E+00
 -1        94 2.84317E-02-9.25670E-04 0.00000E+00
 -1        95 3.63829E-02-1.43733E-03 0.00000E+00
 -1        96 4.46992E-02-2.01280E-03 0.00000E+00
 -1        97 5.31929E-02-2.62418E-03 0.00000E+00
 -1        98 6.16568E-02-3.23728E-03 0.00000E+00
 -1        99 6.99458E-02-3.82851E-03 0.00000E+00
 -1       100 7.80054E-02-4.39023E-03 0.00000E+00
 -1       101 8.58146E-02-4.91857E-03 0.00000E+00
 -1       102 9.33534E-02-5.41033E-03 0.00000E+00
 -1       103 1.00655E-01-5.87335E-03 0.00000E+00
 -1       104 1.07880E-01-6.33389E-03 0.00000E+00
 -1       105 1.15273E-01-6.82894E-03 0.00000E+00
 -1       106 1.23012E-01-7.38867E-03 0.00000E+00
 -1       107 1.31063E-01-8.01156E-03 0.00000E+00
 -1       108 1.31063E-01-8.01156E-03 0.00000E+00
 -1       109 1.23012E-01-7.38867E-03 0.00000E+00
 -1       110 1.15273E-01-6.82894E-03 0.00000E+00
 -1       111 1.07880E-01-6.33389E-03 0.00000E+00
 -1       112 1.00655E-01-5.87335E-03 0.00000E+00
 -1       113 9.33534E-02-5.41033E-03 0.00000E+00
 -1       114 8.58146E-02-4.91857E-03 0.00000E+00
 -1       115 7.80054E-02-4.39023E-03 0.00000E+00
 -1       116 6.99458E-02-3.82851E-03 0.00000E+00
 -1       117 6.16568E-02-3.23728E-03 0.00000E+00
 -1       118 5.31929E-02-2.62418E-03 0.00000E+00
 -1       119 4.46992E-02-2.01280E-03 0.00000E+00
 -1       120 3.63829E-02-1.43733E-03 0.00000E+00
 -1       121 2.84317E-02-9.25670E-04 0.00000E+00
 -1       122 2.10019E-02-4.96819E-04 0.00000E+00
 -1       123 1.42894E-02-1.70662E-04 0.00000E+00
 -1       124 8.55482E-03 3.39250E-05 0.00000E+00
 -1       125 4.07604E-03 1.10366E-04 0.00000E+00
 -1       126 1.03416E-03 7.44697E-05 0.00000E+00
 -3
    1PSTEP                       190          48           1          
  100CL  148 4.80000E-01         126                     1   48           1
 -4  STRESS      6    1
 -5  SXX         1    4    1    1
 -5  SYY         1    4    2    2
 -5  SZZ         1    4    3    3
 -5  SXY         1    4    1    2
 -5  SYZ         1    4    2    3
 -5  SZX         1    4    3    1
 -1         1 8.96398E+03 2.15765E+04 8.69705E+03 5.53587E+03 1.77737E-10 1.60167E-10
 -1         2 8.96398E+03 2.15765E+04 8.69705E+03 5.53587E+03 1.77737E-10 1.60167E-10
 -1         3 2.48509E+02 7.12595E+02 2.87740E+02 1.82184E+02-3.69389E-08-1.27699E-07
 -1         4 2.48509E+02 7.12595E+02 2.87740E+02 1.82184E+02-3.69389E-08-1.27700E-07
 -1         5-1.30176E+02-4.91767E+02-1.86742E+02 2.24743E+01 3.56284E-08-1.34949E-07
 -1         6-1.30176E+02-4.91767E+02-1.86742E+02 2.24743E+01 3.56283E-08-1.34976E-07
 -1         7-7.95078E+03-1.79506E+04-8.13876E+03 3.83538E+03 2.69944E-10-2.28185E-10
 -1         8-7.95078E+03-1.79506E+04-8.13876E+03 3.83538E+03 2.69944E-10-2.28189E-10
 -1         9 9.35894E+01 1.33746E+02 6.81849E+01 1.53266E+02-2.45136E-09-1.39448E-07
 -1        10 9.35894E+01 1.33746E+02 6.81849E+01 1.53266E+02-2.45136E-09-1.39443E-07
 -1        11 4.71607E+02 6.43220E+02 3.92658E+02 3.18589E+03 2.08009E-10 5.02931E-12
 -1        12 4.71607E+02 6.43220E+02 3.92658E+02 3.18589E+03 2.08009E-10 5.03662E-12
 -1        13 2.90698E+03 1.81646E+04 6.01884E+03 1.83609E+03 4.74507E-09 3.03218E-08
 -1        14 3.51655E+03 1.62894E+04 5.68739E+03 1.46121E+03 1.52108E-09 3.50063E-08
 -1        15 2.89565E+03 1.34519E+04 4.72405E+03 1.66626E+03-2.83160E-09 4.56303E-08
 -1        16 2.44019E+03 1.08768E+04 3.87245E+03 1.62557E+03 3.80678E-09 2.98849E-08
 -1        17 1.93324E+03 8.45747E+03 3.03984E+03 1.46236E+03 1.76149E-08 3.89455E-08
 -1        18 1.42384E+03 6.35310E+03 2.28710E+03 1.23065E+03 1.66439E-08 5.76546E-08
 -1        19 9.90201E+02 4.48989E+03 1.61898E+03 1.00449E+03-8.37057E-10 6.84382E-08
 -1        20 5.53777E+02 2.68534E+03 9.60945E+02 7.76972E+02-2.55681E-08 5.35524E-08
 -1        21 1.33675E+02 1.02964E+03 3.46076E+02 5.05366E+02-3.06793E-08-2.90783E-08
 -1        22-2.46918E+02-2.41480E+02-1.47059E+02 2.26111E+02-8.12651E-09-8.41271E-08
 -1        23-4.57013E+02-9.92739E+02-4.35634E+02 1.51505E+01 3.54918E-08-1.14781E-07
 -1        24-5.62139E+02-1.35003E+03-5.75001E+02-1.02334E+02 6.19631E-08-6.71304E-08
 -1        25-5.72734E+02-1.33871E+03-5.74949E+02-1.83911E+02 5.18705E-08-4.41710E-09
 -1        26-4.79058E+02-8.05961E+02-3.86484E+02-2.52228E+02 2.05552E-08 5.29744E-08
 -1        27-1.96037E+02 3.39503E+02 4.20300E+01-2.42656E+02-1.57183E-08 5.84085E-08
 -1        28 1.42982E+02 1.68416E+03 5.44247E+02-7.60249E+01-3.28692E-08-1.59016E-08
 -1        29 4.08090E+02 2.49824E+03 8.64611E+02 1.88498E+02-3.16383E-08-6.32864E-08
 -1        30 4.64604E+02 2.26990E+03 8.14086E+02 3.66382E+02-3.28068E-08-7.62199E-08
 -1        31 3.35595E+02 1.28966E+03 4.85219E+02 2.93617E+02-3.95109E-08-9.57985E-08
 -1        32 2.90698E+03 1.81646E+04 6.01884E+03 1.83609E+03 4.74507E-09 3.03218E-08
 -1        33 3.51655E+03 1.62894E+04 5.68739E+03 1.46121E+03 1.52108E-09 3.50064E-08
 -1        34 2.89565E+03 1.34519E+04 4.72405E+03 1.66626E+03-2.83161E-09 4.56303E-08
 -1        35 2.44019E+03 1.08768E+04 3.87245E+03 1.62557E+03 3.80677E-09 2.98849E-08
 -1        36 1.93324E+03 8.45747E+03 3.03984E+03 1.46236E+03 1.76150E-08 3.89449E-08
 -1        37 1.42384E+03 6.35310E+03 2.28710E+03 1.23065E+03 1.66439E-08 5.76554E-08
 -1        38 9.90201E+02 4.48989E+03 1.61898E+03 1.00449E+03-8.37064E-10 6.84391E-08
 -1        39 5.53777E+02 2.68534E+03 9.60945E+02 7.76972E+02-2.55681E-08 5.35521E-08
 -1        40 1.33675E+02 1.02964E+03 3.46076E+02 5.05366E+02-3.06793E-08-2.90783E-08
 -1        41-2.46918E+02-2.41480E+02-1.47059E+02 2.26111E+02-8.12656E-09-8.41271E-08
 -1        42-4.57013E+02-9.92739E+02-4.35634E+02 1.51505E+01 3.54918E-08-1.14780E-07
 -1        43-5.62139E+02-1.35003E+03-5.75001E+02-1.02334E+02 6.19630E-08-6.71324E-08
 -1        44-5.72734E+02-1.33871E+03-5.74949E+02-1.83911E+02 5.18705E-08-4.41534E-09
 -1        45-4.79058E+02-8.05961E+02-3.86484E+02-2.52228E+02 2.05552E-08 5.29724E-08
 -1        46-1.96037E+02 3.39503E+02 4.20300E+01-2.42656E+02-1.57183E-08 5.84062E-08
 -1        47 1.42982E+02 1.68416E+03 5.44247E+02-7.60249E+01-3.28690E-08-1.58993E-08
 -1        48 4.08090E+02 2.49824E+03 8.64611E+02 1.88498E+02-3.16384E-08-6.32864E-08
 -1        49 4.64604E+02 2.26990E+03 8.14086E+02 3.66382E+02-3.28069E-08-7.62106E-08
 -1        50 3.35595E+02 1.28966E+03 4.85219E+02 2.93617E+02-3.95106E-08-9.58323E-08
 -1        51-2.38244E+02-9.93078E+02-3.70461E+02 1.86191E+01 1.42594E-08-9.05569E-08
 -1        52-4.30637E+02-1.71620E+03-6.47170E+02-1.19318E+02 8.36363E-09-7.46274E-08
 -1        53-5.19750E+02-1.62198E+03-6.45648E+02-2.97490E+02 1.91431E-08-4.63147E-08
 -1        54-3.33424E+02-5.20976E+02-2.57537E+02-3.26151E+02 2.75343E-08 8.06239E-11
 -1        55 7.33293E+00 9.91457E+02 2.97568E+02-1.59850E+02 1.08724E-08 5.74298E-08
 -1        56 3.34367E+02 2.19481E+03 7.52893E+02 9.71860E+01-1.37828E-08 5.52163E-08
 -1        57 5.14113E+02 2.76611E+03 9.75327E+02 3.05070E+02-2.14319E-08-7.15082E-09
 -1        58 5.64818E+02 2.83502E+03 1.01068E+03 4.12174E+02-9.42806E-10-7.44986E-08
 -1        59 5.04360E+02 2.54271E+03 9.06184E+02 4.66266E+02 4.25710E-08-1.14347E-07
 -1        60 3.57004E+02 1.83537E+03 6.52685E+02 4.93952E+02 7.07655E-08-7.71760E-08
 -1        61 6.70591E+01 6.15508E+02 2.02989E+02 4.53337E+02 6.86435E-08-2.58114E-09
 -1        62-3.35086E+02-9.61103E+02-3.90306E+02 3.07281E+02 4.00628E-08 6.90161E-08
 -1        63-7.87957E+02-2.64429E+03-1.03597E+03 1.15276E+02 1.04733E-08 7.39888E-08
 -1        64-1.24524E+03-4.38824E+03-1.70735E+03-3.76787E+01-3.53685E-09 5.80572E-08
 -1        65-1.76201E+03-6.36064E+03-2.47457E+03-1.35158E+02 1.65306E-09 2.65945E-08
 -1        66-2.35007E+03-8.60585E+03-3.35839E+03-2.11458E+02 1.03590E-08 2.62961E-08
 -1        67-2.93057E+03-1.09518E+04-4.28290E+03-2.14481E+02 3.52150E-09 3.79891E-08
 -1        68-3.85878E+03-1.36065E+04-5.42590E+03-1.77701E+02-8.72933E-09 3.76897E-08
 -1        69-3.23210E+03-1.52709E+04-5.78481E+03 5.60142E+02-1.44321E-08 4.01704E-08
 -1        70-2.38244E+02-9.93078E+02-3.70461E+02 1.86191E+01 1.42594E-08-9.05530E-08
 -1        71-4.30637E+02-1.71620E+03-6.47170E+02-1.19318E+02 8.36362E-09-7.46284E-08
 -1        72-5.19750E+02-1.62198E+03-6.45648E+02-2.97490E+02 1.91432E-08-4.63139E-08
 -1        73-3.33424E+02-5.20976E+02-2.57537E+02-3.26151E+02 2.75333E-08 8.26249E-11
 -1        74 7.33293E+00 9.91457E+02 2.97568E+02-1.59850E+02 1.08729E-08 5.74231E-08
 -1        75 3.34367E+02 2.19481E+03 7.52893E+02 9.71860E+01-1.37828E-08 5.52158E-08
 -1        76 5.14113E+02 2.76611E+03 9.75327E+02 3.05070E+02-2.14320E-08-7.14944E-09
 -1        77 5.64818E+02 2.83502E+03 1.01068E+03 4.12174E+02-9.42997E-10-7.44915E-08
 -1        78 5.04360E+02 2.54271E+03 9.06184E+02 4.66266E+02 4.25718E-08-1.14349E-07
 -1        79 3.57004E+02 1.83537E+03 6.52685E+02 4.93952E+02 7.07653E-08-7.71692E-08
 -1        80 6.70591E+01 6.15508E+02 2.02989E+02 4.53337E+02 6.86443E-08-2.58344E-09
 -1        81-3.35086E+02-9.61103E+02-3.90306E+02 3.07281E+02 4.00628E-08 6.90164E-08
 -1        82-7.87957E+02-2.64429E+03-1.03597E+03 1.15276E+02 1.04733E-08 7.39888E-08
 -1        83-1.24524E+03-4.38824E+03-1.70735E+03-3.76787E+01-3.53685E-09 5.80558E-08
 -1        84-1.76201E+03-6.36064E+03-2.47457E+03-1.35158E+02 1.65353E-09 2.65953E-08
 -1        85-2.35007E+03-8.60585E+03-3.35839E+03-2.11458E+02 1.03583E-08 2.62943E-08
 -1        86-2.93057E+03-1.09518E+04-4.28290E+03-2.14481E+02 3.52176E-09 3.79893E-08
 -1        87-3.85878E+03-1.36065E+04-5.42590E+03-1.77701E+02-8.72935E-09 3.76896E-08
 -1        88-3.23210E+03-1.52709E+04-5.78481E+03 5.60142E+02-1.44321E-08 4.01704E-08
 -1        89-5.19337E+01 5.20999E+02 1.60454E+02 6.68262E+02-3.70705E-09 3.42369E-08
 -1        90 5.70719E+00 7.15791E+02 2.44976E+02 8.84097E+02-4.13848E-09 4.08837E-08
 -1        91 7.52935E+01 7.51055E+02 2.63559E+02 8.22447E+02 2.44129E-10 4.47311E-08
 -1        92 1.19441E+02 7.83779E+02 2.80516E+02 8.28299E+02 7.75671E-09 2.58237E-08
 -1        93 1.43020E+02 8.23413E+02 2.94807E+02 7.74743E+02 1.25402E-08 2.95943E-08
 -1        94 1.37577E+02 8.45551E+02 2.96422E+02 7.03291E+02 9.80345E-09 6.17424E-08
 -1        95 1.46275E+02 8.41799E+02 2.95728E+02 6.69405E+02 6.63634E-09 7.85537E-08
 -1        96 1.50593E+02 8.11127E+02 2.86804E+02 6.51229E+02 7.08830E-09 6.25617E-08
 -1        97 1.33456E+02 7.87071E+02 2.74346E+02 5.71891E+02 1.67849E-08-1.50164E-08
 -1        98 7.84161E+01 7.71049E+02 2.53460E+02 4.23520E+02 3.09307E-08-8.48466E-08
 -1        99 3.67549E+01 7.52234E+02 2.35934E+02 2.74396E+02 4.21429E-08-1.22021E-07
 -1       100 5.12436E+00 7.23094E+02 2.18103E+02 1.62039E+02 3.16925E-08-7.71572E-08
 -1       101-3.30157E+01 7.08552E+02 2.02250E+02 3.87649E+01 1.55296E-08-2.65471E-10
 -1       102-8.67264E+01 7.08746E+02 1.85845E+02-1.35555E+02 1.22354E-09 5.83946E-08
 -1       103-1.19799E+02 6.91943E+02 1.70704E+02-2.90688E+02-6.81001E-09 5.91479E-08
 -1       104-1.17877E+02 6.07909E+02 1.46243E+02-2.88186E+02-4.47392E-09-3.49810E-09
 -1       105-5.84017E+01 4.47651E+02 1.16253E+02-8.91638E+01-8.91593E-09-5.52917E-08
 -1       106 3.65302E+01 2.61257E+02 8.91202E+01 1.61501E+02-1.14926E-08-7.47410E-08
 -1       107 8.04983E+01 1.46065E+02 6.80946E+01 2.18651E+02-1.00003E-08-8.71655E-08
 -1       108 8.04983E+01 1.46065E+02 6.80946E+01 2.18651E+02-1.00007E-08-8.71571E-08
 -1       109 3.65302E+01 2.61257E+02 8.91202E+01 1.61501E+02-1.14925E-08-7.47422E-08
 -1       110-5.84017E+01 4.47651E+02 1.16253E+02-8.91638E+01-8.91603E-09-5.52932E-08
 -1       111-1.17877E+02 6.07909E+02 1.46243E+02-2.88186E+02-4.47389E-09-3.50300E-09
 -1       112-1.19799E+02 6.91943E+02 1.70704E+02-2.90688E+02-6.81032E-09 5.91528E-08
 -1       113-8.67264E+01 7.08746E+02 1.85845E+02-1.35555E+02 1.22354E-09 5.83958E-08
 -1       114-3.30157E+01 7.08552E+02 2.02250E+02 3.87649E+01 1.55298E-08-2.68285E-10
 -1       115 5.12436E+00 7.23094E+02 2.18103E+02 1.62039E+02 3.16925E-08-7.71547E-08
 -1       116 3.67549E+01 7.52234E+02 2.35934E+02 2.74396E+02 4.21428E-08-1.22024E-07
 -1       117 7.84161E+01 7.71049E+02 2.53460E+02 4.23520E+02 3.09309E-08-8.48474E-08
 -1       118 1.33456E+02 7.87071E+02 2.74346E+02 5.71891E+02 1.67848E-08-1.50153E-08
 -1       119 1.50593E+02 8.11127E+02 2.86804E+02 6.51229E+02 7.08826E-09 6.25621E-08
 -1       120 1.46275E+02 8.41799E+02 2.95728E+02 6.69405E+02 6.63640E-09 7.85506E-08
 -1       121 1.37577E+02 8.45551E+02 2.96422E+02 7.03291E+02 9.80337E-09 6.17408E-08
 -1       122 1.43020E+02 8.23413E+02 2.94807E+02 7.74743E+02 1.25400E-08 2.95951E-08
 -1       123 1.19441E+02 7.83779E+02 2.80516E+02 8.28299E+02 7.75679E-09 2.58240E-08
 -1       124 7.52935E+01 7.51055E+02 2.63559E+02 8.22447E+02 2.44028E-10 4.47312E-08
 -1       125 5.70719E+00 7.15791E+02 2.44976E+02 8.84097E+02-4.13846E-09 4.08835E-08
 -1       126-5.19337E+01 5.20999E+02 1.60454E+02 6.68262E+02-3.70706E-09 3.42369E-08
 -3
    1PSTEP                       191          48           1          
  100CL  148 4.80000E-01         126                     1   48           1
 -4  TOSTRAIN    6    1
 -5  EXX         1    4    1    1
 -5  EYY         1    4    2    2
 -5  EZZ         1    4    3    3
 -5  EXY         1    4    1    2
 -5  EYZ         1    4    2    3
 -5  EZX         1    4    3    1
 -1         1-1.21073E-04 3.90001E-02-3.26211E-27 1.60448E-02 4.96324E-20 2.66063E-16
 -1         2-1.21073E-04 3.90001E-02-3.26211E-27 1.60448E-02 4.96324E-20 2.66063E-16
 -1         3-2.77221E-04 1.52540E-03 3.64463E-25 3.18841E-04-1.85141E-13-3.89919E-13
 -1         4-2.77221E-04 1.52540E-03 3.64465E-25 3.18841E-04-1.85142E-13-3.89920E-13
 -1         5 1.29479E-04-9.38332E-04 3.98181E-25 2.57925E-04 4.33081E-14-4.51686E-13
 -1         6 1.29479E-04-9.38332E-04 3.98328E-25 2.57925E-04 4.32935E-14-4.51774E-13
 -1         7-1.15761E-04-3.41528E-02-6.43660E-27 1.39806E-02 3.87441E-19-4.72492E-16
 -1         8-1.15761E-04-3.41528E-02-6.43661E-27 1.39806E-02 3.87161E-19-4.72504E-16
 -1         9-7.38712E-05 3.69195E-04 3.96138E-25 4.50691E-04-8.11188E-14-4.45845E-13
 -1        10-7.38712E-05 3.69195E-04 3.96114E-25 4.50691E-04-8.11163E-14-4.45830E-13
 -1        11-1.18417E-04 1.58588E-03-4.11971E-27 1.03414E-02 2.36061E-19-3.91494E-17
 -1        12-1.18417E-04 1.58588E-03-4.11970E-27 1.03414E-02 2.36583E-19-3.91258E-17
 -1        13-1.07843E-02 3.73249E-02 1.78895E-26 3.80938E-03 1.80641E-14 9.72274E-14
 -1        14-7.79577E-03 3.28978E-02 2.54730E-26 1.68333E-03 1.23292E-14 1.12373E-13
 -1        15-6.86308E-03 2.76506E-02 4.35932E-26 1.87642E-03 5.02146E-15 1.47822E-13
 -1        16-5.64566E-03 2.26442E-02 1.79903E-26 1.78431E-03 2.31977E-14 9.45672E-14
 -1        17-4.56415E-03 1.78744E-02 3.62678E-26 1.62945E-03 7.22761E-14 1.17069E-13
 -1        18-3.67512E-03 1.36660E-02 7.38166E-26 1.40068E-03 8.00373E-14 1.76658E-13
 -1        19-2.80653E-03 9.86468E-03 9.67020E-26 1.28473E-03 3.21616E-14 2.19749E-13
 -1        20-1.96786E-03 6.14960E-03 5.75061E-26 1.24588E-03-5.29573E-14 1.85421E-13
 -1        21-1.15477E-03 2.65878E-03 1.06262E-26 1.06476E-03-1.13651E-13-7.64037E-14
 -1        22-5.69107E-04-6.75080E-05 1.34862E-25 6.89907E-04-7.12567E-14-2.65434E-13
 -1        23-1.36386E-04-1.74974E-03 2.95856E-25 3.25821E-04 5.34882E-14-3.87268E-13
 -1        24 7.58009E-05-2.56433E-03 1.61682E-25 8.39132E-05 1.64996E-13-2.47589E-13
 -1        25 1.23239E-04-2.61146E-03 3.85865E-26-1.92490E-04 1.65031E-13-4.00664E-14
 -1        26-8.87383E-05-1.58426E-03 5.75420E-26-6.26413E-04 9.20837E-14 1.60489E-13
 -1        27-5.10406E-04 6.94118E-04 6.48445E-26-1.00508E-03-2.24628E-14 1.95337E-13
 -1        28-1.12860E-03 3.49310E-03 1.04462E-26-9.64436E-04-1.12776E-13-3.54559E-14
 -1        29-1.52369E-03 5.28135E-03 9.90656E-26-4.32434E-04-1.31998E-13-1.87681E-13
 -1        30-1.37048E-03 4.90820E-03 1.42101E-25 2.22504E-04-1.43266E-13-2.27747E-13
 -1        31-7.10381E-04 2.81788E-03 2.20217E-25 4.11893E-04-1.76048E-13-2.86471E-13
 -1        32-1.07843E-02 3.73249E-02 1.78895E-26 3.80938E-03 1.80641E-14 9.72274E-14
 -1        33-7.79577E-03 3.28978E-02 2.54732E-26 1.68333E-03 1.23292E-14 1.12373E-13
 -1        34-6.86308E-03 2.76506E-02 4.35931E-26 1.87642E-03 5.02143E-15 1.47822E-13
 -1        35-5.64566E-03 2.26442E-02 1.79903E-26 1.78431E-03 2.31977E-14 9.45672E-14
 -1        36-4.56415E-03 1.78744E-02 3.62668E-26 1.62945E-03 7.22759E-14 1.17067E-13
 -1        37-3.67512E-03 1.36660E-02 7.38184E-26 1.40068E-03 8.00376E-14 1.76660E-13
 -1        38-2.80653E-03 9.86468E-03 9.67048E-26 1.28473E-03 3.21620E-14 2.19752E-13
 -1        39-1.96786E-03 6.14960E-03 5.75053E-26 1.24588E-03-5.29574E-14 1.85420E-13
 -1        40-1.15477E-03 2.65878E-03 1.06262E-26 1.06476E-03-1.13651E-13-7.64037E-14
 -1        41-5.69107E-04-6.75080E-05 1.34862E-25 6.89907E-04-7.12569E-14-2.65434E-13
 -1        42-1.36386E-04-1.74974E-03 2.95852E-25 3.25821E-04 5.34887E-14-3.87265E-13
 -1        43 7.58009E-05-2.56433E-03 1.61689E-25 8.39132E-05 1.64995E-13-2.47595E-13
 -1        44 1.23239E-04-2.61146E-03 3.85878E-26-1.92490E-04 1.65032E-13-4.00608E-14
 -1        45-8.87383E-05-1.58426E-03 5.75388E-26-6.26413E-04 9.20827E-14 1.60482E-13
 -1        46-5.10406E-04 6.94118E-04 6.48408E-26-1.00508E-03-2.24641E-14 1.95330E-13
 -1        47-1.12860E-03 3.49310E-03 1.04477E-26-9.64436E-04-1.12774E-13-3.54484E-14
 -1        48-1.52369E-03 5.28135E-03 9.90657E-26-4.32434E-04-1.31999E-13-1.87681E-13
 -1        49-1.37048E-03 4.90820E-03 1.42066E-25 2.22504E-04-1.43262E-13-2.27717E-13
 -1        50-7.10381E-04 2.81788E-03 2.20345E-25 4.11893E-04-1.76064E-13-2.86579E-13
 -1        51 3.45667E-04-1.94860E-03 1.70760E-25 4.47929E-04-1.54530E-15-2.98058E-13
 -1        52 7.11994E-04-3.51128E-03 1.15643E-25 2.80146E-04-1.13332E-14-2.43950E-13
 -1        53 6.06012E-04-3.39879E-03 4.45059E-26-3.84126E-04 3.87337E-14-1.58344E-13
 -1        54 4.55209E-05-1.15913E-03 2.28550E-27-9.23813E-04 8.86843E-14-1.28877E-14
 -1        55-7.26269E-04 2.01942E-03 6.43023E-26-9.59893E-04 6.23639E-14 1.79503E-13
 -1        56-1.32572E-03 4.59806E-03 6.01469E-26-5.88613E-04-1.72726E-14 1.84058E-13
 -1        57-1.63593E-03 5.87724E-03-9.89027E-27-1.65178E-04-7.18059E-14-1.22687E-14
 -1        58-1.69100E-03 6.08662E-03 9.92552E-26 1.18394E-04-4.09594E-14-2.38436E-13
 -1        59-1.62426E-03 5.56434E-03 3.05903E-25 3.69762E-04 7.56758E-14-3.89051E-13
 -1        60-1.35975E-03 4.19596E-03 2.12604E-25 7.26964E-04 1.84329E-13-2.85638E-13
 -1        61-8.81892E-04 1.76400E-03 6.90289E-26 1.09450E-03 2.18100E-13-4.58917E-14
 -1        62-2.09553E-04-1.47888E-03 1.18657E-25 1.27774E-03 1.65662E-13 1.99621E-13
 -1        63 5.16399E-04-4.99212E-03 1.15887E-25 1.31639E-03 7.23100E-14 2.32203E-13
 -1        64 1.27507E-03-8.63663E-03 6.83869E-26 1.42466E-03 1.70926E-14 1.88660E-13
 -1        65 2.09516E-03-1.27382E-02 1.27437E-26 1.65319E-03 1.74960E-14 8.50799E-14
 -1        66 3.04638E-03-1.74491E-02 1.66964E-26 1.81840E-03 4.47914E-14 8.09659E-14
 -1        67 4.12733E-03-2.24410E-02 2.99642E-26 1.93749E-03 2.41890E-14 1.22261E-13
 -1        68 4.79205E-03-2.79009E-02 3.13488E-26 1.74691E-03-2.04552E-14 1.25003E-13
 -1        69 7.86605E-03-3.25072E-02 3.53516E-26 3.48960E-03-4.43179E-14 1.32979E-13
 -1        70 3.45667E-04-1.94860E-03 1.70739E-25 4.47929E-04-1.54322E-15-2.98045E-13
 -1        71 7.11994E-04-3.51128E-03 1.15646E-25 2.80146E-04-1.13337E-14-2.43953E-13
 -1        72 6.06012E-04-3.39879E-03 4.45043E-26-3.84126E-04 3.87344E-14-1.58341E-13
 -1        73 4.55209E-05-1.15913E-03 2.28847E-27-9.23813E-04 8.86822E-14-1.28808E-14
 -1        74-7.26269E-04 2.01942E-03 6.42896E-26-9.59893E-04 6.23622E-14 1.79482E-13
 -1        75-1.32572E-03 4.59806E-03 6.01467E-26-5.88613E-04-1.72728E-14 1.84056E-13
 -1        76-1.63593E-03 5.87724E-03-9.88912E-27-1.65178E-04-7.18056E-14-1.22641E-14
 -1        77-1.69100E-03 6.08662E-03 9.92303E-26 1.18394E-04-4.09564E-14-2.38414E-13
 -1        78-1.62426E-03 5.56434E-03 3.05908E-25 3.69762E-04 7.56779E-14-3.89056E-13
 -1        79-1.35975E-03 4.19596E-03 2.12585E-25 7.26964E-04 1.84332E-13-2.85616E-13
 -1        80-8.81892E-04 1.76400E-03 6.90361E-26 1.09450E-03 2.18101E-13-4.58995E-14
 -1        81-2.09553E-04-1.47888E-03 1.18658E-25 1.27774E-03 1.65662E-13 1.99622E-13
 -1        82 5.16399E-04-4.99212E-03 1.15887E-25 1.31639E-03 7.23100E-14 2.32202E-13
 -1        83 1.27507E-03-8.63663E-03 6.83838E-26 1.42466E-03 1.70919E-14 1.88656E-13
 -1        84 2.09516E-03-1.27382E-02 1.27452E-26 1.65319E-03 1.74979E-14 8.50823E-14
 -1        85 3.04638E-03-1.74491E-02 1.66940E-26 1.81840E-03 4.47883E-14 8.09604E-14
 -1        86 4.12733E-03-2.24410E-02 2.99646E-26 1.93749E-03 2.41899E-14 1.22262E-13
 -1        87 4.79205E-03-2.79009E-02 3.13488E-26 1.74691E-03-2.04552E-14 1.25003E-13
 -1        88 7.86605E-03-3.25072E-02 3.53517E-26 3.48960E-03-4.43179E-14 1.32979E-13
 -1        89-1.45911E-03 2.03099E-03 2.25985E-26 2.08476E-03-8.07957E-15 1.11679E-13
 -1        90-1.50186E-03 2.44863E-03 3.55643E-26 2.66871E-03-4.10208E-15 1.33593E-13
 -1        91-1.36787E-03 2.43624E-03 4.14479E-26 2.39363E-03 1.48984E-14 1.44661E-13
 -1        92-1.29964E-03 2.46771E-03 1.44350E-26 2.34257E-03 3.50009E-14 8.02063E-14
 -1        93-1.23450E-03 2.48489E-03 1.94365E-26 2.10900E-03 5.33470E-14 8.95399E-14
 -1        94-1.20002E-03 2.47095E-03 7.97107E-26 1.82971E-03 6.13053E-14 1.93496E-13
 -1        95-1.14507E-03 2.42115E-03 1.30171E-25 1.69955E-03 6.16263E-14 2.48534E-13
 -1        96-1.08871E-03 2.33078E-03 6.86927E-26 1.64307E-03 5.59637E-14 1.96669E-13
 -1        97-1.01833E-03 2.20808E-03-1.80666E-26 1.39827E-03 4.55413E-14-5.73568E-14
 -1        98-9.64429E-04 2.06315E-03 1.56267E-25 9.28531E-04 5.34176E-14-2.88797E-13
 -1        99-8.80324E-04 1.90203E-03 3.47129E-25 4.69825E-04 7.06646E-14-4.13751E-13
 -1       100-8.07601E-04 1.75128E-03 1.29345E-25 1.35064E-04 6.19460E-14-2.63993E-13
 -1       101-7.56343E-04 1.63130E-03-1.69552E-26-2.45073E-04 4.96711E-14-8.58230E-15
 -1       102-7.07229E-04 1.51184E-03 6.49896E-26-8.00416E-04 3.23159E-14 1.87157E-13
 -1       103-6.18337E-04 1.35810E-03 6.76873E-26-1.28388E-03 6.49522E-15 1.93455E-13
 -1       104-5.41537E-04 1.17469E-03-1.43944E-26-1.23731E-03-1.60353E-14-9.13030E-15
 -1       105-4.58840E-04 9.60798E-04 5.84906E-26-5.21818E-04-5.59379E-14-1.73292E-13
 -1       106-3.29243E-04 7.13630E-04 1.18417E-25 3.85493E-04-7.49957E-14-2.33998E-13
 -1       107-1.82357E-04 4.76611E-04 1.54714E-25 6.39409E-04-7.75260E-14-2.74307E-13
 -1       108-1.82357E-04 4.76611E-04 1.54685E-25 6.39409E-04-7.75231E-14-2.74280E-13
 -1       109-3.29243E-04 7.13630E-04 1.18422E-25 3.85493E-04-7.49960E-14-2.34002E-13
 -1       110-4.58840E-04 9.60798E-04 5.84935E-26-5.21818E-04-5.59390E-14-1.73297E-13
 -1       111-5.41537E-04 1.17469E-03-1.43977E-26-1.23731E-03-1.60376E-14-9.14606E-15
 -1       112-6.18337E-04 1.35810E-03 6.76951E-26-1.28388E-03 6.49655E-15 1.93471E-13
 -1       113-7.07229E-04 1.51184E-03 6.49904E-26-8.00416E-04 3.23165E-14 1.87161E-13
 -1       114-7.56343E-04 1.63130E-03-1.69576E-26-2.45073E-04 4.96703E-14-8.59145E-15
 -1       115-8.07601E-04 1.75128E-03 1.29335E-25 1.35064E-04 6.19475E-14-2.63985E-13
 -1       116-8.80324E-04 1.90203E-03 3.47140E-25 4.69825E-04 7.06630E-14-4.13759E-13
 -1       117-9.64429E-04 2.06315E-03 1.56269E-25 9.28531E-04 5.34176E-14-2.88800E-13
 -1       118-1.01833E-03 2.20808E-03-1.80679E-26 1.39827E-03 4.55417E-14-5.73532E-14
 -1       119-1.08871E-03 2.33078E-03 6.86940E-26 1.64307E-03 5.59637E-14 1.96670E-13
 -1       120-1.14507E-03 2.42115E-03 1.30161E-25 1.69955E-03 6.16249E-14 2.48524E-13
 -1       121-1.20002E-03 2.47095E-03 7.97074E-26 1.82971E-03 6.13044E-14 1.93492E-13
 -1       122-1.23450E-03 2.48489E-03 1.94380E-26 2.10900E-03 5.33470E-14 8.95426E-14
 -1       123-1.29964E-03 2.46771E-03 1.44354E-26 2.34257E-03 3.50013E-14 8.02074E-14
 -1       124-1.36787E-03 2.43624E-03 4.14480E-26 2.39363E-03 1.48981E-14 1.44661E-13
 -1       125-1.50186E-03 2.44863E-03 3.55641E-26 2.66871E-03-4.10204E-15 1.33592E-13
 -1       126-1.45911E-03 2.03099E-03 2.25984E-26 2.08476E-03-8.07960E-15 1.11679E-13
 -3
    1PSTEP                       192          48           1          
  100CL  148 4.80000E-01         126                     1   48           1
 -4  ERROR       1    1
 -5  STR(%)      1    1    0    0
 -1         1 6.08970E+01
 -1         2 6.08970E+01
 -1         3 3.25926E+01
 -1         4 3.25926E+01
 -1         5 6.77962E+01
 -1         6 6.77962E+01
 -1         7 6.50575E+01
 -1         8 6.50575E+01
 -1         9 6.77962E+01
 -1        10 6.77962E+01
 -1        11 6.50575E+01
 -1        12 6.50575E+01
 -1        13 6.08970E+01
 -1        14 5.71850E+01
 -1        15 5.65866E+01
 -1        16 5.51870E+01
 -1        17 5.31049E+01
 -1        18 5.02857E+01
 -1        19 4.59316E+01
 -1        20 3.77820E+01
 -1        21 3.15621E+01
 -1        22 9.88875E+01
 -1        23 9.88875E+01
 -1        24 9.11040E+01
 -1        25 8.93458E+01
 -1        26 8.93458E+01
 -1        27 7.46606E+01
 -1        28 4.37779E+01
 -1        29 4.97175E+01
 -1        30 4.97175E+01
 -1        31 4.79306E+01
 -1        32 6.08970E+01
 -1        33 5.71850E+01
 -1        34 5.65866E+01
 -1        35 5.51870E+01
 -1        36 5.31049E+01
 -1        37 5.02857E+01
 -1        38 4.59316E+01
 -1        39 3.77820E+01
 -1        40 3.15621E+01
 -1        41 9.88875E+01
 -1        42 9.88875E+01
 -1        43 9.11040E+01
 -1        44 8.93458E+01
 -1        45 8.93458E+01
 -1        46 7.46606E+01
 -1        47 4.37779E+01
 -1        48 4.97175E+01
 -1        49 4.97175E+01
 -1        50 4.79306E+01
 -1        51 7.13642E+01
 -1        52 7.30492E+01
 -1        53 7.30492E+01
 -1        54 7.25294E+01
 -1        55 3.43403E+01
 -1        56 3.95595E+01
 -1        57 4.01402E+01
 -1        58 4.01402E+01
 -1        59 3.86295E+01
 -1        60 3.22271E+01
 -1        61 4.60887E+01
 -1        62 7.75901E+01
 -1        63 8.41171E+01
 -1        64 8.41171E+01
 -1        65 8.01318E+01
 -1        66 7.51375E+01
 -1        67 7.15795E+01
 -1        68 6.91352E+01
 -1        69 6.74927E+01
 -1        70 7.13642E+01
 -1        71 7.30492E+01
 -1        72 7.30492E+01
 -1        73 7.25294E+01
 -1        74 3.43403E+01
 -1        75 3.95595E+01
 -1        76 4.01402E+01
 -1        77 4.01402E+01
 -1        78 3.86295E+01
 -1        79 3.22271E+01
 -1        80 4.60887E+01
 -1        81 7.75901E+01
 -1        82 8.41171E+01
 -1        83 8.41171E+01
 -1        84 8.01318E+01
 -1        85 7.51375E+01
 -1        86 7.15795E+01
 -1        87 6.91352E+01
 -1        88 6.74927E+01
 -1        89 6.74927E+01
 -1        90 6.91352E+01
 -1        91 7.15795E+01
 -1        92 7.51375E+01
 -1        93 8.01318E+01
 -1        94 8.41171E+01
 -1        95 8.41171E+01
 -1        96 7.75901E+01
 -1        97 4.60887E+01
 -1        98 9.88875E+01
 -1        99 9.88875E+01
 -1       100 9.11040E+01
 -1       101 8.93458E+01
 -1       102 8.93458E+01
 -1       103 7.46606E+01
 -1       104 7.25294E+01
 -1       105 7.30492E+01
 -1       106 7.30492E+01
 -1       107 7.13642E+01
 -1       108 7.13642E+01
 -1       109 7.30492E+01
 -1       110 7.30492E+01
 -1       111 7.25294E+01
 -1       112 7.46606E+01
 -1       113 8.93458E+01
 -1       114 8.93458E+01
 -1       115 9.11040E+01
 -1       116 9.88875E+01
 -1       117 9.88875E+01
 -1       118 4.60887E+01
 -1       119 7.75901E+01
 -1       120 8.41171E+01
 -1       121 8.41171E+01
 -1       122 8.01318E+01
 -1       123 7.51375E+01
 -1       124 7.15795E+01
 -1       125 6.91352E+01
 -1       126 6.74927E+01
 -3
    1PSTEP                       193          49           1          
  100CL  149 4.90000E-01         126                     1   49           1
 -4  DISP        4    1
 -5  D1          1    2    1    0
 -5  D2          1    2    2    0
 -5  D3          1    2    3    0
 -5  ALL         1    2    0    0    1ALL
 -1         1 0.00000E+00 0.00000E+00 0.00000E+00
 -1         2 0.00000E+00 0.00000E+00 0.00000E+00
 -1         3 1.45135E-01-1.07939E-03 0.00000E+00
 -1         4 1.45135E-01-1.07939E-03 0.00000E+00
 -1         5 1.43723E-01-1.77797E-02 0.00000E+00
 -1         6 1.43723E-01-1.77797E-02 0.00000E+00
 -1         7 0.00000E+00 0.00000E+00 0.00000E+00
 -1         8 0.00000E+00 0.00000E+00 0.00000E+00
 -1         9 1.44423E-01-9.41996E-03 0.00000E+00
 -1        10 1.44423E-01-9.41996E-03 0.00000E+00
 -1        11 0.00000E+00 0.00000E+00 0.00000E+00
 -1        12 0.00000E+00 0.00000E+00 0.00000E+00
 -1        13 1.55556E-03 1.87614E-03 0.00000E+00
 -1        14 4.48489E-03 3.54475E-03 0.00000E+00
 -1        15 8.97244E-03 4.84159E-03 0.00000E+00
 -1        16 1.47036E-02 5.78930E-03 0.00000E+00
 -1        17 2.14548E-02 6.39376E-03 0.00000E+00
 -1        18 2.89993E-02 6.67753E-03 0.00000E+00
 -1        19 3.71154E-02 6.67799E-03 0.00000E+00
 -1        20 4.56309E-02 6.43521E-03 0.00000E+00
 -1        21 5.43894E-02 5.97853E-03 0.00000E+00
 -1        22 6.32197E-02 5.33507E-03 0.00000E+00
 -1        23 7.19324E-02 4.56169E-03 0.00000E+00
 -1        24 8.04103E-02 3.74075E-03 0.00000E+00
 -1        25 8.86297E-02 2.94766E-03 0.00000E+00
 -1        26 9.66406E-02 2.22513E-03 0.00000E+00
 -1        27 1.04513E-01 1.59503E-03 0.00000E+00
 -1        28 1.12355E-01 1.06152E-03 0.00000E+00
 -1        29 1.20300E-01 5.94083E-04 0.00000E+00
 -1        30 1.28444E-01 1.21360E-04 0.00000E+00
 -1        31 1.36763E-01-4.30815E-04 0.00000E+00
 -1        32 1.55556E-03 1.87614E-03 0.00000E+00
 -1        33 4.48489E-03 3.54475E-03 0.00000E+00
 -1        34 8.97244E-03 4.84159E-03 0.00000E+00
 -1        35 1.47036E-02 5.78930E-03 0.00000E+00
 -1        36 2.14548E-02 6.39376E-03 0.00000E+00
 -1        37 2.89993E-02 6.67753E-03 0.00000E+00
 -1        38 3.71154E-02 6.67799E-03 0.00000E+00
 -1        39 4.56309E-02 6.43521E-03 0.00000E+00
 -1        40 5.43894E-02 5.97853E-03 0.00000E+00
 -1        41 6.32197E-02 5.33507E-03 0.00000E+00
 -1        42 7.19324E-02 4.56169E-03 0.00000E+00
 -1        43 8.04103E-02 3.74075E-03 0.00000E+00
 -1        44 8.86297E-02 2.94766E-03 0.00000E+00
 -1        45 9.66406E-02 2.22513E-03 0.00000E+00
 -1        46 1.04513E-01 1.59503E-03 0.00000E+00
 -1        47 1.12355E-01 1.06152E-03 0.00000E+00
 -1        48 1.20300E-01 5.94083E-04 0.00000E+00
 -1        49 1.28444E-01 1.21360E-04 0.00000E+00
 -1        50 1.36763E-01-4.30815E-04 0.00000E+00
 -1        51 1.35354E-01-1.70473E-02 0.00000E+00
 -1        52 1.27059E-01-1.62697E-02 0.00000E+00
 -1        53 1.18954E-01-1.54993E-02 0.00000E+00
 -1        54 1.11033E-01-1.48107E-02 0.00000E+00
 -1        55 1.03187E-01-1.42388E-02 0.00000E+00
 -1        56 9.52815E-02-1.37674E-02 0.00000E+00
 -1        57 8.72122E-02-1.33564E-02 0.00000E+00
 -1        58 7.89173E-02-1.29614E-02 0.00000E+00
 -1        59 7.03666E-02-1.25243E-02 0.00000E+00
 -1        60 6.16049E-02-1.19784E-02 0.00000E+00
 -1        61 5.27775E-02-1.12854E-02 0.00000E+00
 -1        62 4.40797E-02-1.04536E-02 0.00000E+00
 -1        63 3.56769E-02-9.50989E-03 0.00000E+00
 -1        64 2.77192E-02-8.46797E-03 0.00000E+00
 -1        65 2.03806E-02-7.32917E-03 0.00000E+00
 -1        66 1.38633E-02-6.09648E-03 0.00000E+00
 -1        67 8.37256E-03-4.76888E-03 0.00000E+00
 -1        68 4.09830E-03-3.33185E-03 0.00000E+00
 -1        69 1.34366E-03-1.71194E-03 0.00000E+00
 -1        70 1.35354E-01-1.70473E-02 0.00000E+00
 -1        71 1.27059E-01-1.62697E-02 0.00000E+00
 -1        72 1.18954E-01-1.54993E-02 0.00000E+00
 -1        73 1.11033E-01-1.48107E-02 0.00000E+00
 -1        74 1.03187E-01-1.42388E-02 0.00000E+00
 -1        75 9.52815E-02-1.37674E-02 0.00000E+00
 -1        76 8.72122E-02-1.33564E-02 0.00000E+00
 -1        77 7.89173E-02-1.29614E-02 0.00000E+00
 -1        78 7.03666E-02-1.25243E-02 0.00000E+00
 -1        79 6.16049E-02-1.19784E-02 0.00000E+00
 -1        80 5.27775E-02-1.12854E-02 0.00000E+00
 -1        81 4.40797E-02-1.04536E-02 0.00000E+00
 -1        82 3.56769E-02-9.50989E-03 0.00000E+00
 -1        83 2.77192E-02-8.46797E-03 0.00000E+00
 -1        84 2.03806E-02-7.32917E-03 0.00000E+00
 -1        85 1.38633E-02-6.09648E-03 0.00000E+00
 -1        86 8.37256E-03-4.76888E-03 0.00000E+00
 -1        87 4.09830E-03-3.33185E-03 0.00000E+00
 -1        88 1.34366E-03-1.71194E-03 0.00000E+00
 -1        89 9.88916E-04 8.44378E-05 0.00000E+00
 -1        90 3.97931E-03 1.32278E-04 0.00000E+00
 -1        91 8.39837E-03 6.80548E-05 0.00000E+00
 -1        92 1.40605E-02-1.23234E-04 0.00000E+00
 -1        93 2.07400E-02-4.40533E-04 0.00000E+00
 -1        94 2.82233E-02-8.71801E-04 0.00000E+00
 -1        95 3.63005E-02-1.39774E-03 0.00000E+00
 -1        96 4.47948E-02-1.99715E-03 0.00000E+00
 -1        97 5.35582E-02-2.64758E-03 0.00000E+00
 -1        98 6.24193E-02-3.32114E-03 0.00000E+00
 -1        99 7.11822E-02-3.98506E-03 0.00000E+00
 -1       100 7.97055E-02-4.61533E-03 0.00000E+00
 -1       101 8.79579E-02-5.20830E-03 0.00000E+00
 -1       102 9.59835E-02-5.77288E-03 0.00000E+00
 -1       103 1.03854E-01-6.32042E-03 0.00000E+00
 -1       104 1.11677E-01-6.86908E-03 0.00000E+00
 -1       105 1.19595E-01-7.44442E-03 0.00000E+00
 -1       106 1.27719E-01-8.06554E-03 0.00000E+00
 -1       107 1.36042E-01-8.73197E-03 0.00000E+00
 -1       108 1.36042E-01-8.73197E-03 0.00000E+00
 -1       109 1.27719E-01-8.06554E-03 0.00000E+00
 -1       110 1.19595E-01-7.44442E-03 0.00000E+00
 -1       111 1.11677E-01-6.86908E-03 0.00000E+00
 -1       112 1.03854E-01-6.32042E-03 0.00000E+00
 -1       113 9.59835E-02-5.77288E-03 0.00000E+00
 -1       114 8.79579E-02-5.20830E-03 0.00000E+00
 -1       115 7.97055E-02-4.61533E-03 0.00000E+00
 -1       116 7.11822E-02-3.98506E-03 0.00000E+00
 -1       117 6.24193E-02-3.32114E-03 0.00000E+00
 -1       118 5.35582E-02-2.64758E-03 0.00000E+00
 -1       119 4.47948E-02-1.99715E-03 0.00000E+00
 -1       120 3.63005E-02-1.39774E-03 0.00000E+00
 -1       121 2.82233E-02-8.71801E-04 0.00000E+00
 -1       122 2.07400E-02-4.40533E-04 0.00000E+00
 -1       123 1.40605E-02-1.23234E-04 0.00000E+00
 -1       124 8.39837E-03 6.80548E-05 0.00000E+00
 -1       125 3.97931E-03 1.32278E-04 0.00000E+00
 -1       126 9.88916E-04 8.44378E-05 0.00000E+00
 -3
    1PSTEP                       194          49           1          
  100CL  149 4.90000E-01         126                     1   49           1
 -4  STRESS      6    1
 -5  SXX         1    4    1    1
 -5  SYY         1    4    2    2
 -5  SZZ         1    4    3    3
 -5  SXY         1    4    1    2
 -5  SYZ         1    4    2    3
 -5  SZX         1    4    3    1
 -1         1 8.85724E+03 2.13478E+04 8.60862E+03 5.35959E+03-2.99823E-11-1.07373E-11
 -1         2 8.85724E+03 2.13478E+04 8.60862E+03 5.35959E+03-2.99823E-11-1.07373E-11
 -1         3 1.70409E+02 5.24538E+02 2.08157E+02 1.28023E+02-7.31596E-08-2.51177E-07
 -1         4 1.70409E+02 5.24538E+02 2.08157E+02 1.28023E+02-7.31596E-08-2.51175E-07
 -1         5-7.45501E+01-2.79766E+02-1.06327E+02 1.28365E+01 1.13928E-07-2.08759E-07
 -1         6-7.45501E+01-2.79766E+02-1.06327E+02 1.28365E+01 1.13925E-07-2.08754E-07
 -1         7-7.78181E+03-1.75688E+04-7.95374E+03 3.69687E+03-7.11427E-11 1.07212E-10
 -1         8-7.78181E+03-1.75688E+04-7.95374E+03 3.69687E+03-7.11389E-11 1.07212E-10
 -1         9 7.89278E+01 1.56740E+02 7.06724E+01 1.04609E+02 1.63000E-08-2.20123E-07
 -1        10 7.89278E+01 1.56740E+02 7.06724E+01 1.04609E+02 1.63005E-08-2.20128E-07
 -1        11 5.03579E+02 7.49926E+02 4.34353E+02 3.04777E+03-3.12459E-11 3.73733E-11
 -1        12 5.03579E+02 7.49926E+02 4.34353E+02 3.04777E+03-3.12531E-11 3.73734E-11
 -1        13 2.87110E+03 1.80424E+04 5.97493E+03 1.75886E+03 2.56637E-09-5.34562E-09
 -1        14 3.50192E+03 1.62957E+04 5.68478E+03 1.41409E+03 1.27192E-08-1.91537E-08
 -1        15 2.92287E+03 1.36225E+04 4.78011E+03 1.61184E+03 3.20278E-08-6.45375E-09
 -1        16 2.51566E+03 1.13025E+04 4.01459E+03 1.59150E+03 4.44393E-08 3.19344E-08
 -1        17 2.06192E+03 9.09655E+03 3.25910E+03 1.49845E+03 3.73206E-08 9.99632E-08
 -1        18 1.59099E+03 7.06003E+03 2.53950E+03 1.32049E+03 1.90663E-08 1.51207E-07
 -1        19 1.19000E+03 5.24780E+03 1.89863E+03 1.09896E+03-1.46959E-08 1.86650E-07
 -1        20 7.77487E+02 3.55534E+03 1.28306E+03 8.87326E+02-4.72770E-08 1.64285E-07
 -1        21 3.62224E+02 1.90075E+03 6.72460E+02 6.65814E+02-7.17431E-08 1.15018E-07
 -1        22-5.13581E+01 3.83644E+02 9.82739E+01 4.00063E+02-7.84306E-08 3.02512E-08
 -1        23-3.38962E+02-6.75980E+02-3.05027E+02 1.22397E+02-5.55005E-08-5.75486E-08
 -1        24-5.01938E+02-1.11384E+03-4.85670E+02-7.52343E+01-1.36233E-08-1.16701E-07
 -1        25-4.94216E+02-9.75297E+02-4.41591E+02-1.66838E+02 2.01585E-08-1.23335E-07
 -1        26-3.85755E+02-4.47273E+02-2.50236E+02-1.81277E+02 2.72049E-08-9.99523E-08
 -1        27-1.69054E+02 3.51655E+02 5.42464E+01-1.40176E+02 2.24673E-08-9.69411E-08
 -1        28 6.52138E+01 1.18370E+03 3.72748E+02-2.47668E+01 1.14001E-08-7.87913E-08
 -1        29 2.52093E+02 1.68283E+03 5.77093E+02 1.35124E+02-9.14577E-09-5.26382E-08
 -1        30 2.86696E+02 1.53954E+03 5.44931E+02 2.43787E+02-3.86883E-08-8.34991E-08
 -1        31 2.10255E+02 9.04331E+02 3.33197E+02 1.98147E+02-6.85858E-08-1.55231E-07
 -1        32 2.87110E+03 1.80424E+04 5.97493E+03 1.75886E+03 2.56637E-09-5.34562E-09
 -1        33 3.50192E+03 1.62957E+04 5.68478E+03 1.41409E+03 1.27192E-08-1.91537E-08
 -1        34 2.92287E+03 1.36225E+04 4.78011E+03 1.61184E+03 3.20278E-08-6.45375E-09
 -1        35 2.51566E+03 1.13025E+04 4.01459E+03 1.59150E+03 4.44393E-08 3.19344E-08
 -1        36 2.06192E+03 9.09655E+03 3.25910E+03 1.49845E+03 3.73206E-08 9.99632E-08
 -1        37 1.59099E+03 7.06003E+03 2.53950E+03 1.32049E+03 1.90662E-08 1.51206E-07
 -1        38 1.19000E+03 5.24780E+03 1.89863E+03 1.09896E+03-1.46958E-08 1.86650E-07
 -1        39 7.77487E+02 3.55534E+03 1.28306E+03 8.87326E+02-4.72771E-08 1.64285E-07
 -1        40 3.62224E+02 1.90075E+03 6.72460E+02 6.65814E+02-7.17432E-08 1.15018E-07
 -1        41-5.13581E+01 3.83644E+02 9.82739E+01 4.00063E+02-7.84306E-08 3.02512E-08
 -1        42-3.38962E+02-6.75980E+02-3.05027E+02 1.22397E+02-5.55005E-08-5.75495E-08
 -1        43-5.01938E+02-1.11384E+03-4.85670E+02-7.52343E+01-1.36233E-08-1.16703E-07
 -1        44-4.94216E+02-9.75297E+02-4.41591E+02-1.66838E+02 2.01586E-08-1.23333E-07
 -1        45-3.85755E+02-4.47273E+02-2.50236E+02-1.81277E+02 2.72047E-08-9.99510E-08
 -1        46-1.69054E+02 3.51655E+02 5.42464E+01-1.40176E+02 2.24673E-08-9.69397E-08
 -1        47 6.52138E+01 1.18370E+03 3.72748E+02-2.47668E+01 1.14001E-08-7.87917E-08
 -1        48 2.52093E+02 1.68283E+03 5.77093E+02 1.35124E+02-9.14572E-09-5.26382E-08
 -1        49 2.86696E+02 1.53954E+03 5.44931E+02 2.43787E+02-3.86886E-08-8.35028E-08
 -1        50 2.10255E+02 9.04331E+02 3.33197E+02 1.98147E+02-6.85858E-08-1.55221E-07
 -1        51-1.50512E+02-5.72376E+02-2.17180E+02 1.61137E+01 9.01220E-08-1.08763E-07
 -1        52-2.53076E+02-9.41687E+02-3.59321E+02-7.09203E+01 4.63645E-08-4.30379E-08
 -1        53-2.93208E+02-7.87366E+02-3.24925E+02-1.70104E+02 1.34747E-08-7.03848E-08
 -1        54-1.80274E+02-3.74646E+01-6.57042E+01-1.69824E+02-7.97278E-09-7.13575E-08
 -1        55 3.84786E+01 9.70305E+02 3.01102E+02-5.88412E+01-9.48474E-09-9.24206E-08
 -1        56 2.85842E+02 1.88916E+03 6.48162E+02 1.07733E+02-5.53729E-10-1.07569E-07
 -1        57 4.49841E+02 2.51690E+03 8.82641E+02 2.78281E+02 2.19501E-08-1.16230E-07
 -1        58 5.21953E+02 2.72406E+03 9.64901E+02 4.28917E+02 5.84878E-08-1.04586E-07
 -1        59 4.65757E+02 2.32583E+03 8.30179E+02 5.30532E+02 8.04357E-08-3.69960E-08
 -1        60 2.48693E+02 1.29053E+03 4.58317E+02 5.23108E+02 7.04335E-08 6.33247E-08
 -1        61-1.19811E+02-1.42567E+02-7.97107E+01 3.88269E+02 3.99352E-08 1.41413E-07
 -1        62-5.32583E+02-1.67337E+03-6.64367E+02 1.93269E+02 6.78418E-09 1.73475E-07
 -1        63-9.67972E+02-3.25558E+03-1.27625E+03 2.09955E+01-2.88428E-08 1.77129E-07
 -1        64-1.42233E+03-4.97719E+03-1.94228E+03-1.15475E+02-5.28216E-08 1.39135E-07
 -1        65-1.91703E+03-6.86708E+03-2.67953E+03-2.26736E+02-5.77560E-08 9.23336E-08
 -1        66-2.44431E+03-8.87526E+03-3.47166E+03-2.96630E+02-4.45955E-08 3.72291E-08
 -1        67-2.95888E+03-1.09659E+04-4.29485E+03-2.56616E+02-1.60698E-08-1.46566E-08
 -1        68-3.83765E+03-1.34675E+04-5.37310E+03-1.89913E+02 7.34760E-09-1.36724E-08
 -1        69-3.21035E+03-1.50199E+04-5.69432E+03 5.14714E+02 1.15476E-08-9.43342E-09
 -1        70-1.50512E+02-5.72376E+02-2.17180E+02 1.61137E+01 9.01191E-08-1.08778E-07
 -1        71-2.53076E+02-9.41687E+02-3.59321E+02-7.09203E+01 4.63651E-08-4.30332E-08
 -1        72-2.93208E+02-7.87366E+02-3.24925E+02-1.70104E+02 1.34747E-08-7.03838E-08
 -1        73-1.80274E+02-3.74646E+01-6.57042E+01-1.69824E+02-7.97301E-09-7.13628E-08
 -1        74 3.84786E+01 9.70305E+02 3.01102E+02-5.88412E+01-9.48398E-09-9.24256E-08
 -1        75 2.85842E+02 1.88916E+03 6.48162E+02 1.07733E+02-5.53789E-10-1.07571E-07
 -1        76 4.49841E+02 2.51690E+03 8.82641E+02 2.78281E+02 2.19503E-08-1.16230E-07
 -1        77 5.21953E+02 2.72406E+03 9.64901E+02 4.28917E+02 5.84887E-08-1.04578E-07
 -1        78 4.65757E+02 2.32583E+03 8.30179E+02 5.30532E+02 8.04356E-08-3.69996E-08
 -1        79 2.48693E+02 1.29053E+03 4.58317E+02 5.23108E+02 7.04324E-08 6.33228E-08
 -1        80-1.19811E+02-1.42567E+02-7.97107E+01 3.88269E+02 3.99364E-08 1.41420E-07
 -1        81-5.32583E+02-1.67337E+03-6.64367E+02 1.93269E+02 6.78413E-09 1.73478E-07
 -1        82-9.67972E+02-3.25558E+03-1.27625E+03 2.09955E+01-2.88426E-08 1.77127E-07
 -1        83-1.42233E+03-4.97719E+03-1.94228E+03-1.15475E+02-5.28215E-08 1.39135E-07
 -1        84-1.91703E+03-6.86708E+03-2.67953E+03-2.26736E+02-5.77567E-08 9.23339E-08
 -1        85-2.44431E+03-8.87526E+03-3.47166E+03-2.96630E+02-4.45962E-08 3.72295E-08
 -1        86-2.95888E+03-1.09659E+04-4.29485E+03-2.56616E+02-1.60697E-08-1.46566E-08
 -1        87-3.83765E+03-1.34675E+04-5.37310E+03-1.89913E+02 7.34757E-09-1.36724E-08
 -1        88-3.21035E+03-1.50199E+04-5.69432E+03 5.14714E+02 1.15476E-08-9.43342E-09
 -1        89-5.89520E+01 6.11802E+02 1.84543E+02 6.11243E+02 7.04803E-09-5.08588E-09
 -1        90 6.19317E+00 7.98759E+02 2.69736E+02 8.44903E+02 7.20807E-09-2.16243E-08
 -1        91 6.90001E+01 8.20465E+02 2.83438E+02 7.59724E+02 6.73646E-09-1.58989E-08
 -1        92 1.05726E+02 8.42848E+02 2.95159E+02 7.47594E+02-1.63525E-09 3.17064E-08
 -1        93 1.32422E+02 8.70319E+02 3.06523E+02 7.33259E+02-1.51377E-08 9.56826E-08
 -1        94 1.37661E+02 8.87500E+02 3.09862E+02 7.03695E+02-2.05683E-08 1.49025E-07
 -1        95 1.54967E+02 8.95821E+02 3.15307E+02 6.60374E+02-2.27767E-08 1.88385E-07
 -1        96 1.61178E+02 8.76154E+02 3.09790E+02 6.39459E+02-1.89954E-08 1.76678E-07
 -1        97 1.59976E+02 8.39808E+02 2.97946E+02 6.25645E+02-1.48646E-08 1.33020E-07
 -1        98 1.32481E+02 8.07667E+02 2.80227E+02 5.46828E+02-5.72003E-09 4.73415E-08
 -1        99 8.37389E+01 8.00873E+02 2.64075E+02 3.75996E+02 1.11188E-08-5.26810E-08
 -1       100 1.41152E+01 7.92634E+02 2.41233E+02 1.80711E+02 2.53934E-08-1.18329E-07
 -1       101-3.10328E+01 7.69940E+02 2.21089E+02 2.52223E+01 2.17366E-08-1.27826E-07
 -1       102-6.48684E+01 7.32818E+02 1.99721E+02-8.55702E+01 1.33181E-08-1.05297E-07
 -1       103-8.16223E+01 6.84530E+02 1.80147E+02-1.57686E+02 1.00708E-08-9.56580E-08
 -1       104-7.30733E+01 5.93557E+02 1.55572E+02-1.51885E+02 1.53695E-09-7.13456E-08
 -1       105-2.68131E+01 4.52657E+02 1.27385E+02-4.19737E+01 6.01708E-09-5.75788E-08
 -1       106 2.81480E+01 2.92978E+02 9.61404E+01 1.08183E+02 7.23597E-09-5.69916E-08
 -1       107 5.61668E+01 1.78801E+02 7.04962E+01 1.47621E+02 6.60504E-09-1.27175E-07
 -1       108 5.61668E+01 1.78801E+02 7.04962E+01 1.47621E+02 6.60522E-09-1.27159E-07
 -1       109 2.81480E+01 2.92978E+02 9.61404E+01 1.08183E+02 7.23555E-09-5.69998E-08
 -1       110-2.68131E+01 4.52657E+02 1.27385E+02-4.19737E+01 6.01719E-09-5.75806E-08
 -1       111-7.30733E+01 5.93557E+02 1.55572E+02-1.51885E+02 1.53698E-09-7.13438E-08
 -1       112-8.16223E+01 6.84530E+02 1.80147E+02-1.57686E+02 1.00709E-08-9.56599E-08
 -1       113-6.48684E+01 7.32818E+02 1.99721E+02-8.55702E+01 1.33180E-08-1.05294E-07
 -1       114-3.10328E+01 7.69940E+02 2.21089E+02 2.52223E+01 2.17363E-08-1.27826E-07
 -1       115 1.41152E+01 7.92634E+02 2.41233E+02 1.80711E+02 2.53933E-08-1.18326E-07
 -1       116 8.37389E+01 8.00873E+02 2.64075E+02 3.75996E+02 1.11186E-08-5.26786E-08
 -1       117 1.32481E+02 8.07667E+02 2.80227E+02 5.46828E+02-5.71984E-09 4.73417E-08
 -1       118 1.59976E+02 8.39808E+02 2.97946E+02 6.25645E+02-1.48649E-08 1.33019E-07
 -1       119 1.61178E+02 8.76154E+02 3.09790E+02 6.39459E+02-1.89953E-08 1.76678E-07
 -1       120 1.54967E+02 8.95821E+02 3.15307E+02 6.60374E+02-2.27767E-08 1.88387E-07
 -1       121 1.37661E+02 8.87500E+02 3.09862E+02 7.03695E+02-2.05684E-08 1.49025E-07
 -1       122 1.32422E+02 8.70319E+02 3.06523E+02 7.33259E+02-1.51377E-08 9.56825E-08
 -1       123 1.05726E+02 8.42848E+02 2.95159E+02 7.47594E+02-1.63514E-09 3.17066E-08
 -1       124 6.90001E+01 8.20465E+02 2.83438E+02 7.59724E+02 6.73642E-09-1.58989E-08
 -1       125 6.19317E+00 7.98759E+02 2.69736E+02 8.44903E+02 7.20812E-09-2.16243E-08
 -1       126-5.89520E+01 6.11802E+02 1.84543E+02 6.11243E+02 7.04804E-09-5.08587E-09
 -3
    1PSTEP                       195          49           1          
  100CL  149 4.90000E-01         126                     1   49           1
 -4  TOSTRAIN    6    1
 -5  EXX         1    4    1    1
 -5  EYY         1    4    2    2
 -5  EZZ         1    4    3    3
 -5  EXY         1    4    1    2
 -5  EYZ         1    4    2    3
 -5  EZX         1    4    3    1
 -1         1-1.17525E-04 3.85920E-02-1.11786E-28 1.55554E-02-2.15416E-19 1.36510E-17
 -1         2-1.17525E-04 3.85920E-02-1.11786E-28 1.55554E-02-2.15416E-19 1.36510E-17
 -1         3-2.27642E-04 1.13036E-03 1.37990E-24 2.02697E-04-3.70076E-13-7.64900E-13
 -1         4-2.27642E-04 1.13036E-03 1.37989E-24 2.02697E-04-3.70074E-13-7.64894E-13
 -1         5 7.08018E-05-5.31481E-04 1.12467E-24 1.49631E-04 2.51795E-13-7.31008E-13
 -1         6 7.08018E-05-5.31481E-04 1.12463E-24 1.49631E-04 2.51790E-13-7.30989E-13
 -1         7-1.11888E-04-3.34027E-02-8.37982E-28 1.34364E-02-4.65540E-19 2.80302E-16
 -1         8-1.11888E-04-3.34027E-02-8.37981E-28 1.34364E-02-4.53035E-19 2.80302E-16
 -1         9-7.84199E-05 3.84658E-04 9.65749E-25 2.79024E-04-6.72395E-14-7.14113E-13
 -1        10-7.84199E-05 3.84658E-04 9.65779E-25 2.79024E-04-6.72405E-14-7.14128E-13
 -1        11-1.14706E-04 1.77095E-03-2.46098E-28 9.88899E-03-3.55697E-19 1.31005E-16
 -1        12-1.14706E-04 1.77095E-03-2.46100E-28 9.88899E-03-3.79031E-19 1.31005E-16
 -1        13-1.07291E-02 3.70744E-02 1.38267E-28 3.61810E-03 7.39461E-15-1.76420E-14
 -1        14-7.80600E-03 3.28975E-02 9.64337E-27 1.57264E-03 3.55646E-14-6.46600E-14
 -1        15-6.91048E-03 2.79487E-02 1.47310E-26 1.70016E-03 9.81325E-14-3.10147E-14
 -1        16-5.82452E-03 2.34539E-02 4.07544E-26 1.56562E-03 1.51182E-13 8.50733E-14
 -1        17-4.87396E-03 1.91533E-02 2.13599E-25 1.50656E-03 1.60785E-13 3.03837E-13
 -1        18-4.01384E-03 1.51159E-02 4.75014E-25 1.38013E-03 1.33130E-13 4.75119E-13
 -1        19-3.12983E-03 1.14141E-02 7.36581E-25 1.24066E-03 5.03656E-14 6.05497E-13
 -1        20-2.36349E-03 7.95156E-03 6.09683E-25 1.19151E-03-6.05830E-14 5.52061E-13
 -1        21-1.60455E-03 4.52862E-03 3.59560E-25 1.17001E-03-1.64132E-13 4.08887E-13
 -1        22-8.93465E-04 1.32115E-03 1.02537E-25 9.75531E-04-2.33641E-13 1.41531E-13
 -1        23-2.82784E-04-1.03825E-03 9.58793E-26 5.58609E-04-2.10013E-13-1.53366E-13
 -1        24-3.46186E-05-2.06815E-03 2.76158E-25 9.70992E-05-1.07334E-13-3.66931E-13
 -1        25-4.31122E-05-1.86887E-03 3.27830E-25-2.62322E-04-7.44738E-16-4.06567E-13
 -1        26-2.63119E-04-8.20650E-04 2.25266E-25-5.27626E-04 3.53406E-14-3.35040E-13
 -1        27-5.43369E-04 7.79067E-04 2.08148E-25-6.95442E-04 2.21674E-14-3.22753E-13
 -1        28-8.85925E-04 2.50400E-03 1.31130E-25-6.42546E-04-4.06717E-15-2.58736E-13
 -1        29-1.08054E-03 3.58643E-03 5.51150E-26-3.19580E-04-5.66228E-14-1.64063E-13
 -1        30-9.90335E-04 3.35633E-03 1.55465E-25 9.17143E-05-1.67803E-13-2.47030E-13
 -1        31-5.49093E-04 1.99529E-03 5.57623E-25 2.38129E-04-3.02831E-13-4.60251E-13
 -1        32-1.07291E-02 3.70744E-02 1.38267E-28 3.61810E-03 7.39461E-15-1.76420E-14
 -1        33-7.80600E-03 3.28975E-02 9.64337E-27 1.57264E-03 3.55646E-14-6.46600E-14
 -1        34-6.91048E-03 2.79487E-02 1.47310E-26 1.70016E-03 9.81325E-14-3.10147E-14
 -1        35-5.82452E-03 2.34539E-02 4.07544E-26 1.56562E-03 1.51182E-13 8.50733E-14
 -1        36-4.87396E-03 1.91533E-02 2.13599E-25 1.50656E-03 1.60785E-13 3.03837E-13
 -1        37-4.01384E-03 1.51159E-02 4.75008E-25 1.38013E-03 1.33130E-13 4.75116E-13
 -1        38-3.12983E-03 1.14141E-02 7.36583E-25 1.24066E-03 5.03659E-14 6.05497E-13
 -1        39-2.36349E-03 7.95156E-03 6.09683E-25 1.19151E-03-6.05832E-14 5.52061E-13
 -1        40-1.60455E-03 4.52862E-03 3.59560E-25 1.17001E-03-1.64132E-13 4.08887E-13
 -1        41-8.93465E-04 1.32115E-03 1.02537E-25 9.75531E-04-2.33641E-13 1.41531E-13
 -1        42-2.82784E-04-1.03825E-03 9.58811E-26 5.58609E-04-2.10014E-13-1.53369E-13
 -1        43-3.46186E-05-2.06815E-03 2.76168E-25 9.70992E-05-1.07335E-13-3.66937E-13
 -1        44-4.31123E-05-1.86887E-03 3.27823E-25-2.62322E-04-7.43836E-16-4.06562E-13
 -1        45-2.63119E-04-8.20650E-04 2.25261E-25-5.27626E-04 3.53406E-14-3.35036E-13
 -1        46-5.43369E-04 7.79067E-04 2.08143E-25-6.95442E-04 2.21681E-14-3.22749E-13
 -1        47-8.85925E-04 2.50400E-03 1.31131E-25-6.42546E-04-4.06736E-15-2.58737E-13
 -1        48-1.08054E-03 3.58643E-03 5.51150E-26-3.19580E-04-5.66226E-14-1.64063E-13
 -1        49-9.90335E-04 3.35633E-03 1.55486E-25 9.17143E-05-1.67806E-13-2.47042E-13
 -1        50-5.49093E-04 1.99529E-03 5.57569E-25 2.38129E-04-3.02825E-13-4.60219E-13
 -1        51 1.60884E-04-1.10130E-03 3.67707E-25 2.74762E-04 2.30363E-13-3.97511E-13
 -1        52 3.56105E-04-1.91187E-03 6.55877E-26 1.44143E-04 1.25979E-13-1.62798E-13
 -1        53 2.33207E-04-1.64015E-03 1.04372E-25-2.68956E-04 6.36790E-15-2.32911E-13
 -1        54-1.89753E-04-9.42809E-05 1.07407E-25-5.95886E-04-6.24287E-14-2.24998E-13
 -1        55-7.19926E-04 2.02731E-03 1.80087E-25-6.52256E-04-7.78340E-14-2.91801E-13
 -1        56-1.15888E-03 3.97510E-03 2.42832E-25-4.86979E-04-5.74407E-14-3.44765E-13
 -1        57-1.52559E-03 5.36302E-03 2.92675E-25-2.23288E-04 8.67638E-15-3.84142E-13
 -1        58-1.70808E-03 5.90411E-03 2.88256E-25 1.33806E-04 1.29583E-13-3.66765E-13
 -1        59-1.59736E-03 5.20646E-03 1.19845E-25 5.97398E-04 2.35403E-13-1.63410E-13
 -1        60-1.16633E-03 3.15757E-03 1.35900E-25 1.01233E-03 2.60048E-13 1.62524E-13
 -1        61-5.69532E-04 2.25481E-04 4.28714E-25 1.19708E-03 2.07216E-13 4.30073E-13
 -1        62 9.99704E-05-2.97349E-03 6.29237E-25 1.21711E-03 1.17529E-13 5.52402E-13
 -1        63 7.61622E-04-6.27215E-03 6.75717E-25 1.27151E-03 7.91051E-16 5.84402E-13
 -1        64 1.49532E-03-9.86406E-03 4.59167E-25 1.40530E-03-1.02504E-13 4.74511E-13
 -1        65 2.30487E-03-1.38230E-02 2.38327E-25 1.52878E-03-1.47519E-13 3.24508E-13
 -1        66 3.16333E-03-1.80484E-02 5.57807E-26 1.60016E-03-1.32869E-13 1.38281E-13
 -1        67 4.10920E-03-2.24751E-02 1.50861E-27 1.76748E-03-5.83350E-14-4.23973E-14
 -1        68 4.70344E-03-2.75932E-02 4.08209E-27 1.64573E-03 2.16546E-14-4.63731E-14
 -1        69 7.66198E-03-3.19261E-02 4.59221E-27 3.27149E-03 3.81766E-14-3.23180E-14
 -1        70 1.60884E-04-1.10130E-03 3.67777E-25 2.74762E-04 2.30346E-13-3.97557E-13
 -1        71 3.56105E-04-1.91187E-03 6.55738E-26 1.44143E-04 1.25984E-13-1.62783E-13
 -1        72 2.33207E-04-1.64015E-03 1.04370E-25-2.68956E-04 6.36818E-15-2.32908E-13
 -1        73-1.89753E-04-9.42809E-05 1.07423E-25-5.95886E-04-6.24321E-14-2.25015E-13
 -1        74-7.19926E-04 2.02731E-03 1.80107E-25-6.52256E-04-7.78342E-14-2.91818E-13
 -1        75-1.15888E-03 3.97510E-03 2.42840E-25-4.86979E-04-5.74418E-14-3.44770E-13
 -1        76-1.52559E-03 5.36302E-03 2.92677E-25-2.23288E-04 8.67676E-15-3.84143E-13
 -1        77-1.70808E-03 5.90411E-03 2.88229E-25 1.33806E-04 1.29590E-13-3.66741E-13
 -1        78-1.59736E-03 5.20646E-03 1.19856E-25 5.97398E-04 2.35400E-13-1.63421E-13
 -1        79-1.16633E-03 3.15757E-03 1.35889E-25 1.01233E-03 2.60044E-13 1.62518E-13
 -1        80-5.69532E-04 2.25481E-04 4.28751E-25 1.19708E-03 2.07224E-13 4.30094E-13
 -1        81 9.99704E-05-2.97349E-03 6.29263E-25 1.21711E-03 1.17531E-13 5.52413E-13
 -1        82 7.61622E-04-6.27215E-03 6.75701E-25 1.27151E-03 7.90561E-16 5.84395E-13
 -1        83 1.49532E-03-9.86406E-03 4.59167E-25 1.40530E-03-1.02503E-13 4.74511E-13
 -1        84 2.30487E-03-1.38230E-02 2.38331E-25 1.52878E-03-1.47521E-13 3.24509E-13
 -1        85 3.16333E-03-1.80484E-02 5.57825E-26 1.60016E-03-1.32871E-13 1.38282E-13
 -1        86 4.10920E-03-2.24751E-02 1.50847E-27 1.76748E-03-5.83346E-14-4.23973E-14
 -1        87 4.70344E-03-2.75932E-02 4.08209E-27 1.64573E-03 2.16545E-14-4.63731E-14
 -1        88 7.66198E-03-3.19261E-02 4.59221E-27 3.27149E-03 3.81766E-14-3.23180E-14
 -1        89-1.53356E-03 2.21274E-03 9.09987E-28 1.89014E-03 2.22969E-14-1.74138E-14
 -1        90-1.55128E-03 2.60684E-03 1.05742E-26 2.52658E-03 1.86219E-14-7.19024E-14
 -1        91-1.40064E-03 2.55438E-03 3.62128E-28 2.17376E-03 1.69116E-14-5.36401E-14
 -1        92-1.33060E-03 2.55913E-03 2.88936E-27 2.06289E-03 7.07259E-15 1.02925E-13
 -1        93-1.28454E-03 2.58155E-03 1.78505E-25 1.95249E-03-5.88468E-15 3.14954E-13
 -1        94-1.25926E-03 2.58480E-03 4.67498E-25 1.80357E-03 7.39682E-15 4.89103E-13
 -1        95-1.18410E-03 2.54252E-03 7.59969E-25 1.63676E-03 2.60680E-14 6.16368E-13
 -1        96-1.13176E-03 2.47201E-03 6.62716E-25 1.56139E-03 3.60776E-14 5.76518E-13
 -1        97-1.08704E-03 2.37877E-03 3.51634E-25 1.52560E-03 2.70106E-14 4.34259E-13
 -1        98-1.02990E-03 2.24517E-03-3.22947E-27 1.28764E-03 8.33817E-15 1.54793E-13
 -1        99-9.40070E-04 2.08439E-03 1.90663E-26 7.53088E-04 6.34355E-15-1.74947E-13
 -1       100-8.71351E-04 1.91585E-03 2.97811E-25 1.36445E-04 1.70751E-14-3.93090E-13
 -1       101-7.84351E-04 1.74166E-03 3.54912E-25-3.40013E-04 1.92246E-15-4.21514E-13
 -1       102-7.10997E-04 1.57633E-03 2.36670E-25-6.70552E-04-1.20206E-14-3.44842E-13
 -1       103-6.31648E-04 1.41265E-03 1.93593E-25-8.72840E-04-1.69150E-14-3.12250E-13
 -1       104-5.37839E-04 1.21212E-03 1.06058E-25-8.05510E-04-3.18427E-14-2.29821E-13
 -1       105-4.23666E-04 9.75248E-04 7.04074E-26-3.75558E-04-1.08428E-14-1.87865E-13
 -1       106-3.17115E-04 7.33177E-04 5.41195E-26 1.93399E-04-7.21884E-15-1.86598E-13
 -1       107-1.94104E-04 4.99321E-04 2.94951E-25 3.87456E-04-4.75336E-14-4.11124E-13
 -1       108-1.94104E-04 4.99321E-04 2.94873E-25 3.87456E-04-4.75248E-14-4.11075E-13
 -1       109-3.17115E-04 7.33177E-04 5.41448E-26 1.93399E-04-7.22462E-15-1.86624E-13
 -1       110-4.23666E-04 9.75248E-04 7.04121E-26-3.75558E-04-1.08433E-14-1.87870E-13
 -1       111-5.37839E-04 1.21212E-03 1.06052E-25-8.05510E-04-3.18417E-14-2.29815E-13
 -1       112-6.31648E-04 1.41265E-03 1.93600E-25-8.72840E-04-1.69157E-14-3.12256E-13
 -1       113-7.10997E-04 1.57633E-03 2.36656E-25-6.70552E-04-1.20192E-14-3.44832E-13
 -1       114-7.84351E-04 1.74166E-03 3.54910E-25-3.40013E-04 1.92169E-15-4.21512E-13
 -1       115-8.71351E-04 1.91585E-03 2.97799E-25 1.36445E-04 1.70762E-14-3.93082E-13
 -1       116-9.40070E-04 2.08439E-03 1.90607E-26 7.53088E-04 6.34418E-15-1.74939E-13
 -1       117-1.02990E-03 2.24517E-03-3.22785E-27 1.28764E-03 8.33889E-15 1.54794E-13
 -1       118-1.08704E-03 2.37877E-03 3.51629E-25 1.52560E-03 2.70092E-14 4.34256E-13
 -1       119-1.13176E-03 2.47201E-03 6.62712E-25 1.56139E-03 3.60776E-14 5.76516E-13
 -1       120-1.18410E-03 2.54252E-03 7.59987E-25 1.63676E-03 2.60691E-14 6.16375E-13
 -1       121-1.25926E-03 2.58480E-03 4.67497E-25 1.80357E-03 7.39660E-15 4.89102E-13
 -1       122-1.28454E-03 2.58155E-03 1.78505E-25 1.95249E-03-5.88452E-15 3.14954E-13
 -1       123-1.33060E-03 2.55913E-03 2.88941E-27 2.06289E-03 7.07301E-15 1.02925E-13
 -1       124-1.40064E-03 2.55438E-03 3.62111E-28 2.17376E-03 1.69114E-14-5.36402E-14
 -1       125-1.55128E-03 2.60684E-03 1.05742E-26 2.52658E-03 1.86220E-14-7.19024E-14
 -1       126-1.53356E-03 2.21274E-03 9.09988E-28 1.89014E-03 2.22969E-14-1.74137E-14
 -3
    1PSTEP                       196          49           1          
  100CL  149 4.90000E-01         126                     1   49           1
 -4  ERROR       1    1
 -5  STR(%)      1    1    0    0
 -1         1 6.03592E+01
 -1         2 6.03592E+01
 -1         3 2.84579E+01
 -1         4 2.84579E+01
 -1         5 7.48452E+01
 -1         6 7.48452E+01
 -1         7 6.52431E+01
 -1         8 6.52431E+01
 -1         9 7.48452E+01
 -1        10 7.48452E+01
 -1        11 6.52431E+01
 -1        12 6.52431E+01
 -1        13 6.03592E+01
 -1        14 5.66942E+01
 -1        15 5.61586E+01
 -1        16 5.49278E+01
 -1        17 5.32818E+01
 -1        18 5.08866E+01
 -1        19 4.71660E+01
 -1        20 4.16973E+01
 -1        21 2.98777E+01
 -1        22 6.64073E+01
 -1        23 1.09079E+02
 -1        24 1.09079E+02
 -1        25 1.05810E+02
 -1        26 1.05810E+02
 -1        27 6.23235E+01
 -1        28 3.62606E+01
 -1        29 4.48394E+01
 -1        30 4.48394E+01
 -1        31 4.29216E+01
 -1        32 6.03592E+01
 -1        33 5.66942E+01
 -1        34 5.61586E+01
 -1        35 5.49278E+01
 -1        36 5.32818E+01
 -1        37 5.08866E+01
 -1        38 4.71660E+01
 -1        39 4.16973E+01
 -1        40 2.98777E+01
 -1        41 6.64073E+01
 -1        42 1.09079E+02
 -1        43 1.09079E+02
 -1        44 1.05810E+02
 -1        45 1.05810E+02
 -1        46 6.23235E+01
 -1        47 3.62606E+01
 -1        48 4.48394E+01
 -1        49 4.48394E+01
 -1        50 4.29216E+01
 -1        51 8.28248E+01
 -1        52 8.54809E+01
 -1        53 9.46685E+01
 -1        54 9.46685E+01
 -1        55 2.17016E+01
 -1        56 3.48263E+01
 -1        57 3.73411E+01
 -1        58 3.73411E+01
 -1        59 3.61339E+01
 -1        60 2.34135E+01
 -1        61 7.85719E+01
 -1        62 8.52926E+01
 -1        63 8.52926E+01
 -1        64 8.47813E+01
 -1        65 7.95430E+01
 -1        66 7.48568E+01
 -1        67 7.16940E+01
 -1        68 6.95837E+01
 -1        69 6.80059E+01
 -1        70 8.28248E+01
 -1        71 8.54809E+01
 -1        72 9.46685E+01
 -1        73 9.46685E+01
 -1        74 2.17016E+01
 -1        75 3.48263E+01
 -1        76 3.73411E+01
 -1        77 3.73411E+01
 -1        78 3.61339E+01
 -1        79 2.34135E+01
 -1        80 7.85719E+01
 -1        81 8.52926E+01
 -1        82 8.52926E+01
 -1        83 8.47813E+01
 -1        84 7.95430E+01
 -1        85 7.48568E+01
 -1        86 7.16940E+01
 -1        87 6.95837E+01
 -1        88 6.80059E+01
 -1        89 6.80059E+01
 -1        90 6.95837E+01
 -1        91 7.16940E+01
 -1        92 7.48568E+01
 -1        93 7.95430E+01
 -1        94 8.47813E+01
 -1        95 8.52926E+01
 -1        96 8.52926E+01
 -1        97 7.85719E+01
 -1        98 6.64073E+01
 -1        99 1.09079E+02
 -1       100 1.09079E+02
 -1       101 1.05810E+02
 -1       102 1.05810E+02
 -1       103 6.23235E+01
 -1       104 9.46685E+01
 -1       105 9.46685E+01
 -1       106 8.54809E+01
 -1       107 8.28248E+01
 -1       108 8.28248E+01
 -1       109 8.54809E+01
 -1       110 9.46685E+01
 -1       111 9.46685E+01
 -1       112 6.23235E+01
 -1       113 1.05810E+02
 -1       114 1.05810E+02
 -1       115 1.09079E+02
 -1       116 1.09079E+02
 -1       117 6.64073E+01
 -1       118 7.85719E+01
 -1       119 8.52926E+01
 -1       120 8.52926E+01
 -1       121 8.47813E+01
 -1       122 7.95430E+01
 -1       123 7.48568E+01
 -1       124 7.16940E+01
 -1       125 6.95837E+01
 -1       126 6.80059E+01
 -3
    1PSTEP                       197          50           1          
  100CL  150 5.00000E-01         126                     1   50           1
 -4  DISP        4    1
 -5  D1          1    2    1    0
 -5  D2          1    2    2    0
 -5  D3          1    2    3    0
 -5  ALL         1    2    0    0    1ALL
 -1         1 0.00000E+00 0.00000E+00 0.00000E+00
 -1         2 0.00000E+00 0.00000E+00 0.00000E+00
 -1         3 1.50170E-01-1.79909E-03 0.00000E+00
 -1         4 1.50170E-01-1.79909E-03 0.00000E+00
 -1         5 1.48728E-01-1.86639E-02 0.00000E+00
 -1         6 1.48728E-01-1.86639E-02 0.00000E+00
 -1         7 0.00000E+00 0.00000E+00 0.00000E+00
 -1         8 0.00000E+00 0.00000E+00 0.00000E+00
 -1         9 1.49450E-01-1.02245E-02 0.00000E+00
 -1        10 1.49450E-01-1.02245E-02 0.00000E+00
 -1        11 0.00000E+00 0.00000E+00 0.00000E+00
 -1        12 0.00000E+00 0.00000E+00 0.00000E+00
 -1        13 1.51836E-03 1.85123E-03 0.00000E+00
 -1        14 4.40591E-03 3.50883E-03 0.00000E+00
 -1        15 8.84313E-03 4.80887E-03 0.00000E+00
 -1        16 1.45191E-02 5.78169E-03 0.00000E+00
 -1        17 2.12437E-02 6.43922E-03 0.00000E+00
 -1        18 2.88391E-02 6.78835E-03 0.00000E+00
 -1        19 3.70978E-02 6.84190E-03 0.00000E+00
 -1        20 4.58239E-02 6.63195E-03 0.00000E+00
 -1        21 5.48450E-02 6.19990E-03 0.00000E+00
 -1        22 6.40119E-02 5.57754E-03 0.00000E+00
 -1        23 7.31476E-02 4.80579E-03 0.00000E+00
 -1        24 8.21015E-02 3.95744E-03 0.00000E+00
 -1        25 9.08130E-02 3.12561E-03 0.00000E+00
 -1        26 9.93509E-02 2.36902E-03 0.00000E+00
 -1        27 1.07832E-01 1.68035E-03 0.00000E+00
 -1        28 1.16333E-01 1.00932E-03 0.00000E+00
 -1        29 1.24841E-01 3.20476E-04 0.00000E+00
 -1        30 1.33317E-01-3.86639E-04 0.00000E+00
 -1        31 1.41749E-01-1.09435E-03 0.00000E+00
 -1        32 1.51836E-03 1.85123E-03 0.00000E+00
 -1        33 4.40591E-03 3.50883E-03 0.00000E+00
 -1        34 8.84313E-03 4.80887E-03 0.00000E+00
 -1        35 1.45191E-02 5.78169E-03 0.00000E+00
 -1        36 2.12437E-02 6.43922E-03 0.00000E+00
 -1        37 2.88391E-02 6.78835E-03 0.00000E+00
 -1        38 3.70978E-02 6.84190E-03 0.00000E+00
 -1        39 4.58239E-02 6.63195E-03 0.00000E+00
 -1        40 5.48450E-02 6.19990E-03 0.00000E+00
 -1        41 6.40119E-02 5.57754E-03 0.00000E+00
 -1        42 7.31476E-02 4.80579E-03 0.00000E+00
 -1        43 8.21015E-02 3.95744E-03 0.00000E+00
 -1        44 9.08130E-02 3.12561E-03 0.00000E+00
 -1        45 9.93509E-02 2.36902E-03 0.00000E+00
 -1        46 1.07832E-01 1.68035E-03 0.00000E+00
 -1        47 1.16333E-01 1.00932E-03 0.00000E+00
 -1        48 1.24841E-01 3.20476E-04 0.00000E+00
 -1        49 1.33317E-01-3.86639E-04 0.00000E+00
 -1        50 1.41749E-01-1.09435E-03 0.00000E+00
 -1        51 1.40295E-01-1.79687E-02 0.00000E+00
 -1        52 1.31843E-01-1.73014E-02 0.00000E+00
 -1        53 1.23347E-01-1.66450E-02 0.00000E+00
 -1        54 1.14825E-01-1.59859E-02 0.00000E+00
 -1        55 1.06309E-01-1.53358E-02 0.00000E+00
 -1        56 9.77998E-02-1.47319E-02 0.00000E+00
 -1        57 8.92134E-02-1.41953E-02 0.00000E+00
 -1        58 8.04354E-02-1.36900E-02 0.00000E+00
 -1        59 7.14208E-02-1.31332E-02 0.00000E+00
 -1        60 6.22612E-02-1.24549E-02 0.00000E+00
 -1        61 5.31272E-02-1.16367E-02 0.00000E+00
 -1        62 4.41917E-02-1.06989E-02 0.00000E+00
 -1        63 3.56036E-02-9.65959E-03 0.00000E+00
 -1        64 2.75297E-02-8.52783E-03 0.00000E+00
 -1        65 2.01600E-02-7.31829E-03 0.00000E+00
 -1        66 1.36801E-02-6.05012E-03 0.00000E+00
 -1        67 8.24832E-03-4.71914E-03 0.00000E+00
 -1        68 4.02366E-03-3.29210E-03 0.00000E+00
 -1        69 1.30857E-03-1.68738E-03 0.00000E+00
 -1        70 1.40295E-01-1.79687E-02 0.00000E+00
 -1        71 1.31843E-01-1.73014E-02 0.00000E+00
 -1        72 1.23347E-01-1.66450E-02 0.00000E+00
 -1        73 1.14825E-01-1.59859E-02 0.00000E+00
 -1        74 1.06309E-01-1.53358E-02 0.00000E+00
 -1        75 9.77998E-02-1.47319E-02 0.00000E+00
 -1        76 8.92134E-02-1.41953E-02 0.00000E+00
 -1        77 8.04354E-02-1.36900E-02 0.00000E+00
 -1        78 7.14208E-02-1.31332E-02 0.00000E+00
 -1        79 6.22612E-02-1.24549E-02 0.00000E+00
 -1        80 5.31272E-02-1.16367E-02 0.00000E+00
 -1        81 4.41917E-02-1.06989E-02 0.00000E+00
 -1        82 3.56036E-02-9.65959E-03 0.00000E+00
 -1        83 2.75297E-02-8.52783E-03 0.00000E+00
 -1        84 2.01600E-02-7.31829E-03 0.00000E+00
 -1        85 1.36801E-02-6.05012E-03 0.00000E+00
 -1        86 8.24832E-03-4.71914E-03 0.00000E+00
 -1        87 4.02366E-03-3.29210E-03 0.00000E+00
 -1        88 1.30857E-03-1.68738E-03 0.00000E+00
 -1        89 9.57903E-04 8.38550E-05 0.00000E+00
 -1        90 3.90379E-03 1.33927E-04 0.00000E+00
 -1        91 8.27080E-03 7.63314E-05 0.00000E+00
 -1        92 1.38704E-02-1.03179E-04 0.00000E+00
 -1        93 2.05115E-02-4.09993E-04 0.00000E+00
 -1        94 2.80327E-02-8.43405E-04 0.00000E+00
 -1        95 3.62403E-02-1.38800E-03 0.00000E+00
 -1        96 4.49339E-02-2.01861E-03 0.00000E+00
 -1        97 5.39457E-02-2.70976E-03 0.00000E+00
 -1        98 6.31275E-02-3.43591E-03 0.00000E+00
 -1        99 7.23045E-02-4.16596E-03 0.00000E+00
 -1       100 8.13020E-02-4.87053E-03 0.00000E+00
 -1       101 9.00417E-02-5.53769E-03 0.00000E+00
 -1       102 9.85876E-02-6.18086E-03 0.00000E+00
 -1       103 1.07073E-01-6.82543E-03 0.00000E+00
 -1       104 1.15579E-01-7.48617E-03 0.00000E+00
 -1       105 1.24097E-01-8.16055E-03 0.00000E+00
 -1       106 1.32583E-01-8.84172E-03 0.00000E+00
 -1       107 1.41024E-01-9.52843E-03 0.00000E+00
 -1       108 1.41024E-01-9.52843E-03 0.00000E+00
 -1       109 1.32583E-01-8.84172E-03 0.00000E+00
 -1       110 1.24097E-01-8.16055E-03 0.00000E+00
 -1       111 1.15579E-01-7.48617E-03 0.00000E+00
 -1       112 1.07073E-01-6.82543E-03 0.00000E+00
 -1       113 9.85876E-02-6.18086E-03 0.00000E+00
 -1       114 9.00417E-02-5.53769E-03 0.00000E+00
 -1       115 8.13020E-02-4.87053E-03 0.00000E+00
 -1       116 7.23045E-02-4.16596E-03 0.00000E+00
 -1       117 6.31275E-02-3.43591E-03 0.00000E+00
 -1       118 5.39457E-02-2.70976E-03 0.00000E+00
 -1       119 4.49339E-02-2.01861E-03 0.00000E+00
 -1       120 3.62403E-02-1.38800E-03 0.00000E+00
 -1       121 2.80327E-02-8.43405E-04 0.00000E+00
 -1       122 2.05115E-02-4.09993E-04 0.00000E+00
 -1       123 1.38704E-02-1.03179E-04 0.00000E+00
 -1       124 8.27080E-03 7.63314E-05 0.00000E+00
 -1       125 3.90379E-03 1.33927E-04 0.00000E+00
 -1       126 9.57903E-04 8.38550E-05 0.00000E+00
 -3
    1PSTEP                       198          50           1          
  100CL  150 5.00000E-01         126                     1   50           1
 -4  STRESS      6    1
 -5  SXX         1    4    1    1
 -5  SYY         1    4    2    2
 -5  SZZ         1    4    3    3
 -5  SXY         1    4    1    2
 -5  SYZ         1    4    2    3
 -5  SZX         1    4    3    1
 -1         1 8.72818E+03 2.10437E+04 8.49273E+03 5.22272E+03-1.95895E-10-1.56808E-10
 -1         2 8.72818E+03 2.10437E+04 8.49273E+03 5.22272E+03-1.95895E-10-1.56808E-10
 -1         3-1.95320E+01 8.03459E+01 1.82356E+01-3.33617E+00-5.10849E-09-1.58938E-07
 -1         4-1.95320E+01 8.03459E+01 1.82356E+01-3.33617E+00-5.10892E-09-1.58938E-07
 -1         5 4.52958E+01 2.11907E+02 7.71093E+01-6.00132E+00 1.01743E-07-1.88947E-07
 -1         6 4.52958E+01 2.11907E+02 7.71093E+01-6.00132E+00 1.01746E-07-1.88947E-07
 -1         7-7.67881E+03-1.73333E+04-7.84084E+03 3.60688E+03-3.17681E-10 2.18916E-10
 -1         8-7.67881E+03-1.73333E+04-7.84084E+03 3.60688E+03-3.17681E-10 2.18913E-10
 -1         9 2.86073E+01 1.87097E+02 6.46686E+01-6.34367E+00 4.18416E-08-1.62563E-07
 -1        10 2.86073E+01 1.87097E+02 6.46686E+01-6.34367E+00 4.18420E-08-1.62564E-07
 -1        11 4.91981E+02 7.44419E+02 4.28888E+02 2.95190E+03-2.67194E-10-2.16847E-11
 -1        12 4.91981E+02 7.44419E+02 4.28888E+02 2.95190E+03-2.67194E-10-2.16774E-11
 -1        13 2.83072E+03 1.78396E+04 5.90846E+03 1.70092E+03-1.05050E-09-3.47134E-08
 -1        14 3.47217E+03 1.62203E+04 5.65573E+03 1.37951E+03 1.86953E-08-3.58617E-08
 -1        15 2.93010E+03 1.37233E+04 4.81072E+03 1.57402E+03 3.89465E-08-2.65943E-08
 -1        16 2.56814E+03 1.16614E+04 4.13087E+03 1.56581E+03 4.55562E-08 3.95093E-08
 -1        17 2.18043E+03 9.71461E+03 3.46882E+03 1.52746E+03 3.07342E-08 1.04382E-07
 -1        18 1.76443E+03 7.79001E+03 2.79925E+03 1.41690E+03 2.25427E-09 1.49222E-07
 -1        19 1.37218E+03 5.94100E+03 2.15280E+03 1.22277E+03-2.22395E-08 1.76767E-07
 -1        20 9.55111E+02 4.22173E+03 1.53055E+03 9.97940E+02-3.95172E-08 1.82649E-07
 -1        21 5.52100E+02 2.62613E+03 9.43186E+02 7.71891E+02-6.27968E-08 1.83964E-07
 -1        22 1.34678E+02 1.12080E+03 3.73486E+02 5.24646E+02-8.33949E-08 1.20700E-07
 -1        23-1.84734E+02-6.65179E+01-7.59070E+01 2.39934E+02-1.00615E-07 4.80594E-08
 -1        24-3.85640E+02-6.38116E+02-3.07461E+02-7.93167E+00-9.01789E-08-7.43094E-08
 -1        25-4.02849E+02-5.01800E+02-2.71598E+02-1.29383E+02-4.95863E-08-1.64715E-07
 -1        26-2.96585E+02-7.83984E+00-9.14267E+01-1.00866E+02 6.43379E-09-2.15479E-07
 -1        27-1.28129E+02 3.69762E+02 7.22381E+01-2.41955E+00 4.86050E-08-1.72003E-07
 -1        28-5.94274E+01 3.83123E+02 9.68570E+01 6.62568E+01 5.34004E-08-8.26014E-08
 -1        29-6.94887E+01 2.00433E+02 3.91832E+01 5.63980E+01 2.25524E-08-2.88543E-08
 -1        30-9.15316E+01 7.04306E+01-6.35749E+00 9.94318E+00-1.24442E-08-3.96877E-08
 -1        31-5.75520E+01 6.41066E+01 1.95872E+00-1.24247E+01-1.34872E-08-1.12541E-07
 -1        32 2.83072E+03 1.78396E+04 5.90846E+03 1.70092E+03-1.05051E-09-3.47134E-08
 -1        33 3.47217E+03 1.62203E+04 5.65573E+03 1.37951E+03 1.86953E-08-3.58617E-08
 -1        34 2.93010E+03 1.37233E+04 4.81072E+03 1.57402E+03 3.89465E-08-2.65943E-08
 -1        35 2.56814E+03 1.16614E+04 4.13087E+03 1.56581E+03 4.55563E-08 3.95094E-08
 -1        36 2.18043E+03 9.71461E+03 3.46882E+03 1.52746E+03 3.07342E-08 1.04383E-07
 -1        37 1.76443E+03 7.79001E+03 2.79925E+03 1.41690E+03 2.25476E-09 1.49221E-07
 -1        38 1.37218E+03 5.94100E+03 2.15280E+03 1.22277E+03-2.22396E-08 1.76770E-07
 -1        39 9.55111E+02 4.22173E+03 1.53055E+03 9.97940E+02-3.95172E-08 1.82649E-07
 -1        40 5.52100E+02 2.62613E+03 9.43186E+02 7.71891E+02-6.27969E-08 1.83964E-07
 -1        41 1.34678E+02 1.12080E+03 3.73486E+02 5.24646E+02-8.33949E-08 1.20700E-07
 -1        42-1.84734E+02-6.65179E+01-7.59070E+01 2.39934E+02-1.00615E-07 4.80607E-08
 -1        43-3.85640E+02-6.38116E+02-3.07461E+02-7.93167E+00-9.01789E-08-7.43081E-08
 -1        44-4.02849E+02-5.01800E+02-2.71598E+02-1.29383E+02-4.95866E-08-1.64713E-07
 -1        45-2.96585E+02-7.83984E+00-9.14267E+01-1.00866E+02 6.43393E-09-2.15480E-07
 -1        46-1.28129E+02 3.69762E+02 7.22381E+01-2.41955E+00 4.86050E-08-1.72004E-07
 -1        47-5.94274E+01 3.83123E+02 9.68570E+01 6.62568E+01 5.34004E-08-8.26037E-08
 -1        48-6.94887E+01 2.00433E+02 3.91832E+01 5.63980E+01 2.25524E-08-2.88469E-08
 -1        49-9.15316E+01 7.04306E+01-6.35749E+00 9.94318E+00-1.24438E-08-3.96955E-08
 -1        50-5.75520E+01 6.41066E+01 1.95872E+00-1.24247E+01-1.34870E-08-1.12549E-07
 -1        51 5.34679E+01 3.37643E+02 1.17167E+02 3.19202E+01 7.35371E-08-1.05504E-07
 -1        52 9.15009E+01 5.51780E+02 1.92581E+02 8.47816E+01 4.47845E-08-5.45391E-08
 -1        53 9.03498E+01 6.24302E+02 2.13869E+02 1.23071E+02-2.16259E-09-3.04751E-08
 -1        54 8.42111E+01 6.71499E+02 2.26113E+02 1.11204E+02-2.33391E-08-1.14317E-07
 -1        55 1.06033E+02 9.37493E+02 3.11911E+02 7.81079E+01-5.69096E-09-1.82607E-07
 -1        56 2.08005E+02 1.53954E+03 5.21302E+02 1.05191E+02 3.49944E-08-2.00484E-07
 -1        57 3.39271E+02 2.19199E+03 7.53522E+02 2.40788E+02 7.04859E-08-1.63768E-07
 -1        58 4.23646E+02 2.39153E+03 8.37277E+02 4.19279E+02 7.35588E-08-4.21045E-08
 -1        59 3.39299E+02 1.82973E+03 6.45569E+02 5.13762E+02 4.73707E-08 7.82808E-08
 -1        60 8.90283E+01 6.63590E+02 2.23987E+02 4.54196E+02 1.57268E-08 1.51762E-07
 -1        61-2.89386E+02-7.68537E+02-3.18344E+02 2.92912E+02-1.46360E-08 1.79297E-07
 -1        62-7.05613E+02-2.27678E+03-8.99119E+02 1.13644E+02-4.03138E-08 1.80639E-07
 -1        63-1.13864E+03-3.88943E+03-1.52175E+03-4.89721E+01-5.29385E-08 1.62833E-07
 -1        64-1.58858E+03-5.60769E+03-2.18778E+03-1.99672E+02-6.38665E-08 1.46681E-07
 -1        65-2.06452E+03-7.34984E+03-2.87527E+03-3.20232E+02-7.21183E-08 8.89649E-08
 -1        66-2.53631E+03-9.10242E+03-3.57093E+03-3.68654E+02-6.13297E-08 1.96035E-08
 -1        67-2.98496E+03-1.09847E+04-4.30807E+03-2.90692E+02-3.63210E-08-1.83315E-08
 -1        68-3.81676E+03-1.33799E+04-5.33787E+03-2.02333E+02-7.55845E-09-5.54827E-08
 -1        69-3.18343E+03-1.48582E+04-5.63271E+03 4.85771E+02 9.42481E-09-5.03050E-08
 -1        70 5.34679E+01 3.37643E+02 1.17167E+02 3.19202E+01 7.35366E-08-1.05518E-07
 -1        71 9.15009E+01 5.51780E+02 1.92581E+02 8.47816E+01 4.47854E-08-5.45354E-08
 -1        72 9.03498E+01 6.24302E+02 2.13869E+02 1.23071E+02-2.16308E-09-3.04751E-08
 -1        73 8.42111E+01 6.71499E+02 2.26113E+02 1.11204E+02-2.33408E-08-1.14317E-07
 -1        74 1.06033E+02 9.37493E+02 3.11911E+02 7.81079E+01-5.69042E-09-1.82605E-07
 -1        75 2.08005E+02 1.53954E+03 5.21302E+02 1.05191E+02 3.49945E-08-2.00485E-07
 -1        76 3.39271E+02 2.19199E+03 7.53522E+02 2.40788E+02 7.04860E-08-1.63766E-07
 -1        77 4.23646E+02 2.39153E+03 8.37277E+02 4.19279E+02 7.35588E-08-4.20997E-08
 -1        78 3.39299E+02 1.82973E+03 6.45569E+02 5.13762E+02 4.73709E-08 7.82798E-08
 -1        79 8.90283E+01 6.63590E+02 2.23987E+02 4.54196E+02 1.57279E-08 1.51762E-07
 -1        80-2.89386E+02-7.68537E+02-3.18344E+02 2.92912E+02-1.46371E-08 1.79297E-07
 -1        81-7.05613E+02-2.27678E+03-8.99119E+02 1.13644E+02-4.03138E-08 1.80640E-07
 -1        82-1.13864E+03-3.88943E+03-1.52175E+03-4.89721E+01-5.29386E-08 1.62832E-07
 -1        83-1.58858E+03-5.60769E+03-2.18778E+03-1.99672E+02-6.38665E-08 1.46681E-07
 -1        84-2.06452E+03-7.34984E+03-2.87527E+03-3.20232E+02-7.21185E-08 8.89650E-08
 -1        85-2.53631E+03-9.10242E+03-3.57093E+03-3.68654E+02-6.13287E-08 1.96034E-08
 -1        86-2.98496E+03-1.09847E+04-4.30807E+03-2.90692E+02-3.63212E-08-1.83313E-08
 -1        87-3.81676E+03-1.33799E+04-5.33787E+03-2.02333E+02-7.55842E-09-5.54828E-08
 -1        88-3.18343E+03-1.48582E+04-5.63271E+03 4.85771E+02 9.42480E-09-5.03050E-08
 -1        89-6.70311E+01 6.13071E+02 1.81884E+02 5.71257E+02 2.44334E-09-4.53798E-08
 -1        90-1.49385E+00 8.13452E+02 2.71574E+02 8.13256E+02 1.04225E-08-5.41894E-08
 -1        91 5.69523E+01 8.60018E+02 2.92369E+02 7.12242E+02 3.06101E-09-2.83766E-08
 -1        92 8.40947E+01 8.98265E+02 3.06305E+02 6.78568E+02-1.08311E-08 2.66053E-08
 -1        93 1.16829E+02 9.14239E+02 3.15930E+02 6.81930E+02-2.17862E-08 1.01372E-07
 -1        94 1.41937E+02 9.06574E+02 3.17656E+02 7.01227E+02-3.59412E-08 1.51791E-07
 -1        95 1.64535E+02 9.03949E+02 3.21294E+02 6.86470E+02-4.07707E-08 1.71571E-07
 -1        96 1.65416E+02 8.95489E+02 3.17347E+02 6.51543E+02-4.18584E-08 1.86852E-07
 -1        97 1.68366E+02 8.79446E+02 3.12491E+02 6.25381E+02-3.82073E-08 1.85213E-07
 -1        98 1.47702E+02 8.58434E+02 2.99850E+02 5.78275E+02-3.22155E-08 1.45831E-07
 -1        99 1.03674E+02 8.58519E+02 2.86997E+02 4.38870E+02-2.78898E-08 6.46399E-08
 -1       100 2.60552E+01 8.68703E+02 2.67163E+02 2.16291E+02-1.17851E-08-5.96458E-08
 -1       101-4.03074E+01 8.55576E+02 2.43645E+02 2.31696E+01 1.27707E-08-1.67527E-07
 -1       102-5.65035E+01 7.80588E+02 2.16489E+02-3.68954E+01 2.51616E-08-2.18957E-07
 -1       103-1.85376E+01 6.56962E+02 1.90946E+02 1.96688E+01 1.88436E-08-1.85428E-07
 -1       104 1.15603E+01 5.24482E+02 1.60415E+02 8.92648E+01 1.33526E-08-9.40151E-08
 -1       105 1.34936E+01 4.14148E+02 1.28031E+02 9.42589E+01 4.90659E-09-2.20958E-08
 -1       106 2.15602E+00 3.17767E+02 9.58252E+01 4.61054E+01 1.09315E-08-4.27345E-08
 -1       107 6.44780E+00 2.25092E+02 6.93959E+01 7.05111E+00 2.70636E-08-1.09484E-07
 -1       108 6.44780E+00 2.25092E+02 6.93959E+01 7.05111E+00 2.70635E-08-1.09473E-07
 -1       109 2.15602E+00 3.17767E+02 9.58252E+01 4.61054E+01 1.09307E-08-4.27369E-08
 -1       110 1.34936E+01 4.14148E+02 1.28031E+02 9.42589E+01 4.90677E-09-2.21048E-08
 -1       111 1.15603E+01 5.24482E+02 1.60415E+02 8.92648E+01 1.33526E-08-9.40105E-08
 -1       112-1.85376E+01 6.56962E+02 1.90946E+02 1.96688E+01 1.88434E-08-1.85428E-07
 -1       113-5.65035E+01 7.80588E+02 2.16489E+02-3.68954E+01 2.51614E-08-2.18954E-07
 -1       114-4.03074E+01 8.55576E+02 2.43645E+02 2.31696E+01 1.27708E-08-1.67535E-07
 -1       115 2.60552E+01 8.68703E+02 2.67163E+02 2.16291E+02-1.17850E-08-5.96492E-08
 -1       116 1.03674E+02 8.58519E+02 2.86997E+02 4.38870E+02-2.78895E-08 6.46391E-08
 -1       117 1.47702E+02 8.58434E+02 2.99850E+02 5.78275E+02-3.22155E-08 1.45831E-07
 -1       118 1.68366E+02 8.79446E+02 3.12491E+02 6.25381E+02-3.82071E-08 1.85213E-07
 -1       119 1.65416E+02 8.95489E+02 3.17347E+02 6.51543E+02-4.18584E-08 1.86852E-07
 -1       120 1.64535E+02 9.03949E+02 3.21294E+02 6.86470E+02-4.07706E-08 1.71571E-07
 -1       121 1.41937E+02 9.06574E+02 3.17656E+02 7.01227E+02-3.59415E-08 1.51791E-07
 -1       122 1.16829E+02 9.14239E+02 3.15930E+02 6.81930E+02-2.17861E-08 1.01370E-07
 -1       123 8.40947E+01 8.98265E+02 3.06305E+02 6.78568E+02-1.08311E-08 2.66051E-08
 -1       124 5.69523E+01 8.60018E+02 2.92369E+02 7.12242E+02 3.06105E-09-2.83766E-08
 -1       125-1.49385E+00 8.13452E+02 2.71574E+02 8.13256E+02 1.04224E-08-5.41894E-08
 -1       126-6.70311E+01 6.13071E+02 1.81884E+02 5.71257E+02 2.44335E-09-4.53798E-08
 -3
    1PSTEP                       199          50           1          
  100CL  150 5.00000E-01         126                     1   50           1
 -4  TOSTRAIN    6    1
 -5  EXX         1    4    1    1
 -5  EYY         1    4    2    2
 -5  EZZ         1    4    3    3
 -5  EXY         1    4    1    2
 -5  EYZ         1    4    2    3
 -5  EZX         1    4    3    1
 -1         1-1.14409E-04 3.80556E-02-4.20613E-27 1.51834E-02 1.11796E-19-2.20265E-16
 -1         2-1.14409E-04 3.80556E-02-4.20613E-27 1.51834E-02 1.11796E-19-2.20265E-16
 -1         3-1.09958E-04 1.88979E-04 5.18879E-25-6.41100E-05-1.03391E-13-5.06414E-13
 -1         4-1.09958E-04 1.88979E-04 5.18876E-25-6.41100E-05-1.03392E-13-5.06412E-13
 -1         5-8.15103E-05 4.15759E-04 9.30761E-25-1.08338E-04 2.22132E-13-6.60982E-13
 -1         6-8.15103E-05 4.15759E-04 9.30773E-25-1.08338E-04 2.22143E-13-6.60984E-13
 -1         7-1.08800E-04-3.29436E-02-9.18850E-27 1.30855E-02-3.17439E-19 3.93763E-16
 -1         8-1.08800E-04-3.29436E-02-9.18850E-27 1.30855E-02-3.17698E-19 3.93751E-16
 -1         9-9.57340E-05 3.76038E-04 5.73537E-25-1.04945E-04 4.49050E-14-5.43664E-13
 -1        10-9.57340E-05 3.76038E-04 5.73542E-25-1.04945E-04 4.49057E-14-5.43667E-13
 -1        11-1.11604E-04 1.75031E-03-7.24350E-27 9.57887E-03-1.82564E-19 2.20022E-18
 -1        12-1.11604E-04 1.75031E-03-7.24351E-27 9.57887E-03-1.82080E-19 2.22382E-18
 -1        13-1.06218E-02 3.66688E-02 2.25854E-26 3.48864E-03-6.87091E-15-1.11885E-13
 -1        14-7.78759E-03 3.27482E-02 3.17682E-26 1.50878E-03 5.06477E-14-1.19694E-13
 -1        15-6.95437E-03 2.81291E-02 3.22765E-26 1.58611E-03 1.13732E-13-9.80145E-14
 -1        16-6.00078E-03 2.41466E-02 4.54417E-26 1.39010E-03 1.57355E-13 1.09177E-13
 -1        17-5.17937E-03 2.03866E-02 2.25139E-25 1.36965E-03 1.41960E-13 3.20915E-13
 -1        18-4.36500E-03 1.66121E-02 4.59152E-25 1.36723E-03 7.99320E-14 4.76870E-13
 -1        19-3.46585E-03 1.28666E-02 6.69241E-25 1.29739E-03 2.32555E-14 5.77658E-13
 -1        20-2.68047E-03 9.35125E-03 7.39696E-25 1.20616E-03-2.32218E-14 6.06474E-13
 -1        21-1.94923E-03 6.05298E-03 7.91592E-25 1.14709E-03-9.33533E-14 6.24832E-13
 -1        22-1.28326E-03 2.90615E-03 4.27998E-25 1.01631E-03-1.95065E-13 4.35333E-13
 -1        23-6.21940E-04 2.93420E-04 2.07333E-25 6.58943E-04-2.93603E-13 2.12906E-13
 -1        24-2.76901E-04-1.05526E-03 2.23069E-25 1.18109E-04-3.31680E-13-1.86054E-13
 -1        25-2.96847E-04-8.79857E-04 5.86857E-25-3.40289E-04-2.51855E-13-4.99911E-13
 -1        26-5.30756E-04 1.34562E-04 9.68026E-25-4.66457E-04-9.92268E-14-6.94157E-13
 -1        27-6.02638E-04 9.15741E-04 6.52476E-25-2.78261E-04 6.04422E-14-5.77962E-13
 -1        28-5.38979E-04 9.58881E-04 1.77802E-25-3.79224E-05 1.25242E-13-2.94135E-13
 -1        29-3.89571E-04 5.59412E-04 1.87337E-26 2.59204E-05 5.62812E-14-1.04885E-13
 -1        30-2.72873E-04 2.45288E-04 2.35401E-26-5.72884E-05-6.16651E-14-1.20330E-13
 -1        31-1.68833E-04 1.77300E-04 2.52677E-25-1.03775E-04-1.04894E-13-3.53203E-13
 -1        32-1.06218E-02 3.66688E-02 2.25854E-26 3.48864E-03-6.87092E-15-1.11885E-13
 -1        33-7.78759E-03 3.27482E-02 3.17682E-26 1.50878E-03 5.06478E-14-1.19694E-13
 -1        34-6.95437E-03 2.81291E-02 3.22765E-26 1.58611E-03 1.13732E-13-9.80145E-14
 -1        35-6.00078E-03 2.41466E-02 4.54417E-26 1.39010E-03 1.57355E-13 1.09178E-13
 -1        36-5.17937E-03 2.03866E-02 2.25143E-25 1.36965E-03 1.41960E-13 3.20918E-13
 -1        37-4.36500E-03 1.66121E-02 4.59142E-25 1.36723E-03 7.99328E-14 4.76865E-13
 -1        38-3.46585E-03 1.28666E-02 6.69267E-25 1.29739E-03 2.32571E-14 5.77669E-13
 -1        39-2.68047E-03 9.35125E-03 7.39696E-25 1.20616E-03-2.32218E-14 6.06474E-13
 -1        40-1.94923E-03 6.05298E-03 7.91592E-25 1.14709E-03-9.33535E-14 6.24832E-13
 -1        41-1.28326E-03 2.90615E-03 4.27998E-25 1.01631E-03-1.95065E-13 4.35333E-13
 -1        42-6.21940E-04 2.93420E-04 2.07337E-25 6.58943E-04-2.93602E-13 2.12910E-13
 -1        43-2.76901E-04-1.05526E-03 2.23066E-25 1.18109E-04-3.31679E-13-1.86049E-13
 -1        44-2.96847E-04-8.79857E-04 5.86840E-25-3.40289E-04-2.51854E-13-4.99903E-13
 -1        45-5.30756E-04 1.34562E-04 9.68030E-25-4.66457E-04-9.92267E-14-6.94159E-13
 -1        46-6.02638E-04 9.15741E-04 6.52486E-25-2.78261E-04 6.04414E-14-5.77967E-13
 -1        47-5.38979E-04 9.58881E-04 1.77809E-25-3.79224E-05 1.25241E-13-2.94142E-13
 -1        48-3.89571E-04 5.59412E-04 1.87223E-26 2.59204E-05 5.62851E-14-1.04862E-13
 -1        49-2.72873E-04 2.45288E-04 2.35467E-26-5.72884E-05-6.16682E-14-1.20355E-13
 -1        50-1.68833E-04 1.77300E-04 2.52711E-25-1.03775E-04-1.04898E-13-3.53229E-13
 -1        51-2.15279E-04 7.23335E-04 3.22374E-25-5.58057E-05 1.77499E-13-3.78288E-13
 -1        52-3.77867E-04 1.21307E-03 9.03223E-26 1.00824E-05 1.13266E-13-1.99329E-13
 -1        53-4.85602E-04 1.41319E-03 2.04966E-27 8.62362E-05-2.36967E-14-9.64120E-14
 -1        54-5.27412E-04 1.50818E-03 2.59986E-25 2.05255E-05-1.37661E-13-3.53219E-13
 -1        55-6.76541E-04 2.03010E-03 6.92279E-25-2.12899E-04-1.18987E-13-5.81692E-13
 -1        56-1.00858E-03 3.27277E-03 8.68198E-25-4.04569E-04 5.08099E-16-6.61324E-13
 -1        57-1.43794E-03 4.71288E-03 6.30941E-25-2.90217E-04 1.32482E-13-5.63710E-13
 -1        58-1.62682E-03 5.26648E-03 7.12526E-26 1.63179E-04 2.09665E-13-1.76950E-13
 -1        59-1.43580E-03 4.24110E-03 1.17189E-25 6.99653E-04 1.96045E-13 2.22364E-13
 -1        60-9.07370E-04 1.88048E-03 4.69596E-25 1.04307E-03 1.38968E-13 4.75812E-13
 -1        61-2.98741E-04-1.07907E-03 6.78835E-25 1.16643E-03 5.73220E-14 5.82292E-13
 -1        62 3.32986E-04-4.21956E-03 7.23722E-25 1.23090E-03-2.73584E-14 6.01938E-13
 -1        63 1.02327E-03-7.58890E-03 6.19818E-25 1.32902E-03-8.31269E-14 5.51807E-13
 -1        64 1.78483E-03-1.12047E-02 5.35253E-25 1.39646E-03-1.34127E-13 5.04680E-13
 -1        65 2.51253E-03-1.48657E-02 2.59106E-25 1.39003E-03-1.96390E-13 3.20320E-13
 -1        66 3.23494E-03-1.85422E-02 7.19235E-26 1.40771E-03-1.95322E-13 8.77888E-14
 -1        67 4.09534E-03-2.25179E-02 2.40921E-26 1.62820E-03-1.27070E-13-4.79243E-14
 -1        68 4.66935E-03-2.74121E-02 6.07202E-26 1.56018E-03-3.80996E-14-1.79132E-13
 -1        69 7.56435E-03-3.15706E-02 5.00933E-26 3.13005E-03 2.64420E-14-1.65274E-13
 -1        70-2.15279E-04 7.23335E-04 3.22427E-25-5.58057E-05 1.77490E-13-3.78332E-13
 -1        71-3.77867E-04 1.21307E-03 9.03085E-26 1.00824E-05 1.13271E-13-1.99318E-13
 -1        72-4.85602E-04 1.41319E-03 2.04948E-27 8.62362E-05-2.36983E-14-9.64117E-14
 -1        73-5.27412E-04 1.50818E-03 2.59988E-25 2.05255E-05-1.37667E-13-3.53218E-13
 -1        74-6.76541E-04 2.03010E-03 6.92268E-25-2.12899E-04-1.18985E-13-5.81688E-13
 -1        75-1.00858E-03 3.27277E-03 8.68208E-25-4.04569E-04 5.07801E-16-6.61328E-13
 -1        76-1.43794E-03 4.71288E-03 6.30925E-25-2.90217E-04 1.32484E-13-5.63703E-13
 -1        77-1.62682E-03 5.26648E-03 7.12509E-26 1.63179E-04 2.09668E-13-1.76934E-13
 -1        78-1.43580E-03 4.24110E-03 1.17192E-25 6.99653E-04 1.96045E-13 2.22360E-13
 -1        79-9.07370E-04 1.88048E-03 4.69596E-25 1.04307E-03 1.38972E-13 4.75811E-13
 -1        80-2.98741E-04-1.07907E-03 6.78835E-25 1.16643E-03 5.73185E-14 5.82293E-13
 -1        81 3.32986E-04-4.21956E-03 7.23724E-25 1.23090E-03-2.73583E-14 6.01939E-13
 -1        82 1.02327E-03-7.58890E-03 6.19812E-25 1.32902E-03-8.31276E-14 5.51804E-13
 -1        83 1.78483E-03-1.12047E-02 5.35252E-25 1.39646E-03-1.34126E-13 5.04679E-13
 -1        84 2.51253E-03-1.48657E-02 2.59107E-25 1.39003E-03-1.96390E-13 3.20321E-13
 -1        85 3.23494E-03-1.85422E-02 7.19212E-26 1.40771E-03-1.95319E-13 8.77881E-14
 -1        86 4.09534E-03-2.25179E-02 2.40922E-26 1.62820E-03-1.27070E-13-4.79236E-14
 -1        87 4.66935E-03-2.74121E-02 6.07203E-26 1.56018E-03-3.80995E-14-1.79132E-13
 -1        88 7.56435E-03-3.15706E-02 5.00933E-26 3.13005E-03 2.64420E-14-1.65274E-13
 -1        89-1.52871E-03 2.19908E-03 3.97119E-26 1.76119E-03 3.07334E-15-1.47689E-13
 -1        90-1.55912E-03 2.62412E-03 6.23085E-26 2.42254E-03 2.19439E-14-1.78181E-13
 -1        91-1.42952E-03 2.62145E-03 5.45977E-27 2.00960E-03 1.31136E-15-9.28756E-14
 -1        92-1.38292E-03 2.65712E-03-8.56491E-27 1.81857E-03-2.44386E-14 9.01854E-14
 -1        93-1.33342E-03 2.66697E-03 2.03732E-25 1.76549E-03-2.45359E-14 3.36344E-13
 -1        94-1.29009E-03 2.64519E-03 5.07055E-25 1.78211E-03-3.95532E-14 5.05793E-13
 -1        95-1.22129E-03 2.60256E-03 6.57781E-25 1.70523E-03-3.83928E-14 5.72254E-13
 -1        96-1.17374E-03 2.54490E-03 7.77253E-25 1.57336E-03-2.85396E-14 6.22042E-13
 -1        97-1.12399E-03 2.47803E-03 7.53671E-25 1.48647E-03-1.46836E-14 6.14755E-13
 -1        98-1.09532E-03 2.39591E-03 4.49127E-25 1.33774E-03-1.73871E-14 4.85321E-13
 -1        99-1.02887E-03 2.27338E-03 4.59694E-26 8.95031E-04-5.12962E-14 2.23118E-13
 -1       100-9.51859E-04 2.10969E-03 4.59860E-27 1.81552E-04-7.17364E-14-1.84078E-13
 -1       101-8.67392E-04 1.92328E-03 5.59538E-25-4.24261E-04-5.33780E-14-5.43650E-13
 -1       102-7.69669E-04 1.70824E-03 1.02141E-24-5.68911E-04-4.11304E-14-7.15362E-13
 -1       103-6.39590E-04 1.46764E-03 7.16119E-25-3.06760E-04-4.21831E-14-6.04425E-13
 -1       104-5.33196E-04 1.22881E-03 1.60982E-25-5.93493E-06-9.17517E-15-3.08531E-13
 -1       105-4.37586E-04 9.92678E-04 7.12050E-28 7.06486E-05 3.52101E-15-7.34870E-14
 -1       106-3.25370E-04 7.40763E-04 2.94093E-26-2.97999E-05 1.15036E-14-1.42916E-13
 -1       107-1.92056E-04 4.92857E-04 2.48732E-25-9.64716E-05 2.66234E-14-3.65578E-13
 -1       108-1.92056E-04 4.92857E-04 2.48685E-25-9.64716E-05 2.66292E-14-3.65541E-13
 -1       109-3.25370E-04 7.40763E-04 2.94202E-26-2.97999E-05 1.15000E-14-1.42923E-13
 -1       110-4.37586E-04 9.92678E-04 7.25794E-28 7.06486E-05 3.51661E-15-7.35159E-14
 -1       111-5.33196E-04 1.22881E-03 1.60967E-25-5.93493E-06-9.17239E-15-3.08516E-13
 -1       112-6.39590E-04 1.46764E-03 7.16119E-25-3.06760E-04-4.21839E-14-6.04425E-13
 -1       113-7.69669E-04 1.70824E-03 1.02138E-24-5.68911E-04-4.11294E-14-7.15351E-13
 -1       114-8.67392E-04 1.92328E-03 5.59593E-25-4.24261E-04-5.33818E-14-5.43673E-13
 -1       115-9.51859E-04 2.10969E-03 4.60519E-27 1.81552E-04-7.17382E-14-1.84089E-13
 -1       116-1.02887E-03 2.27338E-03 4.59660E-26 8.95031E-04-5.12957E-14 2.23116E-13
 -1       117-1.09532E-03 2.39591E-03 4.49126E-25 1.33774E-03-1.73874E-14 4.85320E-13
 -1       118-1.12399E-03 2.47803E-03 7.53671E-25 1.48647E-03-1.46828E-14 6.14755E-13
 -1       119-1.17374E-03 2.54490E-03 7.77252E-25 1.57336E-03-2.85395E-14 6.22042E-13
 -1       120-1.22129E-03 2.60256E-03 6.57779E-25 1.70523E-03-3.83927E-14 5.72253E-13
 -1       121-1.29009E-03 2.64519E-03 5.07061E-25 1.78211E-03-3.95536E-14 5.05796E-13
 -1       122-1.33342E-03 2.66697E-03 2.03723E-25 1.76549E-03-2.45366E-14 3.36338E-13
 -1       123-1.38292E-03 2.65712E-03-8.56450E-27 1.81857E-03-2.44386E-14 9.01849E-14
 -1       124-1.42952E-03 2.62145E-03 5.45979E-27 2.00960E-03 1.31149E-15-9.28757E-14
 -1       125-1.55912E-03 2.62412E-03 6.23084E-26 2.42254E-03 2.19437E-14-1.78180E-13
 -1       126-1.52871E-03 2.19908E-03 3.97120E-26 1.76119E-03 3.07339E-15-1.47690E-13
 -3
    1PSTEP                       200          50           1          
  100CL  150 5.00000E-01         126                     1   50           1
 -4  ERROR       1    1
 -5  STR(%)      1    1    0    0
 -1         1 6.02622E+01
 -1         2 6.02622E+01
 -1         3 2.22968E+01
 -1         4 2.22968E+01
 -1         5 3.72101E+00
 -1         6 3.72101E+00
 -1         7 6.50812E+01
 -1         8 6.50812E+01
 -1         9 2.22968E+01
 -1        10 2.22968E+01
 -1        11 6.50812E+01
 -1        12 6.50812E+01
 -1        13 6.02622E+01
 -1        14 5.66556E+01
 -1        15 5.60310E+01
 -1        16 5.46995E+01
 -1        17 5.32543E+01
 -1        18 5.15324E+01
 -1        19 4.85733E+01
 -1        20 4.40168E+01
 -1        21 3.58707E+01
 -1        22 2.59387E+01
 -1        23 9.18959E+01
 -1        24 1.01255E+02
 -1        25 1.01255E+02
 -1        26 7.95234E+01
 -1        27 3.02505E+01
 -1        28 1.43465E+01
 -1        29 3.88611E+01
 -1        30 4.04430E+01
 -1        31 4.04430E+01
 -1        32 6.02622E+01
 -1        33 5.66556E+01
 -1        34 5.60310E+01
 -1        35 5.46995E+01
 -1        36 5.32543E+01
 -1        37 5.15324E+01
 -1        38 4.85733E+01
 -1        39 4.40168E+01
 -1        40 3.58707E+01
 -1        41 2.59387E+01
 -1        42 9.18959E+01
 -1        43 1.01255E+02
 -1        44 1.01255E+02
 -1        45 7.95234E+01
 -1        46 3.02505E+01
 -1        47 1.43465E+01
 -1        48 3.88611E+01
 -1        49 4.04430E+01
 -1        50 4.04430E+01
 -1        51 1.81833E+01
 -1        52 1.81833E+01
 -1        53 1.71868E+01
 -1        54 6.43032E+00
 -1        55 1.33427E+01
 -1        56 2.62452E+01
 -1        57 3.25259E+01
 -1        58 3.25259E+01
 -1        59 2.96784E+01
 -1        60 4.44317E+01
 -1        61 9.49036E+01
 -1        62 9.49036E+01
 -1        63 8.59691E+01
 -1        64 8.34686E+01
 -1        65 7.84525E+01
 -1        66 7.44334E+01
 -1        67 7.17052E+01
 -1        68 6.96610E+01
 -1        69 6.79819E+01
 -1        70 1.81833E+01
 -1        71 1.81833E+01
 -1        72 1.71868E+01
 -1        73 6.43032E+00
 -1        74 1.33427E+01
 -1        75 2.62452E+01
 -1        76 3.25259E+01
 -1        77 3.25259E+01
 -1        78 2.96784E+01
 -1        79 4.44317E+01
 -1        80 9.49036E+01
 -1        81 9.49036E+01
 -1        82 8.59691E+01
 -1        83 8.34686E+01
 -1        84 7.84525E+01
 -1        85 7.44334E+01
 -1        86 7.17052E+01
 -1        87 6.96610E+01
 -1        88 6.79819E+01
 -1        89 6.79819E+01
 -1        90 6.96610E+01
 -1        91 7.17052E+01
 -1        92 7.44334E+01
 -1        93 7.84525E+01
 -1        94 8.34686E+01
 -1        95 8.59691E+01
 -1        96 9.49036E+01
 -1        97 9.49036E+01
 -1        98 4.44317E+01
 -1        99 9.18959E+01
 -1       100 1.01255E+02
 -1       101 1.01255E+02
 -1       102 7.95234E+01
 -1       103 3.02505E+01
 -1       104 1.43465E+01
 -1       105 3.88611E+01
 -1       106 4.04430E+01
 -1       107 4.04430E+01
 -1       108 4.04430E+01
 -1       109 4.04430E+01
 -1       110 3.88611E+01
 -1       111 1.43465E+01
 -1       112 3.02505E+01
 -1       113 7.95234E+01
 -1       114 1.01255E+02
 -1       115 1.01255E+02
 -1       116 9.18959E+01
 -1       117 4.44317E+01
 -1       118 9.49036E+01
 -1       119 9.49036E+01
 -1       120 8.59691E+01
 -1       121 8.34686E+01
 -1       122 7.84525E+01
 -1       123 7.44334E+01
 -1       124 7.17052E+01
 -1       125 6.96610E+01
 -1       126 6.79819E+01
 -3
    1PSTEP                       201          51           1          
  100CL  151 5.10000E-01         126                     1   51           1
 -4  DISP        4    1
 -5  D1          1    2    1    0
 -5  D2          1    2    2    0
 -5  D3          1    2    3    0
 -5  ALL         1    2    0    0    1ALL
 -1         1 0.00000E+00 0.00000E+00 0.00000E+00
 -1         2 0.00000E+00 0.00000E+00 0.00000E+00
 -1         3 1.55270E-01-2.57074E-03 0.00000E+00
 -1         4 1.55270E-01-2.57074E-03 0.00000E+00
 -1         5 1.53788E-01-1.96752E-02 0.00000E+00
 -1         6 1.53788E-01-1.96752E-02 0.00000E+00
 -1         7 0.00000E+00 0.00000E+00 0.00000E+00
 -1         8 0.00000E+00 0.00000E+00 0.00000E+00
 -1         9 1.54536E-01-1.11155E-02 0.00000E+00
 -1        10 1.54536E-01-1.11155E-02 0.00000E+00
 -1        11 0.00000E+00 0.00000E+00 0.00000E+00
 -1        12 0.00000E+00 0.00000E+00 0.00000E+00
 -1        13 1.50363E-03 1.82320E-03 0.00000E+00
 -1        14 4.34319E-03 3.46284E-03 0.00000E+00
 -1        15 8.72247E-03 4.77056E-03 0.00000E+00
 -1        16 1.43689E-02 5.76954E-03 0.00000E+00
 -1        17 2.10962E-02 6.46293E-03 0.00000E+00
 -1        18 2.87332E-02 6.86108E-03 0.00000E+00
 -1        19 3.71086E-02 6.96857E-03 0.00000E+00
 -1        20 4.60418E-02 6.79334E-03 0.00000E+00
 -1        21 5.53246E-02 6.36880E-03 0.00000E+00
 -1        22 6.47765E-02 5.74993E-03 0.00000E+00
 -1        23 7.42561E-02 4.99648E-03 0.00000E+00
 -1        24 8.36690E-02 4.16468E-03 0.00000E+00
 -1        25 9.29545E-02 3.31700E-03 0.00000E+00
 -1        26 1.02135E-01 2.49527E-03 0.00000E+00
 -1        27 1.11275E-01 1.68855E-03 0.00000E+00
 -1        28 1.20394E-01 8.45406E-04 0.00000E+00
 -1        29 1.29400E-01-5.62203E-05 0.00000E+00
 -1        30 1.38185E-01-9.68136E-04 0.00000E+00
 -1        31 1.46757E-01-1.81126E-03 0.00000E+00
 -1        32 1.50363E-03 1.82320E-03 0.00000E+00
 -1        33 4.34319E-03 3.46284E-03 0.00000E+00
 -1        34 8.72247E-03 4.77056E-03 0.00000E+00
 -1        35 1.43689E-02 5.76954E-03 0.00000E+00
 -1        36 2.10962E-02 6.46293E-03 0.00000E+00
 -1        37 2.87332E-02 6.86108E-03 0.00000E+00
 -1        38 3.71086E-02 6.96857E-03 0.00000E+00
 -1        39 4.60418E-02 6.79334E-03 0.00000E+00
 -1        40 5.53246E-02 6.36880E-03 0.00000E+00
 -1        41 6.47765E-02 5.74993E-03 0.00000E+00
 -1        42 7.42561E-02 4.99648E-03 0.00000E+00
 -1        43 8.36690E-02 4.16468E-03 0.00000E+00
 -1        44 9.29545E-02 3.31700E-03 0.00000E+00
 -1        45 1.02135E-01 2.49527E-03 0.00000E+00
 -1        46 1.11275E-01 1.68855E-03 0.00000E+00
 -1        47 1.20394E-01 8.45406E-04 0.00000E+00
 -1        48 1.29400E-01-5.62203E-05 0.00000E+00
 -1        49 1.38185E-01-9.68136E-04 0.00000E+00
 -1        50 1.46757E-01-1.81126E-03 0.00000E+00
 -1        51 1.45248E-01-1.90000E-02 0.00000E+00
 -1        52 1.36616E-01-1.84134E-02 0.00000E+00
 -1        53 1.27755E-01-1.78461E-02 0.00000E+00
 -1        54 1.18686E-01-1.72208E-02 0.00000E+00
 -1        55 1.09527E-01-1.65291E-02 0.00000E+00
 -1        56 1.00355E-01-1.58224E-02 0.00000E+00
 -1        57 9.11398E-02-1.51383E-02 0.00000E+00
 -1        58 8.18148E-02-1.44586E-02 0.00000E+00
 -1        59 7.23759E-02-1.37318E-02 0.00000E+00
 -1        60 6.29007E-02-1.29185E-02 0.00000E+00
 -1        61 5.35024E-02-1.20003E-02 0.00000E+00
 -1        62 4.43273E-02-1.09691E-02 0.00000E+00
 -1        63 3.55584E-02-9.83117E-03 0.00000E+00
 -1        64 2.73930E-02-8.61381E-03 0.00000E+00
 -1        65 2.00005E-02-7.34725E-03 0.00000E+00
 -1        66 1.35282E-02-6.04328E-03 0.00000E+00
 -1        67 8.13219E-03-4.68896E-03 0.00000E+00
 -1        68 3.96862E-03-3.25732E-03 0.00000E+00
 -1        69 1.30184E-03-1.66831E-03 0.00000E+00
 -1        70 1.45248E-01-1.90000E-02 0.00000E+00
 -1        71 1.36616E-01-1.84134E-02 0.00000E+00
 -1        72 1.27755E-01-1.78461E-02 0.00000E+00
 -1        73 1.18686E-01-1.72208E-02 0.00000E+00
 -1        74 1.09527E-01-1.65291E-02 0.00000E+00
 -1        75 1.00355E-01-1.58224E-02 0.00000E+00
 -1        76 9.11398E-02-1.51383E-02 0.00000E+00
 -1        77 8.18148E-02-1.44586E-02 0.00000E+00
 -1        78 7.23759E-02-1.37318E-02 0.00000E+00
 -1        79 6.29007E-02-1.29185E-02 0.00000E+00
 -1        80 5.35024E-02-1.20003E-02 0.00000E+00
 -1        81 4.43273E-02-1.09691E-02 0.00000E+00
 -1        82 3.55584E-02-9.83117E-03 0.00000E+00
 -1        83 2.73930E-02-8.61381E-03 0.00000E+00
 -1        84 2.00005E-02-7.34725E-03 0.00000E+00
 -1        85 1.35282E-02-6.04328E-03 0.00000E+00
 -1        86 8.13219E-03-4.68896E-03 0.00000E+00
 -1        87 3.96862E-03-3.25732E-03 0.00000E+00
 -1        88 1.30184E-03-1.66831E-03 0.00000E+00
 -1        89 9.53239E-04 7.83044E-05 0.00000E+00
 -1        90 3.84600E-03 1.25673E-04 0.00000E+00
 -1        91 8.14846E-03 7.06108E-05 0.00000E+00
 -1        92 1.37126E-02-1.06021E-04 0.00000E+00
 -1        93 2.03485E-02-4.11793E-04 0.00000E+00
 -1        94 2.78978E-02-8.47810E-04 0.00000E+00
 -1        95 3.62076E-02-1.40722E-03 0.00000E+00
 -1        96 4.50979E-02-2.07033E-03 0.00000E+00
 -1        97 5.43630E-02-2.80506E-03 0.00000E+00
 -1        98 6.38162E-02-3.57875E-03 0.00000E+00
 -1        99 7.33172E-02-4.36641E-03 0.00000E+00
 -1       100 8.27559E-02-5.14798E-03 0.00000E+00
 -1       101 9.20622E-02-5.91140E-03 0.00000E+00
 -1       102 1.01254E-01-6.66247E-03 0.00000E+00
 -1       103 1.10411E-01-7.41896E-03 0.00000E+00
 -1       104 1.19561E-01-8.18830E-03 0.00000E+00
 -1       105 1.28612E-01-8.95363E-03 0.00000E+00
 -1       106 1.37434E-01-9.69222E-03 0.00000E+00
 -1       107 1.46020E-01-1.04037E-02 0.00000E+00
 -1       108 1.46020E-01-1.04037E-02 0.00000E+00
 -1       109 1.37434E-01-9.69222E-03 0.00000E+00
 -1       110 1.28612E-01-8.95363E-03 0.00000E+00
 -1       111 1.19561E-01-8.18830E-03 0.00000E+00
 -1       112 1.10411E-01-7.41896E-03 0.00000E+00
 -1       113 1.01254E-01-6.66247E-03 0.00000E+00
 -1       114 9.20622E-02-5.91140E-03 0.00000E+00
 -1       115 8.27559E-02-5.14798E-03 0.00000E+00
 -1       116 7.33172E-02-4.36641E-03 0.00000E+00
 -1       117 6.38162E-02-3.57875E-03 0.00000E+00
 -1       118 5.43630E-02-2.80506E-03 0.00000E+00
 -1       119 4.50979E-02-2.07033E-03 0.00000E+00
 -1       120 3.62076E-02-1.40722E-03 0.00000E+00
 -1       121 2.78978E-02-8.47810E-04 0.00000E+00
 -1       122 2.03485E-02-4.11793E-04 0.00000E+00
 -1       123 1.37126E-02-1.06021E-04 0.00000E+00
 -1       124 8.14846E-03 7.06108E-05 0.00000E+00
 -1       125 3.84600E-03 1.25673E-04 0.00000E+00
 -1       126 9.53239E-04 7.83044E-05 0.00000E+00
 -3
    1PSTEP                       202          51           1          
  100CL  151 5.10000E-01         126                     1   51           1
 -4  STRESS      6    1
 -5  SXX         1    4    1    1
 -5  SYY         1    4    2    2
 -5  SZZ         1    4    3    3
 -5  SXY         1    4    1    2
 -5  SYZ         1    4    2    3
 -5  SZX         1    4    3    1
 -1         1 8.59736E+03 2.07099E+04 8.36600E+03 5.16401E+03-1.32697E-10-1.21827E-10
 -1         2 8.59736E+03 2.07099E+04 8.36600E+03 5.16401E+03-1.32697E-10-1.21827E-10
 -1         3-1.59946E+02-2.75856E+02-1.30810E+02-1.07692E+02 5.27280E-08 1.64564E-08
 -1         4-1.59946E+02-2.75856E+02-1.30810E+02-1.07692E+02 5.27276E-08 1.64564E-08
 -1         5 1.54074E+02 6.12111E+02 2.29476E+02-2.14813E+01-8.52976E-09 2.06993E-08
 -1         6 1.54074E+02 6.12111E+02 2.29476E+02-2.14813E+01-8.52989E-09 2.07066E-08
 -1         7-7.58961E+03-1.71433E+04-7.75065E+03 3.59281E+03-3.94217E-11-2.98369E-11
 -1         8-7.58961E+03-1.71433E+04-7.75065E+03 3.59281E+03-3.94217E-11-2.98369E-11
 -1         9 2.29178E+00 2.18228E+02 6.61091E+01-9.52966E+01 2.54257E-08 9.26003E-09
 -1        10 2.29178E+00 2.18228E+02 6.61091E+01-9.52966E+01 2.54268E-08 9.25927E-09
 -1        11 4.66258E+02 6.90294E+02 4.02912E+02 2.93697E+03-8.54780E-11-3.66054E-11
 -1        12 4.66258E+02 6.90294E+02 4.02912E+02 2.93697E+03-8.54780E-11-3.66054E-11
 -1        13 2.80898E+03 1.75947E+04 5.83707E+03 1.66337E+03-4.06359E-09-2.34659E-08
 -1        14 3.44674E+03 1.61331E+04 5.62549E+03 1.32224E+03 2.36363E-09-2.14823E-08
 -1        15 2.93131E+03 1.38557E+04 4.84773E+03 1.54034E+03 4.39847E-09-4.86384E-09
 -1        16 2.60947E+03 1.19605E+04 4.22660E+03 1.56790E+03-5.11862E-10 2.15638E-08
 -1        17 2.26216E+03 1.01754E+04 3.62319E+03 1.54689E+03-1.76826E-09 2.84383E-08
 -1        18 1.88590E+03 8.42207E+03 3.01515E+03 1.47057E+03-3.76618E-09 4.32372E-08
 -1        19 1.52721E+03 6.62903E+03 2.39634E+03 1.32888E+03-7.17390E-09 7.40777E-08
 -1        20 1.10875E+03 4.81278E+03 1.74782E+03 1.11484E+03-1.63396E-08 9.45564E-08
 -1        21 6.81655E+02 3.15669E+03 1.13781E+03 8.46209E+02-3.06182E-08 1.13022E-07
 -1        22 2.79149E+02 1.79031E+03 6.15531E+02 5.77058E+02-5.78533E-08 1.20814E-07
 -1        23 1.11987E+01 8.01456E+02 2.42279E+02 3.37981E+02-8.79064E-08 1.09101E-07
 -1        24-1.70267E+02 2.30965E+02 1.79200E+01 1.52827E+02-1.01393E-07 1.74132E-08
 -1        25-2.32105E+02 1.10284E+02-3.66087E+01 4.69926E+01-7.47683E-08-1.00076E-07
 -1        26-2.29843E+02 1.74226E+02-1.67630E+01 4.51928E+01-1.33163E-08-1.41368E-07
 -1        27-1.99088E+02 1.41669E+01-5.54885E+01 8.78634E+01 3.66300E-08-1.16889E-07
 -1        28-2.75849E+02-5.46206E+02-2.46884E+02 6.57438E+01 5.10426E-08-7.62410E-08
 -1        29-3.96571E+02-1.10831E+03-4.52657E+02-6.93563E+01 4.21042E-08-3.56855E-08
 -1        30-4.25221E+02-1.13592E+03-4.69766E+02-2.05367E+02 3.94015E-08-2.38703E-08
 -1        31-2.84185E+02-6.18401E+02-2.71280E+02-1.84789E+02 4.55917E-08-8.94269E-09
 -1        32 2.80898E+03 1.75947E+04 5.83707E+03 1.66337E+03-4.06359E-09-2.34659E-08
 -1        33 3.44674E+03 1.61331E+04 5.62549E+03 1.32224E+03 2.36363E-09-2.14823E-08
 -1        34 2.93131E+03 1.38557E+04 4.84773E+03 1.54034E+03 4.39850E-09-4.86384E-09
 -1        35 2.60947E+03 1.19605E+04 4.22660E+03 1.56790E+03-5.11854E-10 2.15638E-08
 -1        36 2.26216E+03 1.01754E+04 3.62319E+03 1.54689E+03-1.76832E-09 2.84383E-08
 -1        37 1.88590E+03 8.42207E+03 3.01515E+03 1.47057E+03-3.76578E-09 4.32374E-08
 -1        38 1.52721E+03 6.62903E+03 2.39634E+03 1.32888E+03-7.17361E-09 7.40776E-08
 -1        39 1.10875E+03 4.81278E+03 1.74782E+03 1.11484E+03-1.63396E-08 9.45564E-08
 -1        40 6.81655E+02 3.15669E+03 1.13781E+03 8.46209E+02-3.06182E-08 1.13022E-07
 -1        41 2.79149E+02 1.79031E+03 6.15531E+02 5.77058E+02-5.78534E-08 1.20814E-07
 -1        42 1.11987E+01 8.01456E+02 2.42279E+02 3.37981E+02-8.79064E-08 1.09101E-07
 -1        43-1.70267E+02 2.30965E+02 1.79200E+01 1.52827E+02-1.01393E-07 1.74114E-08
 -1        44-2.32105E+02 1.10284E+02-3.66087E+01 4.69926E+01-7.47684E-08-1.00077E-07
 -1        45-2.29843E+02 1.74226E+02-1.67630E+01 4.51928E+01-1.33163E-08-1.41368E-07
 -1        46-1.99088E+02 1.41669E+01-5.54885E+01 8.78634E+01 3.66300E-08-1.16888E-07
 -1        47-2.75849E+02-5.46206E+02-2.46884E+02 6.57438E+01 5.10428E-08-7.62414E-08
 -1        48-3.96571E+02-1.10831E+03-4.52657E+02-6.93563E+01 4.21043E-08-3.56853E-08
 -1        49-4.25221E+02-1.13592E+03-4.69766E+02-2.05367E+02 3.94012E-08-2.38860E-08
 -1        50-2.84185E+02-6.18401E+02-2.71280E+02-1.84789E+02 4.55919E-08-8.92915E-09
 -1        51 2.09666E+02 1.07792E+03 3.84773E+02 4.38316E+01 1.20791E-10-2.19806E-08
 -1        52 3.69809E+02 1.81002E+03 6.50058E+02 2.07353E+02-8.07115E-09-3.47845E-08
 -1        53 4.27346E+02 1.93328E+03 7.03609E+02 3.65099E+02-1.78750E-08-4.53694E-08
 -1        54 3.52608E+02 1.57924E+03 5.76324E+02 3.71089E+02-1.83609E-08-8.61683E-08
 -1        55 2.35518E+02 1.29798E+03 4.57881E+02 2.72637E+02 5.57669E-09-1.34066E-07
 -1        56 1.96993E+02 1.39552E+03 4.75270E+02 2.17179E+02 4.76356E-08-1.38699E-07
 -1        57 2.16420E+02 1.63134E+03 5.50851E+02 2.69667E+02 7.01415E-08-6.15357E-08
 -1        58 2.17834E+02 1.58278E+03 5.36647E+02 3.54422E+02 5.10168E-08 4.47447E-08
 -1        59 1.11734E+02 1.04551E+03 3.45100E+02 3.77774E+02 9.55249E-09 1.15251E-07
 -1        60-1.13557E+02 7.58239E+01-1.18857E+01 3.22008E+02-3.51085E-08 1.32382E-07
 -1        61-4.52519E+02-1.24492E+03-5.10603E+02 2.10482E+02-5.80262E-08 1.24970E-07
 -1        62-8.64060E+02-2.82916E+03-1.11488E+03 4.84316E+01-5.96725E-08 9.19094E-08
 -1        63-1.32476E+03-4.52769E+03-1.77427E+03-1.41956E+02-5.43121E-08 6.60836E-08
 -1        64-1.77651E+03-6.17738E+03-2.42154E+03-3.07737E+02-4.55268E-08 4.96838E-08
 -1        65-2.21008E+03-7.76569E+03-3.04958E+03-3.99851E+02-3.20854E-08 1.86180E-08
 -1        66-2.64031E+03-9.39980E+03-3.69680E+03-4.15281E+02-2.53959E-08 1.21073E-08
 -1        67-3.04708E+03-1.11534E+04-4.38129E+03-3.29852E+02-2.49280E-08 9.93239E-10
 -1        68-3.81694E+03-1.33594E+04-5.33102E+03-2.31835E+02-1.94600E-08-1.15031E-08
 -1        69-3.14507E+03-1.47104E+04-5.57204E+03 4.82386E+02-8.45482E-09-8.00788E-09
 -1        70 2.09666E+02 1.07792E+03 3.84773E+02 4.38316E+01 1.20763E-10-2.20118E-08
 -1        71 3.69809E+02 1.81002E+03 6.50058E+02 2.07353E+02-8.07114E-09-3.47796E-08
 -1        72 4.27346E+02 1.93328E+03 7.03609E+02 3.65099E+02-1.78752E-08-4.53694E-08
 -1        73 3.52608E+02 1.57924E+03 5.76324E+02 3.71089E+02-1.83630E-08-8.61733E-08
 -1        74 2.35518E+02 1.29798E+03 4.57881E+02 2.72637E+02 5.57876E-09-1.34071E-07
 -1        75 1.96993E+02 1.39552E+03 4.75270E+02 2.17179E+02 4.76356E-08-1.38699E-07
 -1        76 2.16420E+02 1.63134E+03 5.50851E+02 2.69667E+02 7.01415E-08-6.15336E-08
 -1        77 2.17834E+02 1.58278E+03 5.36647E+02 3.54422E+02 5.10165E-08 4.47438E-08
 -1        78 1.11734E+02 1.04551E+03 3.45100E+02 3.77774E+02 9.55335E-09 1.15248E-07
 -1        79-1.13557E+02 7.58239E+01-1.18857E+01 3.22008E+02-3.51094E-08 1.32384E-07
 -1        80-4.52519E+02-1.24492E+03-5.10603E+02 2.10482E+02-5.80257E-08 1.24963E-07
 -1        81-8.64060E+02-2.82916E+03-1.11488E+03 4.84316E+01-5.96725E-08 9.19096E-08
 -1        82-1.32476E+03-4.52769E+03-1.77427E+03-1.41956E+02-5.43121E-08 6.60827E-08
 -1        83-1.77651E+03-6.17738E+03-2.42154E+03-3.07737E+02-4.55269E-08 4.96813E-08
 -1        84-2.21008E+03-7.76569E+03-3.04958E+03-3.99851E+02-3.20847E-08 1.86205E-08
 -1        85-2.64031E+03-9.39980E+03-3.69680E+03-4.15281E+02-2.53950E-08 1.21060E-08
 -1        86-3.04708E+03-1.11534E+04-4.38129E+03-3.29852E+02-2.49280E-08 9.93573E-10
 -1        87-3.81694E+03-1.33594E+04-5.33102E+03-2.31835E+02-1.94600E-08-1.15031E-08
 -1        88-3.14507E+03-1.47104E+04-5.57204E+03 4.82386E+02-8.45481E-09-8.00788E-09
 -1        89-6.79633E+01 5.73371E+02 1.70328E+02 5.54040E+02-4.46694E-09-1.47632E-08
 -1        90-2.10938E+01 7.81004E+02 2.56245E+02 7.55360E+02-1.13372E-08-1.95481E-08
 -1        91 2.82684E+01 8.39875E+02 2.78097E+02 6.63151E+02-1.42620E-08 1.68128E-09
 -1        92 5.54510E+01 8.88158E+02 2.95628E+02 6.45474E+02-1.41647E-08 1.42480E-08
 -1        93 8.60433E+01 9.19898E+02 3.09717E+02 6.37694E+02-1.39986E-08 2.43246E-08
 -1        94 1.10529E+02 9.18242E+02 3.12745E+02 6.60157E+02-2.04031E-08 4.69119E-08
 -1        95 1.52959E+02 9.06578E+02 3.19217E+02 6.89561E+02-2.98596E-08 6.87187E-08
 -1        96 1.67638E+02 8.96286E+02 3.18703E+02 6.81890E+02-3.63586E-08 9.60308E-08
 -1        97 1.53007E+02 9.00375E+02 3.14535E+02 6.18690E+02-4.47086E-08 1.18432E-07
 -1        98 1.14568E+02 9.01686E+02 3.03072E+02 5.24608E+02-5.04763E-08 1.38553E-07
 -1        99 8.39050E+01 9.04088E+02 2.94742E+02 4.11039E+02-4.25367E-08 1.14330E-07
 -1       100 3.34370E+01 9.00736E+02 2.78850E+02 2.73656E+02-2.40600E-08 3.64595E-08
 -1       101-8.42741E+00 8.77580E+02 2.59625E+02 1.50164E+02-1.93555E-09-8.52130E-08
 -1       102-1.68423E+01 7.92286E+02 2.31791E+02 1.23677E+02 1.59857E-08-1.50902E-07
 -1       103 2.66570E+01 6.50855E+02 2.02651E+02 1.98299E+02 2.26766E-08-1.33850E-07
 -1       104 5.34206E+01 5.02242E+02 1.66349E+02 2.52706E+02 1.73843E-08-8.19624E-08
 -1       105 2.54283E+01 4.04547E+02 1.28745E+02 1.63979E+02 1.19461E-08-3.98939E-08
 -1       106-3.27959E+01 3.45839E+02 9.37424E+01-2.47118E+01 1.71652E-08-2.74325E-08
 -1       107-4.13010E+01 2.63812E+02 6.67843E+01-1.09359E+02 2.54538E-08-1.45140E-08
 -1       108-4.13010E+01 2.63812E+02 6.67843E+01-1.09359E+02 2.54538E-08-1.45051E-08
 -1       109-3.27959E+01 3.45839E+02 9.37424E+01-2.47118E+01 1.71652E-08-2.74348E-08
 -1       110 2.54283E+01 4.04547E+02 1.28745E+02 1.63979E+02 1.19465E-08-3.98939E-08
 -1       111 5.34206E+01 5.02242E+02 1.66349E+02 2.52706E+02 1.73841E-08-8.19608E-08
 -1       112 2.66570E+01 6.50855E+02 2.02651E+02 1.98299E+02 2.26764E-08-1.33852E-07
 -1       113-1.68423E+01 7.92286E+02 2.31791E+02 1.23677E+02 1.59857E-08-1.50902E-07
 -1       114-8.42741E+00 8.77580E+02 2.59625E+02 1.50164E+02-1.93554E-09-8.52126E-08
 -1       115 3.34370E+01 9.00736E+02 2.78850E+02 2.73656E+02-2.40596E-08 3.64626E-08
 -1       116 8.39050E+01 9.04088E+02 2.94742E+02 4.11039E+02-4.25369E-08 1.14332E-07
 -1       117 1.14568E+02 9.01686E+02 3.03072E+02 5.24608E+02-5.04760E-08 1.38553E-07
 -1       118 1.53007E+02 9.00375E+02 3.14535E+02 6.18690E+02-4.47087E-08 1.18432E-07
 -1       119 1.67638E+02 8.96286E+02 3.18703E+02 6.81890E+02-3.63586E-08 9.60308E-08
 -1       120 1.52959E+02 9.06578E+02 3.19217E+02 6.89561E+02-2.98597E-08 6.87191E-08
 -1       121 1.10529E+02 9.18242E+02 3.12745E+02 6.60157E+02-2.04032E-08 4.69118E-08
 -1       122 8.60433E+01 9.19898E+02 3.09717E+02 6.37694E+02-1.39986E-08 2.43245E-08
 -1       123 5.54510E+01 8.88158E+02 2.95628E+02 6.45474E+02-1.41647E-08 1.42482E-08
 -1       124 2.82684E+01 8.39875E+02 2.78097E+02 6.63151E+02-1.42621E-08 1.68104E-09
 -1       125-2.10938E+01 7.81004E+02 2.56245E+02 7.55360E+02-1.13372E-08-1.95481E-08
 -1       126-6.79633E+01 5.73371E+02 1.70328E+02 5.54040E+02-4.46695E-09-1.47632E-08
 -3
    1PSTEP                       203          51           1          
  100CL  151 5.10000E-01         126                     1   51           1
 -4  TOSTRAIN    6    1
 -5  EXX         1    4    1    1
 -5  EYY         1    4    2    2
 -5  EZZ         1    4    3    3
 -5  EXY         1    4    1    2
 -5  EYZ         1    4    2    3
 -5  EZX         1    4    3    1
 -1         1-1.11407E-04 3.74685E-02-1.94881E-27 1.50361E-02 2.00521E-19-2.05013E-16
 -1         2-1.11407E-04 3.74685E-02-1.94881E-27 1.50361E-02 2.00521E-19-2.05013E-16
 -1         3 1.18988E-05-5.78573E-04 5.93965E-26-2.66727E-04 1.78129E-13 2.35116E-14
 -1         4 1.18988E-05-5.78573E-04 5.93959E-26-2.66727E-04 1.78127E-13 2.35118E-14
 -1         5-1.78155E-04 1.17341E-03-3.49984E-28-3.15468E-04-1.57689E-14 7.10034E-14
 -1         6-1.78155E-04 1.17341E-03-3.53859E-28-3.15468E-04-1.57653E-14 7.10268E-14
 -1         7-1.05864E-04-3.25757E-02-4.65979E-28 1.30182E-02 4.03788E-19-1.40007E-16
 -1         8-1.05864E-04-3.25757E-02-4.65979E-28 1.30182E-02 4.03788E-19-1.40007E-16
 -1         9-8.31279E-05 3.69551E-04 9.92838E-27-4.09366E-04 8.65095E-14 1.55878E-14
 -1        10-8.31279E-05 3.69551E-04 9.93011E-27-4.09366E-04 8.65126E-14 1.55848E-14
 -1        11-1.08636E-04 1.64030E-03-7.89220E-28 9.53223E-03 3.65449E-19-9.67772E-17
 -1        12-1.08636E-04 1.64030E-03-7.89220E-28 9.53223E-03 3.65449E-19-9.67772E-17
 -1        13-1.04361E-02 3.61630E-02 1.07094E-26 3.42359E-03-1.49785E-14-7.53409E-14
 -1        14-7.74013E-03 3.25634E-02 8.78889E-27 1.38001E-03 3.01375E-15-6.98015E-14
 -1        15-7.05046E-03 2.83890E-02-2.14698E-27 1.46922E-03 1.23397E-14-1.71052E-14
 -1        16-6.17412E-03 2.47450E-02 7.75470E-27 1.30653E-03 6.46911E-15 6.95425E-14
 -1        17-5.41756E-03 2.13082E-02 1.61977E-26 1.24975E-03 6.97287E-15 9.20428E-14
 -1        18-4.70136E-03 1.79009E-02 3.68977E-26 1.24586E-03 9.46750E-15 1.40355E-13
 -1        19-3.83836E-03 1.43100E-02 1.13033E-25 1.28241E-03 1.72269E-14 2.40813E-13
 -1        20-2.99159E-03 1.06146E-02 1.92116E-25 1.25526E-03 2.38983E-15 3.11542E-13
 -1        21-2.21750E-03 7.17074E-03 2.87971E-25 1.09018E-03-2.99742E-14 3.79291E-13
 -1        22-1.61622E-03 4.29137E-03 3.76733E-25 8.32837E-04-1.10740E-13 4.21154E-13
 -1        23-1.06832E-03 2.11994E-03 3.92180E-25 5.44353E-04-2.13617E-13 4.02294E-13
 -1        24-7.50974E-04 8.28432E-04 1.60311E-25 2.22287E-04-3.12926E-13 1.17240E-13
 -1        25-6.54927E-04 4.95898E-04 2.75730E-25-5.94823E-05-2.98743E-13-2.75011E-13
 -1        26-7.02555E-04 6.29661E-04 4.09870E-25-9.94089E-05-1.26666E-13-4.44087E-13
 -1        27-5.46741E-04 3.06197E-04 3.08031E-25 1.42466E-04 4.78142E-14-3.95503E-13
 -1        28-2.00404E-04-8.68576E-04 1.68086E-25 3.56177E-04 1.18535E-13-2.73962E-13
 -1        29 1.83351E-04-2.14250E-03 5.80930E-26 1.93813E-04 1.14344E-13-1.38623E-13
 -1        30 2.98760E-04-2.33180E-03 4.25437E-26-2.30717E-04 1.12903E-13-9.87431E-14
 -1        31 1.28263E-04-1.30257E-03 4.25652E-26-3.82162E-04 1.41228E-13-5.40097E-14
 -1        32-1.04361E-02 3.61630E-02 1.07094E-26 3.42359E-03-1.49785E-14-7.53409E-14
 -1        33-7.74013E-03 3.25634E-02 8.78889E-27 1.38001E-03 3.01377E-15-6.98015E-14
 -1        34-7.05046E-03 2.83890E-02-2.14699E-27 1.46922E-03 1.23398E-14-1.71053E-14
 -1        35-6.17412E-03 2.47450E-02 7.75469E-27 1.30653E-03 6.46914E-15 6.95425E-14
 -1        36-5.41756E-03 2.13082E-02 1.61977E-26 1.24975E-03 6.97268E-15 9.20428E-14
 -1        37-4.70136E-03 1.79009E-02 3.68981E-26 1.24586E-03 9.46889E-15 1.40355E-13
 -1        38-3.83836E-03 1.43100E-02 1.13032E-25 1.28241E-03 1.72278E-14 2.40813E-13
 -1        39-2.99159E-03 1.06146E-02 1.92116E-25 1.25526E-03 2.38986E-15 3.11542E-13
 -1        40-2.21750E-03 7.17074E-03 2.87971E-25 1.09018E-03-2.99742E-14 3.79291E-13
 -1        41-1.61622E-03 4.29137E-03 3.76733E-25 8.32837E-04-1.10741E-13 4.21154E-13
 -1        42-1.06832E-03 2.11994E-03 3.92181E-25 5.44353E-04-2.13617E-13 4.02295E-13
 -1        43-7.50974E-04 8.28432E-04 1.60308E-25 2.22287E-04-3.12928E-13 1.17234E-13
 -1        44-6.54927E-04 4.95898E-04 2.75738E-25-5.94823E-05-2.98744E-13-2.75017E-13
 -1        45-7.02555E-04 6.29661E-04 4.09868E-25-9.94089E-05-1.26666E-13-4.44086E-13
 -1        46-5.46741E-04 3.06197E-04 3.08022E-25 1.42466E-04 4.78155E-14-3.95498E-13
 -1        47-2.00404E-04-8.68576E-04 1.68089E-25 3.56177E-04 1.18535E-13-2.73963E-13
 -1        48 1.83351E-04-2.14250E-03 5.80939E-26 1.93813E-04 1.14344E-13-1.38622E-13
 -1        49 2.98760E-04-2.33180E-03 4.25589E-26-2.30717E-04 1.12893E-13-9.87931E-14
 -1        50 1.28263E-04-1.30257E-03 4.25582E-26-3.82162E-04 1.41236E-13-5.39664E-14
 -1        51-5.34934E-04 2.20547E-03 4.14649E-27-3.42683E-04-1.18840E-14-7.04253E-14
 -1        52-1.00540E-03 3.82897E-03 2.37498E-26-1.71607E-04-4.53774E-14-1.06707E-13
 -1        53-1.16429E-03 4.22088E-03 4.35400E-26 2.51322E-04-8.29838E-14-1.34658E-13
 -1        54-1.02822E-03 3.53122E-03 1.51282E-25 4.14356E-04-1.08825E-13-2.64486E-13
 -1        55-9.26573E-04 2.91438E-03 3.72507E-25 2.06156E-04-6.13957E-14-4.31655E-13
 -1        56-1.02908E-03 3.09265E-03 4.37929E-25-4.35416E-05 6.92477E-14-4.71505E-13
 -1        57-1.25095E-03 3.64330E-03 1.31801E-25-1.85911E-05 1.86201E-13-2.38668E-13
 -1        58-1.30752E-03 3.63810E-03 4.41953E-26 2.56867E-04 1.89118E-13 1.11870E-13
 -1        59-1.10718E-03 2.60530E-03 2.58020E-25 5.78846E-04 1.00385E-13 3.62111E-13
 -1        60-6.97395E-04 6.46433E-04 3.92213E-25 8.58722E-04-3.16718E-14 4.44365E-13
 -1        61-1.54537E-04-2.05485E-03 3.99723E-25 1.10804E-03-1.11032E-13 4.34684E-13
 -1        62 5.38030E-04-5.35387E-03 2.50914E-25 1.27981E-03-1.38771E-13 3.29391E-13
 -1        63 1.28060E-03-8.92979E-03 1.53006E-25 1.31641E-03-1.39566E-13 2.42363E-13
 -1        64 1.99845E-03-1.24176E-02 9.32112E-26 1.27319E-03-1.23265E-13 1.83294E-13
 -1        65 2.65448E-03-1.57495E-02 2.70565E-26 1.26968E-03-9.70139E-14 7.48806E-14
 -1        66 3.32850E-03-1.91689E-02 1.70157E-26 1.32834E-03-7.94053E-14 4.92620E-14
 -1        67 4.14973E-03-2.28809E-02 1.36072E-26 1.51267E-03-8.30335E-14 1.11946E-14
 -1        68 4.66690E-03-2.73812E-02 1.08110E-26 1.42736E-03-6.82120E-14-3.30918E-14
 -1        69 7.50793E-03-3.12594E-02 2.30344E-27 3.08411E-03-2.94641E-14-2.50335E-14
 -1        70-5.34934E-04 2.20547E-03 4.17001E-27-3.42683E-04-1.19014E-14-7.05249E-14
 -1        71-1.00540E-03 3.82897E-03 2.37451E-26-1.71607E-04-4.53746E-14-1.06692E-13
 -1        72-1.16429E-03 4.22088E-03 4.35399E-26 2.51322E-04-8.29847E-14-1.34658E-13
 -1        73-1.02822E-03 3.53122E-03 1.51300E-25 4.14356E-04-1.08835E-13-2.64501E-13
 -1        74-9.26573E-04 2.91438E-03 3.72536E-25 2.06156E-04-6.13921E-14-4.31672E-13
 -1        75-1.02908E-03 3.09265E-03 4.37929E-25-4.35416E-05 6.92476E-14-4.71506E-13
 -1        76-1.25095E-03 3.64330E-03 1.31794E-25-1.85911E-05 1.86202E-13-2.38662E-13
 -1        77-1.30752E-03 3.63810E-03 4.41961E-26 2.56867E-04 1.89117E-13 1.11867E-13
 -1        78-1.10718E-03 2.60530E-03 2.58008E-25 5.78846E-04 1.00386E-13 3.62101E-13
 -1        79-6.97395E-04 6.46433E-04 3.92225E-25 8.58722E-04-3.16736E-14 4.44371E-13
 -1        80-1.54537E-04-2.05485E-03 3.99688E-25 1.10804E-03-1.11034E-13 4.34663E-13
 -1        81 5.38030E-04-5.35387E-03 2.50914E-25 1.27981E-03-1.38771E-13 3.29391E-13
 -1        82 1.28060E-03-8.92979E-03 1.53003E-25 1.31641E-03-1.39567E-13 2.42360E-13
 -1        83 1.99845E-03-1.24176E-02 9.32073E-26 1.27319E-03-1.23267E-13 1.83287E-13
 -1        84 2.65448E-03-1.57495E-02 2.70585E-26 1.26968E-03-9.70105E-14 7.48882E-14
 -1        85 3.32850E-03-1.91689E-02 1.70141E-26 1.32834E-03-7.94031E-14 4.92573E-14
 -1        86 4.14973E-03-2.28809E-02 1.36072E-26 1.51267E-03-8.30334E-14 1.11957E-14
 -1        87 4.66690E-03-2.73812E-02 1.08110E-26 1.42736E-03-6.82120E-14-3.30918E-14
 -1        88 7.50793E-03-3.12594E-02 2.30344E-27 3.08411E-03-2.94640E-14-2.50335E-14
 -1        89-1.46406E-03 2.08693E-03 4.25381E-27 1.71157E-03-1.59012E-14-4.74913E-14
 -1        90-1.53662E-03 2.53604E-03 9.14908E-27 2.24305E-03-4.07610E-14-6.08244E-14
 -1        91-1.45037E-03 2.57864E-03 2.29637E-27 1.85381E-03-4.54118E-14 9.97168E-15
 -1        92-1.42281E-03 2.64757E-03 7.41709E-27 1.70833E-03-3.99996E-14 5.16157E-14
 -1        93-1.38154E-03 2.68430E-03 1.46031E-26 1.60999E-03-3.39294E-14 8.47615E-14
 -1        94-1.35145E-03 2.68108E-03 5.19303E-26 1.62857E-03-4.16798E-14 1.61103E-13
 -1        95-1.27888E-03 2.64757E-03 1.14816E-25 1.69562E-03-5.78285E-14 2.36800E-13
 -1        96-1.22678E-03 2.60163E-03 2.19816E-25 1.64954E-03-6.05484E-14 3.28501E-13
 -1        97-1.18602E-03 2.54791E-03 3.37867E-25 1.42548E-03-7.18127E-14 4.05453E-13
 -1        98-1.15681E-03 2.47120E-03 4.59005E-25 1.10851E-03-7.67849E-14 4.73423E-13
 -1        99-1.08775E-03 2.36644E-03 2.95372E-25 7.46029E-04-6.59386E-14 3.91171E-13
 -1       100-1.02925E-03 2.23878E-03-1.86948E-26 3.09225E-04-5.45725E-14 1.31079E-13
 -1       101-9.52937E-04 2.07892E-03 9.95748E-26-6.77859E-05-5.71794E-14-2.71126E-13
 -1       102-8.65819E-04 1.87103E-03 4.76460E-25-9.85003E-05-3.87394E-14-4.91827E-13
 -1       103-7.36657E-04 1.61534E-03 3.84155E-25 2.36971E-04-6.82062E-15-4.41283E-13
 -1       104-6.14312E-04 1.33498E-03 1.36419E-25 5.06240E-04 7.39378E-15-2.72275E-13
 -1       105-4.90468E-04 1.04743E-03 2.99646E-26 2.82112E-04 1.50732E-14-1.34530E-13
 -1       106-3.53321E-04 7.58524E-04 1.92588E-26-2.86703E-04 3.92925E-14-9.75163E-14
 -1       107-2.03336E-04 4.92286E-04 1.47237E-26-5.01701E-04 7.33173E-14-6.06220E-14
 -1       108-2.03336E-04 4.92286E-04 1.47159E-26-5.01701E-04 7.33220E-14-6.05935E-14
 -1       109-3.53321E-04 7.58524E-04 1.92608E-26-2.86703E-04 3.92913E-14-9.75236E-14
 -1       110-4.90468E-04 1.04743E-03 2.99646E-26 2.82112E-04 1.50747E-14-1.34530E-13
 -1       111-6.14312E-04 1.33498E-03 1.36411E-25 5.06240E-04 7.39398E-15-2.72270E-13
 -1       112-7.36657E-04 1.61534E-03 3.84168E-25 2.36971E-04-6.82283E-15-4.41292E-13
 -1       113-8.65819E-04 1.87103E-03 4.76464E-25-9.85003E-05-3.87398E-14-4.91830E-13
 -1       114-9.52937E-04 2.07892E-03 9.95731E-26-6.77859E-05-5.71792E-14-2.71124E-13
 -1       115-1.02925E-03 2.23878E-03-1.86891E-26 3.09225E-04-5.45692E-14 1.31088E-13
 -1       116-1.08775E-03 2.36644E-03 2.95380E-25 7.46029E-04-6.59385E-14 3.91176E-13
 -1       117-1.15681E-03 2.47120E-03 4.59003E-25 1.10851E-03-7.67844E-14 4.73422E-13
 -1       118-1.18602E-03 2.54791E-03 3.37867E-25 1.42548E-03-7.18130E-14 4.05453E-13
 -1       119-1.22678E-03 2.60163E-03 2.19817E-25 1.64954E-03-6.05483E-14 3.28501E-13
 -1       120-1.27888E-03 2.64757E-03 1.14817E-25 1.69562E-03-5.78286E-14 2.36801E-13
 -1       121-1.35145E-03 2.68108E-03 5.19299E-26 1.62857E-03-4.16803E-14 1.61103E-13
 -1       122-1.38154E-03 2.68430E-03 1.46029E-26 1.60999E-03-3.39295E-14 8.47609E-14
 -1       123-1.42281E-03 2.64757E-03 7.41720E-27 1.70833E-03-3.99996E-14 5.16162E-14
 -1       124-1.45037E-03 2.57864E-03 2.29640E-27 1.85381E-03-4.54121E-14 9.97090E-15
 -1       125-1.53662E-03 2.53604E-03 9.14908E-27 2.24305E-03-4.07610E-14-6.08243E-14
 -1       126-1.46406E-03 2.08693E-03 4.25381E-27 1.71157E-03-1.59012E-14-4.74913E-14
 -3
    1PSTEP                       204          51           1          
  100CL  151 5.10000E-01         126                     1   51           1
 -4  ERROR       1    1
 -5  STR(%)      1    1    0    0
 -1         1 6.04562E+01
 -1         2 6.04562E+01
 -1         3 6.37061E+01
 -1         4 6.37061E+01
 -1         5 2.58041E+01
 -1         6 2.58041E+01
 -1         7 6.50084E+01
 -1         8 6.50084E+01
 -1         9 6.37061E+01
 -1        10 6.37061E+01
 -1        11 6.50084E+01
 -1        12 6.50084E+01
 -1        13 6.04562E+01
 -1        14 5.68188E+01
 -1        15 5.61502E+01
 -1        16 5.49077E+01
 -1        17 5.35412E+01
 -1        18 5.20468E+01
 -1        19 4.97487E+01
 -1        20 4.59266E+01
 -1        21 3.88615E+01
 -1        22 2.61427E+01
 -1        23 2.79977E+01
 -1        24 4.91354E+01
 -1        25 4.91354E+01
 -1        26 4.38232E+01
 -1        27 7.05634E+01
 -1        28 8.13985E+01
 -1        29 8.13985E+01
 -1        30 7.65004E+01
 -1        31 7.40654E+01
 -1        32 6.04562E+01
 -1        33 5.68188E+01
 -1        34 5.61502E+01
 -1        35 5.49077E+01
 -1        36 5.35412E+01
 -1        37 5.20468E+01
 -1        38 4.97487E+01
 -1        39 4.59266E+01
 -1        40 3.88615E+01
 -1        41 2.61427E+01
 -1        42 2.79977E+01
 -1        43 4.91354E+01
 -1        44 4.91354E+01
 -1        45 4.38232E+01
 -1        46 7.05634E+01
 -1        47 8.13985E+01
 -1        48 8.13985E+01
 -1        49 7.65004E+01
 -1        50 7.40654E+01
 -1        51 4.39178E+01
 -1        52 4.53006E+01
 -1        53 4.53006E+01
 -1        54 3.94047E+01
 -1        55 2.55799E+01
 -1        56 1.84695E+01
 -1        57 2.05388E+01
 -1        58 2.05388E+01
 -1        59 1.24790E+01
 -1        60 6.83031E+01
 -1        61 8.28804E+01
 -1        62 8.49824E+01
 -1        63 8.49824E+01
 -1        64 8.18722E+01
 -1        65 7.69845E+01
 -1        66 7.35935E+01
 -1        67 7.10698E+01
 -1        68 6.90987E+01
 -1        69 6.76453E+01
 -1        70 4.39178E+01
 -1        71 4.53006E+01
 -1        72 4.53006E+01
 -1        73 3.94047E+01
 -1        74 2.55799E+01
 -1        75 1.84695E+01
 -1        76 2.05388E+01
 -1        77 2.05388E+01
 -1        78 1.24790E+01
 -1        79 6.83031E+01
 -1        80 8.28804E+01
 -1        81 8.49824E+01
 -1        82 8.49824E+01
 -1        83 8.18722E+01
 -1        84 7.69845E+01
 -1        85 7.35935E+01
 -1        86 7.10698E+01
 -1        87 6.90987E+01
 -1        88 6.76453E+01
 -1        89 6.76453E+01
 -1        90 6.90987E+01
 -1        91 7.10698E+01
 -1        92 7.35935E+01
 -1        93 7.69845E+01
 -1        94 8.18722E+01
 -1        95 8.49824E+01
 -1        96 8.49824E+01
 -1        97 8.28804E+01
 -1        98 6.83031E+01
 -1        99 2.79977E+01
 -1       100 4.91354E+01
 -1       101 4.91354E+01
 -1       102 4.38232E+01
 -1       103 7.05634E+01
 -1       104 8.13985E+01
 -1       105 8.13985E+01
 -1       106 7.65004E+01
 -1       107 7.40654E+01
 -1       108 7.40654E+01
 -1       109 7.65004E+01
 -1       110 8.13985E+01
 -1       111 8.13985E+01
 -1       112 7.05634E+01
 -1       113 4.38232E+01
 -1       114 4.91354E+01
 -1       115 4.91354E+01
 -1       116 2.79977E+01
 -1       117 6.83031E+01
 -1       118 8.28804E+01
 -1       119 8.49824E+01
 -1       120 8.49824E+01
 -1       121 8.18722E+01
 -1       122 7.69845E+01
 -1       123 7.35935E+01
 -1       124 7.10698E+01
 -1       125 6.90987E+01
 -1       126 6.76453E+01
 -3
    1PSTEP                       205          52           1          
  100CL  152 5.20000E-01         126                     1   52           1
 -4  DISP        4    1
 -5  D1          1    2    1    0
 -5  D2          1    2    2    0
 -5  D3          1    2    3    0
 -5  ALL         1    2    0    0    1ALL
 -1         1 0.00000E+00 0.00000E+00 0.00000E+00
 -1         2 0.00000E+00 0.00000E+00 0.00000E+00
 -1         3 1.60679E-01-3.26332E-03 0.00000E+00
 -1         4 1.60679E-01-3.26332E-03 0.00000E+00
 -1         5 1.59081E-01-2.10219E-02 0.00000E+00
 -1         6 1.59081E-01-2.10219E-02 0.00000E+00
 -1         7 0.00000E+00 0.00000E+00 0.00000E+00
 -1         8 0.00000E+00 0.00000E+00 0.00000E+00
 -1         9 1.59886E-01-1.21354E-02 0.00000E+00
 -1        10 1.59886E-01-1.21354E-02 0.00000E+00
 -1        11 0.00000E+00 0.00000E+00 0.00000E+00
 -1        12 0.00000E+00 0.00000E+00 0.00000E+00
 -1        13 1.48383E-03 1.80166E-03 0.00000E+00
 -1        14 4.28471E-03 3.42874E-03 0.00000E+00
 -1        15 8.61968E-03 4.74219E-03 0.00000E+00
 -1        16 1.42489E-02 5.76162E-03 0.00000E+00
 -1        17 2.10007E-02 6.47997E-03 0.00000E+00
 -1        18 2.86992E-02 6.90433E-03 0.00000E+00
 -1        19 3.71769E-02 7.04198E-03 0.00000E+00
 -1        20 4.62715E-02 6.89452E-03 0.00000E+00
 -1        21 5.57773E-02 6.48576E-03 0.00000E+00
 -1        22 6.54981E-02 5.87812E-03 0.00000E+00
 -1        23 7.53061E-02 5.15228E-03 0.00000E+00
 -1        24 8.51746E-02 4.35897E-03 0.00000E+00
 -1        25 9.50908E-02 3.50658E-03 0.00000E+00
 -1        26 1.05007E-01 2.58325E-03 0.00000E+00
 -1        27 1.14832E-01 1.58822E-03 0.00000E+00
 -1        28 1.24478E-01 5.38096E-04 0.00000E+00
 -1        29 1.33864E-01-5.26193E-04 0.00000E+00
 -1        30 1.42962E-01-1.54039E-03 0.00000E+00
 -1        31 1.51843E-01-2.44785E-03 0.00000E+00
 -1        32 1.48383E-03 1.80166E-03 0.00000E+00
 -1        33 4.28471E-03 3.42874E-03 0.00000E+00
 -1        34 8.61968E-03 4.74219E-03 0.00000E+00
 -1        35 1.42489E-02 5.76162E-03 0.00000E+00
 -1        36 2.10007E-02 6.47997E-03 0.00000E+00
 -1        37 2.86992E-02 6.90433E-03 0.00000E+00
 -1        38 3.71769E-02 7.04198E-03 0.00000E+00
 -1        39 4.62715E-02 6.89452E-03 0.00000E+00
 -1        40 5.57773E-02 6.48576E-03 0.00000E+00
 -1        41 6.54981E-02 5.87812E-03 0.00000E+00
 -1        42 7.53061E-02 5.15228E-03 0.00000E+00
 -1        43 8.51746E-02 4.35897E-03 0.00000E+00
 -1        44 9.50908E-02 3.50658E-03 0.00000E+00
 -1        45 1.05007E-01 2.58325E-03 0.00000E+00
 -1        46 1.14832E-01 1.58822E-03 0.00000E+00
 -1        47 1.24478E-01 5.38096E-04 0.00000E+00
 -1        48 1.33864E-01-5.26193E-04 0.00000E+00
 -1        49 1.42962E-01-1.54039E-03 0.00000E+00
 -1        50 1.51843E-01-2.44785E-03 0.00000E+00
 -1        51 1.50216E-01-2.02904E-02 0.00000E+00
 -1        52 1.41269E-01-1.96630E-02 0.00000E+00
 -1        53 1.32074E-01-1.90891E-02 0.00000E+00
 -1        54 1.22584E-01-1.84876E-02 0.00000E+00
 -1        55 1.12853E-01-1.78065E-02 0.00000E+00
 -1        56 1.02973E-01-1.70321E-02 0.00000E+00
 -1        57 9.30356E-02-1.61770E-02 0.00000E+00
 -1        58 8.31238E-02-1.52715E-02 0.00000E+00
 -1        59 7.32775E-02-1.43415E-02 0.00000E+00
 -1        60 6.35085E-02-1.33819E-02 0.00000E+00
 -1        61 5.38654E-02-1.23557E-02 0.00000E+00
 -1        62 4.44905E-02-1.12315E-02 0.00000E+00
 -1        63 3.55833E-02-1.00131E-02 0.00000E+00
 -1        64 2.73354E-02-8.73213E-03 0.00000E+00
 -1        65 1.98985E-02-7.41525E-03 0.00000E+00
 -1        66 1.34150E-02-6.06804E-03 0.00000E+00
 -1        67 8.04166E-03-4.68151E-03 0.00000E+00
 -1        68 3.92133E-03-3.23710E-03 0.00000E+00
 -1        69 1.28838E-03-1.65416E-03 0.00000E+00
 -1        70 1.50216E-01-2.02904E-02 0.00000E+00
 -1        71 1.41269E-01-1.96630E-02 0.00000E+00
 -1        72 1.32074E-01-1.90891E-02 0.00000E+00
 -1        73 1.22584E-01-1.84876E-02 0.00000E+00
 -1        74 1.12853E-01-1.78065E-02 0.00000E+00
 -1        75 1.02973E-01-1.70321E-02 0.00000E+00
 -1        76 9.30356E-02-1.61770E-02 0.00000E+00
 -1        77 8.31238E-02-1.52715E-02 0.00000E+00
 -1        78 7.32775E-02-1.43415E-02 0.00000E+00
 -1        79 6.35085E-02-1.33819E-02 0.00000E+00
 -1        80 5.38654E-02-1.23557E-02 0.00000E+00
 -1        81 4.44905E-02-1.12315E-02 0.00000E+00
 -1        82 3.55833E-02-1.00131E-02 0.00000E+00
 -1        83 2.73354E-02-8.73213E-03 0.00000E+00
 -1        84 1.98985E-02-7.41525E-03 0.00000E+00
 -1        85 1.34150E-02-6.06804E-03 0.00000E+00
 -1        86 8.04166E-03-4.68151E-03 0.00000E+00
 -1        87 3.92133E-03-3.23710E-03 0.00000E+00
 -1        88 1.28838E-03-1.65416E-03 0.00000E+00
 -1        89 9.40988E-04 7.53971E-05 0.00000E+00
 -1        90 3.79350E-03 1.19340E-04 0.00000E+00
 -1        91 8.04818E-03 6.07197E-05 0.00000E+00
 -1        92 1.35895E-02-1.21914E-04 0.00000E+00
 -1        93 2.02423E-02-4.36887E-04 0.00000E+00
 -1        94 2.78431E-02-8.84159E-04 0.00000E+00
 -1        95 3.62434E-02-1.45928E-03 0.00000E+00
 -1        96 4.52829E-02-2.14844E-03 0.00000E+00
 -1        97 5.47595E-02-2.92163E-03 0.00000E+00
 -1        98 6.44663E-02-3.74304E-03 0.00000E+00
 -1        99 7.42705E-02-4.58876E-03 0.00000E+00
 -1       100 8.41364E-02-5.45230E-03 0.00000E+00
 -1       101 9.40611E-02-6.33327E-03 0.00000E+00
 -1       102 1.04002E-01-7.22480E-03 0.00000E+00
 -1       103 1.13873E-01-8.11231E-03 0.00000E+00
 -1       104 1.23576E-01-8.97988E-03 0.00000E+00
 -1       105 1.33019E-01-9.81326E-03 0.00000E+00
 -1       106 1.42154E-01-1.06050E-02 0.00000E+00
 -1       107 1.51047E-01-1.13679E-02 0.00000E+00
 -1       108 1.51047E-01-1.13679E-02 0.00000E+00
 -1       109 1.42154E-01-1.06050E-02 0.00000E+00
 -1       110 1.33019E-01-9.81326E-03 0.00000E+00
 -1       111 1.23576E-01-8.97988E-03 0.00000E+00
 -1       112 1.13873E-01-8.11231E-03 0.00000E+00
 -1       113 1.04002E-01-7.22480E-03 0.00000E+00
 -1       114 9.40611E-02-6.33327E-03 0.00000E+00
 -1       115 8.41364E-02-5.45230E-03 0.00000E+00
 -1       116 7.42705E-02-4.58876E-03 0.00000E+00
 -1       117 6.44663E-02-3.74304E-03 0.00000E+00
 -1       118 5.47595E-02-2.92163E-03 0.00000E+00
 -1       119 4.52829E-02-2.14844E-03 0.00000E+00
 -1       120 3.62434E-02-1.45928E-03 0.00000E+00
 -1       121 2.78431E-02-8.84159E-04 0.00000E+00
 -1       122 2.02423E-02-4.36887E-04 0.00000E+00
 -1       123 1.35895E-02-1.21914E-04 0.00000E+00
 -1       124 8.04818E-03 6.07197E-05 0.00000E+00
 -1       125 3.79350E-03 1.19340E-04 0.00000E+00
 -1       126 9.40988E-04 7.53971E-05 0.00000E+00
 -3
    1PSTEP                       206          52           1          
  100CL  152 5.20000E-01         126                     1   52           1
 -4  STRESS      6    1
 -5  SXX         1    4    1    1
 -5  SYY         1    4    2    2
 -5  SZZ         1    4    3    3
 -5  SXY         1    4    1    2
 -5  SYZ         1    4    2    3
 -5  SZX         1    4    3    1
 -1         1 8.49254E+03 2.04513E+04 8.26746E+03 5.08951E+03 1.63689E-10 1.07366E-10
 -1         2 8.49254E+03 2.04513E+04 8.26746E+03 5.08951E+03 1.63689E-10 1.07366E-10
 -1         3-1.67139E+02-2.62193E+02-1.28872E+02-1.19284E+02 3.99343E-08 1.79762E-07
 -1         4-1.67139E+02-2.62193E+02-1.28872E+02-1.19284E+02 3.99349E-08 1.79760E-07
 -1         5 1.56661E+02 6.26840E+02 2.34650E+02-2.55989E+01-1.11483E-07 1.73733E-07
 -1         6 1.56661E+02 6.26840E+02 2.34650E+02-2.55989E+01-1.11483E-07 1.73751E-07
 -1         7-7.52718E+03-1.70048E+04-7.68478E+03 3.55925E+03 2.34036E-10-1.75197E-10
 -1         8-7.52718E+03-1.70048E+04-7.68478E+03 3.55925E+03 2.34036E-10-1.75197E-10
 -1         9-1.24292E+00 2.34615E+02 6.99471E+01-1.05842E+02-3.38548E-08 1.79911E-07
 -1        10-1.24292E+00 2.34615E+02 6.99471E+01-1.05842E+02-3.38558E-08 1.79912E-07
 -1        11 4.49942E+02 6.61506E+02 3.88453E+02 2.89901E+03 2.03163E-10-1.30292E-11
 -1        12 4.49942E+02 6.61506E+02 3.88453E+02 2.89901E+03 2.03163E-10-1.30292E-11
 -1        13 2.79135E+03 1.74122E+04 5.78333E+03 1.62196E+03-3.85792E-09 2.99095E-08
 -1        14 3.45260E+03 1.60825E+04 5.61464E+03 1.27148E+03-2.58984E-08 4.02271E-08
 -1        15 2.97836E+03 1.39826E+04 4.89754E+03 1.50213E+03-4.44117E-08 2.28474E-08
 -1        16 2.69103E+03 1.22170E+04 4.32274E+03 1.56566E+03-4.79804E-08-1.29998E-08
 -1        17 2.35918E+03 1.05081E+04 3.74589E+03 1.57080E+03-3.08047E-08-7.14564E-08
 -1        18 1.99457E+03 8.84018E+03 3.16636E+03 1.50948E+03-2.56526E-09-8.56185E-08
 -1        19 1.66218E+03 7.14217E+03 2.58359E+03 1.39096E+03 1.16648E-08-5.86491E-08
 -1        20 1.26438E+03 5.36439E+03 1.95391E+03 1.20201E+03 1.41597E-08-4.07369E-08
 -1        21 8.51662E+02 3.73752E+03 1.35870E+03 9.33432E+02 5.99392E-09-2.48711E-09
 -1        22 4.85773E+02 2.54203E+03 8.99554E+02 6.56745E+02-2.32330E-09 2.99216E-08
 -1        23 2.86760E+02 1.84809E+03 6.35662E+02 4.63101E+02-1.34336E-08 5.76759E-08
 -1        24 1.49982E+02 1.35855E+03 4.49699E+02 3.77170E+02-1.72121E-08 6.96275E-08
 -1        25 2.23068E+01 7.88035E+02 2.41767E+02 3.17773E+02-1.88196E-08 6.74374E-08
 -1        26-1.69204E+02 3.31284E+01-4.11467E+01 2.17220E+02-2.78124E-08 4.30658E-08
 -1        27-3.52841E+02-7.76322E+02-3.39252E+02 6.71534E+01-2.69839E-08-2.12267E-12
 -1        28-5.22728E+02-1.45341E+03-5.94685E+02-9.61973E+01-3.15984E-09-3.39019E-08
 -1        29-5.94312E+02-1.70931E+03-6.93936E+02-2.45409E+02 3.92401E-08-4.46174E-08
 -1        30-5.29258E+02-1.36580E+03-5.70641E+02-3.12218E+02 6.43057E-08 1.27361E-08
 -1        31-3.16820E+02-6.48132E+02-2.90081E+02-2.21574E+02 6.16948E-08 9.52461E-08
 -1        32 2.79135E+03 1.74122E+04 5.78333E+03 1.62196E+03-3.85792E-09 2.99095E-08
 -1        33 3.45260E+03 1.60825E+04 5.61464E+03 1.27148E+03-2.58984E-08 4.02271E-08
 -1        34 2.97836E+03 1.39826E+04 4.89754E+03 1.50213E+03-4.44117E-08 2.28475E-08
 -1        35 2.69103E+03 1.22170E+04 4.32274E+03 1.56566E+03-4.79804E-08-1.30004E-08
 -1        36 2.35918E+03 1.05081E+04 3.74589E+03 1.57080E+03-3.08046E-08-7.14560E-08
 -1        37 1.99457E+03 8.84018E+03 3.16636E+03 1.50948E+03-2.56538E-09-8.56181E-08
 -1        38 1.66218E+03 7.14217E+03 2.58359E+03 1.39096E+03 1.16653E-08-5.86494E-08
 -1        39 1.26438E+03 5.36439E+03 1.95391E+03 1.20201E+03 1.41597E-08-4.07368E-08
 -1        40 8.51662E+02 3.73752E+03 1.35870E+03 9.33432E+02 5.99396E-09-2.48665E-09
 -1        41 4.85773E+02 2.54203E+03 8.99554E+02 6.56745E+02-2.32326E-09 2.99215E-08
 -1        42 2.86760E+02 1.84809E+03 6.35662E+02 4.63101E+02-1.34336E-08 5.76759E-08
 -1        43 1.49982E+02 1.35855E+03 4.49699E+02 3.77170E+02-1.72121E-08 6.96275E-08
 -1        44 2.23068E+01 7.88035E+02 2.41767E+02 3.17773E+02-1.88194E-08 6.74395E-08
 -1        45-1.69204E+02 3.31284E+01-4.11467E+01 2.17220E+02-2.78125E-08 4.30637E-08
 -1        46-3.52841E+02-7.76322E+02-3.39252E+02 6.71534E+01-2.69839E-08-2.72950E-13
 -1        47-5.22728E+02-1.45341E+03-5.94685E+02-9.61973E+01-3.15985E-09-3.39024E-08
 -1        48-5.94312E+02-1.70931E+03-6.93936E+02-2.45409E+02 3.92402E-08-4.46128E-08
 -1        49-5.29258E+02-1.36580E+03-5.70641E+02-3.12218E+02 6.43056E-08 1.27396E-08
 -1        50-3.16820E+02-6.48132E+02-2.90081E+02-2.21574E+02 6.16944E-08 9.52440E-08
 -1        51 2.24776E+02 1.16661E+03 4.15648E+02 3.36307E+01-8.39719E-08 9.47487E-08
 -1        52 4.42092E+02 2.16496E+03 7.76689E+02 1.99379E+02-4.58048E-08 2.20606E-10
 -1        53 5.99451E+02 2.70192E+03 9.82006E+02 4.09426E+02-2.63021E-09-6.05867E-08
 -1        54 6.04886E+02 2.62143E+03 9.59619E+02 5.22418E+02 2.58630E-08-3.43768E-08
 -1        55 4.82848E+02 2.12953E+03 7.77765E+02 5.15936E+02 2.96642E-08 1.33298E-08
 -1        56 3.14855E+02 1.49346E+03 5.39157E+02 4.38449E+02 1.32291E-08 5.84845E-08
 -1        57 1.22802E+02 9.03860E+02 3.06503E+02 3.33180E+02-2.20873E-09 7.24963E-08
 -1        58-3.02183E+01 4.69690E+02 1.31304E+02 2.38281E+02-1.49634E-08 6.62285E-08
 -1        59-1.57271E+02 6.60868E+01-2.73998E+01 1.94628E+02-3.47647E-08 5.46025E-08
 -1        60-3.18815E+02-6.11599E+02-2.79214E+02 1.81387E+02-4.55456E-08 2.77796E-08
 -1        61-6.06091E+02-1.78267E+03-7.19053E+02 1.19743E+02-4.41625E-08-9.37450E-09
 -1        62-1.00372E+03-3.33767E+03-1.31215E+03-3.68852E+01-3.28270E-08-4.72108E-08
 -1        63-1.46120E+03-5.00246E+03-1.96198E+03-2.35539E+02-1.74338E-08-6.62091E-08
 -1        64-1.89930E+03-6.59550E+03-2.58907E+03-3.91298E+02 4.32054E-09-8.67249E-08
 -1        65-2.30672E+03-8.14261E+03-3.19788E+03-4.67224E+02 2.06555E-08-5.88618E-08
 -1        66-2.70692E+03-9.72765E+03-3.82206E+03-4.74633E+02 2.01282E-08-5.87522E-09
 -1        67-3.08537E+03-1.13650E+04-4.46170E+03-3.82599E+02 9.91980E-09 2.81580E-08
 -1        68-3.81353E+03-1.33991E+04-5.34302E+03-2.65701E+02-2.67185E-09 4.82769E-08
 -1        69-3.12612E+03-1.46264E+04-5.53853E+03 4.66733E+02-9.15192E-09 3.75539E-08
 -1        70 2.24776E+02 1.16661E+03 4.15648E+02 3.36307E+01-8.39708E-08 9.47624E-08
 -1        71 4.42092E+02 2.16496E+03 7.76689E+02 1.99379E+02-4.58052E-08 2.18744E-10
 -1        72 5.99451E+02 2.70192E+03 9.82006E+02 4.09426E+02-2.62988E-09-6.05687E-08
 -1        73 6.04886E+02 2.62143E+03 9.59619E+02 5.22418E+02 2.58631E-08-3.43667E-08
 -1        74 4.82848E+02 2.12953E+03 7.77765E+02 5.15936E+02 2.96644E-08 1.33399E-08
 -1        75 3.14855E+02 1.49346E+03 5.39157E+02 4.38449E+02 1.32290E-08 5.84848E-08
 -1        76 1.22802E+02 9.03860E+02 3.06503E+02 3.33180E+02-2.20873E-09 7.24961E-08
 -1        77-3.02183E+01 4.69690E+02 1.31304E+02 2.38281E+02-1.49634E-08 6.62302E-08
 -1        78-1.57271E+02 6.60868E+01-2.73998E+01 1.94628E+02-3.47648E-08 5.46024E-08
 -1        79-3.18815E+02-6.11599E+02-2.79214E+02 1.81387E+02-4.55457E-08 2.77805E-08
 -1        80-6.06091E+02-1.78267E+03-7.19053E+02 1.19743E+02-4.41622E-08-9.37795E-09
 -1        81-1.00372E+03-3.33767E+03-1.31215E+03-3.68852E+01-3.28271E-08-4.72073E-08
 -1        82-1.46120E+03-5.00246E+03-1.96198E+03-2.35539E+02-1.74336E-08-6.62111E-08
 -1        83-1.89930E+03-6.59550E+03-2.58907E+03-3.91298E+02 4.32056E-09-8.67242E-08
 -1        84-2.30672E+03-8.14261E+03-3.19788E+03-4.67224E+02 2.06555E-08-5.88618E-08
 -1        85-2.70692E+03-9.72765E+03-3.82206E+03-4.74633E+02 2.01279E-08-5.87608E-09
 -1        86-3.08537E+03-1.13650E+04-4.46170E+03-3.82599E+02 9.91980E-09 2.81582E-08
 -1        87-3.81353E+03-1.33991E+04-5.34302E+03-2.65701E+02-2.67182E-09 4.82769E-08
 -1        88-3.12612E+03-1.46264E+04-5.53853E+03 4.66733E+02-9.15192E-09 3.75539E-08
 -1        89-6.75636E+01 5.43253E+02 1.61739E+02 5.27340E+02-6.78389E-09 3.51830E-08
 -1        90-2.09456E+01 7.33872E+02 2.42709E+02 7.01089E+02-1.51372E-08 4.72262E-08
 -1        91 2.90977E+01 7.79639E+02 2.61064E+02 6.05545E+02-1.78171E-08 2.70273E-08
 -1        92 6.08932E+01 8.27314E+02 2.79985E+02 6.05468E+02-1.29212E-08-1.26749E-08
 -1        93 8.70338E+01 8.77313E+02 2.98384E+02 6.08545E+02-5.05445E-09-6.55020E-08
 -1        94 1.05886E+02 9.04200E+02 3.08192E+02 6.29029E+02-9.48410E-10-9.06080E-08
 -1        95 1.54290E+02 9.11384E+02 3.21805E+02 6.65934E+02-3.18570E-09-6.64085E-08
 -1        96 1.77782E+02 9.04631E+02 3.24780E+02 6.78576E+02-8.33818E-09-4.38986E-08
 -1        97 1.61335E+02 9.15144E+02 3.21949E+02 6.10060E+02-1.86101E-08-3.06556E-09
 -1        98 1.09393E+02 9.33706E+02 3.11523E+02 4.76351E+02-2.56901E-08 2.95434E-08
 -1        99 7.94752E+01 9.39220E+02 3.04144E+02 3.63421E+02-2.54595E-08 6.29035E-08
 -1       100 7.17012E+01 9.01551E+02 2.90527E+02 3.35489E+02-1.52991E-08 7.11048E-08
 -1       101 8.92231E+01 8.33881E+02 2.75585E+02 3.61539E+02-9.08248E-09 7.42661E-08
 -1       102 9.60909E+01 7.48687E+02 2.52338E+02 3.75068E+02-6.35207E-09 5.59106E-08
 -1       103 8.92234E+01 6.58375E+02 2.23596E+02 3.38067E+02 3.03383E-09 8.97279E-09
 -1       104 5.57202E+01 5.64322E+02 1.85768E+02 2.37906E+02 1.40580E-08-4.07358E-08
 -1       105 1.44737E+00 4.85948E+02 1.46141E+02 6.95233E+01 2.32432E-08-6.03309E-08
 -1       106-5.80726E+01 4.11314E+02 1.05917E+02-1.04961E+02 1.43736E-08 1.95712E-09
 -1       107-5.34318E+01 2.97628E+02 7.32883E+01-1.41671E+02-9.63712E-09 9.13122E-08
 -1       108-5.34318E+01 2.97628E+02 7.32883E+01-1.41671E+02-9.63632E-09 9.13103E-08
 -1       109-5.80726E+01 4.11314E+02 1.05917E+02-1.04961E+02 1.43743E-08 1.95042E-09
 -1       110 1.44737E+00 4.85948E+02 1.46141E+02 6.95233E+01 2.32425E-08-6.03353E-08
 -1       111 5.57202E+01 5.64322E+02 1.85768E+02 2.37906E+02 1.40579E-08-4.07362E-08
 -1       112 8.92234E+01 6.58375E+02 2.23596E+02 3.38067E+02 3.03334E-09 8.96799E-09
 -1       113 9.60909E+01 7.48687E+02 2.52338E+02 3.75068E+02-6.35201E-09 5.59103E-08
 -1       114 8.92231E+01 8.33881E+02 2.75585E+02 3.61539E+02-9.08251E-09 7.42652E-08
 -1       115 7.17012E+01 9.01551E+02 2.90527E+02 3.35489E+02-1.52990E-08 7.11045E-08
 -1       116 7.94752E+01 9.39220E+02 3.04144E+02 3.63421E+02-2.54592E-08 6.29037E-08
 -1       117 1.09393E+02 9.33706E+02 3.11523E+02 4.76351E+02-2.56903E-08 2.95435E-08
 -1       118 1.61335E+02 9.15144E+02 3.21949E+02 6.10060E+02-1.86102E-08-3.06596E-09
 -1       119 1.77782E+02 9.04631E+02 3.24780E+02 6.78576E+02-8.33816E-09-4.38992E-08
 -1       120 1.54290E+02 9.11384E+02 3.21805E+02 6.65934E+02-3.18575E-09-6.64059E-08
 -1       121 1.05886E+02 9.04200E+02 3.08192E+02 6.29029E+02-9.48464E-10-9.06100E-08
 -1       122 8.70338E+01 8.77313E+02 2.98384E+02 6.08545E+02-5.05454E-09-6.55027E-08
 -1       123 6.08932E+01 8.27314E+02 2.79985E+02 6.05468E+02-1.29212E-08-1.26737E-08
 -1       124 2.90977E+01 7.79639E+02 2.61064E+02 6.05545E+02-1.78171E-08 2.70270E-08
 -1       125-2.09456E+01 7.33872E+02 2.42709E+02 7.01089E+02-1.51372E-08 4.72262E-08
 -1       126-6.75636E+01 5.43253E+02 1.61739E+02 5.27340E+02-6.78388E-09 3.51830E-08
 -3
    1PSTEP                       207          52           1          
  100CL  152 5.20000E-01         126                     1   52           1
 -4  TOSTRAIN    6    1
 -5  EXX         1    4    1    1
 -5  EYY         1    4    2    2
 -5  EZZ         1    4    3    3
 -5  EXY         1    4    1    2
 -5  EYZ         1    4    2    3
 -5  EZX         1    4    3    1
 -1         1-1.08979E-04 3.70128E-02-3.22451E-27 1.48381E-02 3.88926E-19 1.02088E-16
 -1         2-1.08979E-04 3.70128E-02-3.22451E-27 1.48381E-02 3.88926E-19 1.02088E-16
 -1         3 9.27918E-07-5.59216E-04 6.71584E-25-3.09994E-04 2.31577E-13 5.52223E-13
 -1         4 9.27919E-07-5.59216E-04 6.71575E-25-3.09994E-04 2.31578E-13 5.52217E-13
 -1         5-1.76429E-04 1.19415E-03 8.52648E-25-3.43719E-04-2.55761E-13 6.19675E-13
 -1         6-1.76429E-04 1.19415E-03 8.52791E-25-3.43719E-04-2.55752E-13 6.19734E-13
 -1         7-1.03859E-04-3.23070E-02-5.29460E-27 1.28836E-02 4.88322E-19-3.32841E-16
 -1         8-1.03859E-04-3.23070E-02-5.29460E-27 1.28836E-02 4.88322E-19-3.32841E-16
 -1         9-8.77503E-05 3.90811E-04 6.58194E-25-4.55669E-04-4.44140E-15 5.94920E-13
 -1        10-8.77503E-05 3.90811E-04 6.58192E-25-4.55669E-04-4.44389E-15 5.94925E-13
 -1        11-1.06419E-04 1.57965E-03-4.54077E-27 9.40973E-03 2.95400E-19-9.51705E-17
 -1        12-1.06419E-04 1.57965E-03-4.54077E-27 9.40973E-03 2.95400E-19-9.51705E-17
 -1        13-1.02980E-02 3.57841E-02 1.68404E-26 3.33631E-03-8.99523E-15 9.70972E-14
 -1        14-7.65852E-03 3.24321E-02 4.50240E-26 1.26154E-03-7.23538E-14 1.35385E-13
 -1        15-7.03700E-03 2.85968E-02 4.34133E-26 1.34461E-03-1.31846E-13 8.74503E-14
 -1        16-6.22021E-03 2.52181E-02 3.43398E-26 1.23095E-03-1.54668E-13-2.30036E-14
 -1        17-5.51627E-03 2.19507E-02 1.14677E-25 1.19627E-03-1.27672E-13-2.15061E-13
 -1        18-4.86433E-03 1.87318E-02 1.52111E-25 1.17316E-03-5.05470E-14-2.72697E-13
 -1        19-4.05444E-03 1.53505E-02 7.28894E-26 1.21710E-03 4.72675E-15-1.93904E-13
 -1        20-3.22934E-03 1.17565E-02 3.44437E-26 1.23672E-03 2.09352E-14-1.38427E-13
 -1        21-2.45310E-03 8.37173E-03-5.90670E-27 1.05779E-03 1.74076E-14-1.16384E-14
 -1        22-1.91046E-03 5.82264E-03 1.36728E-26 7.00168E-04 1.12565E-14 9.68544E-14
 -1        23-1.52044E-03 4.28219E-03 7.19908E-26 4.14465E-04-6.21745E-15 1.92390E-13
 -1        24-1.29769E-03 3.25021E-03 1.08816E-25 3.71309E-04-1.03495E-14 2.32949E-13
 -1        25-1.01797E-03 2.06712E-03 1.02270E-25 4.69478E-04-1.67491E-14 2.27050E-13
 -1        26-6.65115E-04 4.87114E-04 4.91322E-26 5.23853E-04-6.11369E-14 1.55162E-13
 -1        27-1.82753E-04-1.28606E-03 5.84384E-27 4.64231E-04-8.61944E-14 1.71016E-14
 -1        28 2.34763E-04-2.80779E-03 1.73411E-26 2.75763E-04-3.11850E-14-1.06323E-13
 -1        29 4.81562E-04-3.48315E-03 6.34212E-26-8.24727E-05 9.88574E-14-1.66332E-13
 -1        30 4.00802E-04-2.86943E-03 6.41431E-26-4.65577E-04 2.13887E-13 3.02814E-15
 -1        31 1.30392E-04-1.38592E-03 2.30119E-25-4.86968E-04 2.52995E-13 2.69198E-13
 -1        32-1.02980E-02 3.57841E-02 1.68404E-26 3.33631E-03-8.99523E-15 9.70972E-14
 -1        33-7.65852E-03 3.24321E-02 4.50240E-26 1.26154E-03-7.23538E-14 1.35385E-13
 -1        34-7.03700E-03 2.85968E-02 4.34133E-26 1.34461E-03-1.31846E-13 8.74507E-14
 -1        35-6.22021E-03 2.52181E-02 3.43400E-26 1.23095E-03-1.54669E-13-2.30054E-14
 -1        36-5.51627E-03 2.19507E-02 1.14676E-25 1.19627E-03-1.27672E-13-2.15060E-13
 -1        37-4.86433E-03 1.87318E-02 1.52109E-25 1.17316E-03-5.05472E-14-2.72696E-13
 -1        38-4.05444E-03 1.53505E-02 7.28902E-26 1.21710E-03 4.72803E-15-1.93905E-13
 -1        39-3.22934E-03 1.17565E-02 3.44436E-26 1.23672E-03 2.09352E-14-1.38427E-13
 -1        40-2.45310E-03 8.37173E-03-5.90665E-27 1.05779E-03 1.74080E-14-1.16370E-14
 -1        41-1.91046E-03 5.82264E-03 1.36727E-26 7.00168E-04 1.12566E-14 9.68540E-14
 -1        42-1.52044E-03 4.28219E-03 7.19908E-26 4.14465E-04-6.21745E-15 1.92390E-13
 -1        43-1.29769E-03 3.25021E-03 1.08816E-25 3.71309E-04-1.03496E-14 2.32949E-13
 -1        44-1.01797E-03 2.06712E-03 1.02276E-25 4.69478E-04-1.67473E-14 2.27057E-13
 -1        45-6.65115E-04 4.87114E-04 4.91273E-26 5.23853E-04-6.11384E-14 1.55155E-13
 -1        46-1.82753E-04-1.28606E-03 5.84363E-27 4.64231E-04-8.61931E-14 1.71074E-14
 -1        47 2.34763E-04-2.80779E-03 1.73412E-26 2.75763E-04-3.11853E-14-1.06325E-13
 -1        48 4.81562E-04-3.48315E-03 6.34211E-26-8.24727E-05 9.88605E-14-1.66317E-13
 -1        49 4.00802E-04-2.86943E-03 6.41692E-26-4.65577E-04 2.13889E-13 3.03941E-15
 -1        50 1.30392E-04-1.38592E-03 2.30130E-25-4.86968E-04 2.52993E-13 2.69192E-13
 -1        51-5.62277E-04 2.36726E-03 2.87485E-25-4.32910E-04-2.12863E-13 3.51433E-13
 -1        52-1.14098E-03 4.51648E-03 3.27040E-27-3.90842E-04-1.45390E-13 2.76025E-14
 -1        53-1.50329E-03 5.77322E-03 6.38521E-26-9.41198E-06-4.46729E-14-1.91749E-13
 -1        54-1.55841E-03 5.73106E-03 3.22700E-26 3.44566E-04 6.07368E-14-1.25651E-13
 -1        55-1.40076E-03 4.78119E-03 1.13420E-26 5.24836E-04 1.02316E-13 2.36687E-14
 -1        56-1.13303E-03 3.47481E-03 6.96551E-26 5.72166E-04 7.91073E-14 1.77835E-13
 -1        57-9.18943E-04 2.24911E-03 1.10059E-25 5.04882E-04 3.92738E-14 2.32426E-13
 -1        58-7.62577E-04 1.33183E-03 9.63160E-26 3.99785E-04-5.37476E-15 2.20712E-13
 -1        59-6.38707E-04 5.19550E-04 8.59130E-26 4.44687E-04-7.61441E-14 1.96304E-13
 -1        60-3.91000E-04-8.18664E-04 5.52163E-26 7.27249E-04-1.28021E-13 1.17431E-13
 -1        61 7.65045E-05-3.18651E-03 3.60003E-26 1.07759E-03-1.47397E-13-2.53432E-15
 -1        62 7.70707E-04-6.43552E-03 6.45618E-26 1.25892E-03-1.33971E-13-1.31457E-13
 -1        63 1.50474E-03-9.95852E-03 9.62774E-26 1.24229E-03-9.39320E-14-2.02646E-13
 -1        64 2.19520E-03-1.33292E-02 1.56008E-25 1.18637E-03-3.08966E-14-2.81405E-13
 -1        65 2.85754E-03-1.65825E-02 7.33712E-26 1.19906E-03 4.08505E-14-1.99614E-13
 -1        66 3.54518E-03-1.99152E-02-1.34436E-27 1.24173E-03 6.44566E-14-2.69855E-14
 -1        67 4.31025E-03-2.33800E-02 1.30140E-26 1.38237E-03 4.19438E-14 8.83647E-14
 -1        68 4.73544E-03-2.75000E-02 4.76395E-26 1.30434E-03 1.61535E-15 1.58019E-13
 -1        69 7.47321E-03-3.10837E-02 2.88932E-26 3.00702E-03-2.71630E-14 1.23644E-13
 -1        70-5.62277E-04 2.36726E-03 2.87538E-25-4.32910E-04-2.12852E-13 3.51476E-13
 -1        71-1.14098E-03 4.51648E-03 3.27765E-27-3.90842E-04-1.45392E-13 2.75967E-14
 -1        72-1.50329E-03 5.77322E-03 6.38141E-26-9.41198E-06-4.46611E-14-1.91692E-13
 -1        73-1.55841E-03 5.73106E-03 3.22549E-26 3.44566E-04 6.07433E-14-1.25619E-13
 -1        74-1.40076E-03 4.78119E-03 1.13473E-26 5.24836E-04 1.02323E-13 2.37007E-14
 -1        75-1.13303E-03 3.47481E-03 6.96559E-26 5.72166E-04 7.91074E-14 1.77836E-13
 -1        76-9.18943E-04 2.24911E-03 1.10058E-25 5.04882E-04 3.92737E-14 2.32425E-13
 -1        77-7.62577E-04 1.33183E-03 9.63211E-26 3.99785E-04-5.37363E-15 2.20718E-13
 -1        78-6.38707E-04 5.19550E-04 8.59129E-26 4.44687E-04-7.61446E-14 1.96303E-13
 -1        79-3.91000E-04-8.18664E-04 5.52164E-26 7.27249E-04-1.28021E-13 1.17434E-13
 -1        80 7.65045E-05-3.18651E-03 3.59999E-26 1.07759E-03-1.47398E-13-2.54548E-15
 -1        81 7.70707E-04-6.43552E-03 6.45544E-26 1.25892E-03-1.33969E-13-1.31446E-13
 -1        82 1.50474E-03-9.95852E-03 9.62826E-26 1.24229E-03-9.39325E-14-2.02652E-13
 -1        83 2.19520E-03-1.33292E-02 1.56005E-25 1.18637E-03-3.08961E-14-2.81402E-13
 -1        84 2.85754E-03-1.65825E-02 7.33712E-26 1.19906E-03 4.08505E-14-1.99614E-13
 -1        85 3.54518E-03-1.99152E-02-1.34457E-27 1.24173E-03 6.44550E-14-2.69881E-14
 -1        86 4.31025E-03-2.33800E-02 1.30141E-26 1.38237E-03 4.19439E-14 8.83654E-14
 -1        87 4.73544E-03-2.75000E-02 4.76394E-26 1.30434E-03 1.61544E-15 1.58019E-13
 -1        88 7.47321E-03-3.10837E-02 2.88932E-26 3.00702E-03-2.71630E-14 1.23644E-13
 -1        89-1.41241E-03 1.99971E-03 2.46470E-26 1.63059E-03-1.83924E-14 1.15125E-13
 -1        90-1.46154E-03 2.40231E-03 5.09595E-26 2.08242E-03-3.89540E-14 1.56681E-13
 -1        91-1.36337E-03 2.41555E-03 1.64551E-26 1.69186E-03-4.93555E-14 9.31398E-14
 -1        92-1.33752E-03 2.49111E-03-4.86028E-27 1.60792E-03-4.64817E-14-3.57927E-14
 -1        93-1.32937E-03 2.57953E-03 8.29499E-26 1.53588E-03-4.57186E-14-2.08520E-13
 -1        94-1.33456E-03 2.64119E-03 1.71670E-25 1.53149E-03-4.90013E-14-2.90379E-13
 -1        95-1.27485E-03 2.65185E-03 9.06291E-26 1.61203E-03-4.69083E-14-2.10844E-13
 -1        96-1.22932E-03 2.62832E-03 3.59502E-26 1.62652E-03-5.23429E-14-1.35282E-13
 -1        97-1.18830E-03 2.58097E-03 1.23742E-29 1.37778E-03-6.10788E-14 1.79259E-15
 -1        98-1.15073E-03 2.50105E-03 2.69265E-26 9.19693E-04-6.32130E-14 1.10478E-13
 -1        99-1.07957E-03 2.39882E-03 9.48575E-26 5.52626E-04-4.11376E-14 2.16788E-13
 -1       100-1.03013E-03 2.29055E-03 1.11708E-25 4.83389E-04-3.33425E-15 2.36452E-13
 -1       101-9.68457E-04 2.16401E-03 1.17568E-25 6.12562E-04 1.85622E-14 2.42515E-13
 -1       102-8.99074E-04 1.99330E-03 6.06695E-26 7.12634E-04 1.53869E-14 1.82267E-13
 -1       103-7.91759E-04 1.76036E-03-9.59411E-27 6.60192E-04 1.52881E-14 2.66791E-14
 -1       104-6.61825E-04 1.46522E-03 3.34864E-26 4.06031E-04 1.95811E-14-1.38725E-13
 -1       105-5.10863E-04 1.14198E-03 7.92423E-26-7.73576E-05 3.77226E-14-2.06730E-13
 -1       106-3.70088E-04 8.27485E-04-2.81592E-26-5.89732E-04 4.70265E-14-2.15085E-15
 -1       107-2.15943E-04 5.32989E-04 1.29786E-25-6.30508E-04 2.21126E-14 2.97646E-13
 -1       108-2.15943E-04 5.32989E-04 1.29766E-25-6.30508E-04 2.21141E-14 2.97639E-13
 -1       109-3.70088E-04 8.27485E-04-2.81655E-26-5.89732E-04 4.70247E-14-2.17269E-15
 -1       110-5.10863E-04 1.14198E-03 7.92529E-26-7.73576E-05 3.77176E-14-2.06744E-13
 -1       111-6.61825E-04 1.46522E-03 3.34880E-26 4.06031E-04 1.95807E-14-1.38726E-13
 -1       112-7.91759E-04 1.76036E-03-9.59453E-27 6.60192E-04 1.52835E-14 2.66641E-14
 -1       113-8.99074E-04 1.99330E-03 6.06687E-26 7.12634E-04 1.53869E-14 1.82266E-13
 -1       114-9.68457E-04 2.16401E-03 1.17566E-25 6.12562E-04 1.85615E-14 2.42512E-13
 -1       115-1.03013E-03 2.29055E-03 1.11707E-25 4.83389E-04-3.33427E-15 2.36451E-13
 -1       116-1.07957E-03 2.39882E-03 9.48579E-26 5.52626E-04-4.11368E-14 2.16788E-13
 -1       117-1.15073E-03 2.50105E-03 2.69266E-26 9.19693E-04-6.32133E-14 1.10479E-13
 -1       118-1.18830E-03 2.58097E-03 1.23717E-29 1.37778E-03-6.10795E-14 1.79141E-15
 -1       119-1.22932E-03 2.62832E-03 3.59515E-26 1.62652E-03-5.23431E-14-1.35284E-13
 -1       120-1.27485E-03 2.65185E-03 9.06214E-26 1.61203E-03-4.69071E-14-2.10836E-13
 -1       121-1.33456E-03 2.64119E-03 1.71677E-25 1.53149E-03-4.90025E-14-2.90385E-13
 -1       122-1.32937E-03 2.57953E-03 8.29518E-26 1.53588E-03-4.57191E-14-2.08522E-13
 -1       123-1.33752E-03 2.49111E-03-4.86063E-27 1.60792E-03-4.64811E-14-3.57889E-14
 -1       124-1.36337E-03 2.41555E-03 1.64551E-26 1.69186E-03-4.93555E-14 9.31390E-14
 -1       125-1.46154E-03 2.40231E-03 5.09595E-26 2.08242E-03-3.89541E-14 1.56681E-13
 -1       126-1.41241E-03 1.99971E-03 2.46470E-26 1.63059E-03-1.83924E-14 1.15125E-13
 -3
    1PSTEP                       208          52           1          
  100CL  152 5.20000E-01         126                     1   52           1
 -4  ERROR       1    1
 -5  STR(%)      1    1    0    0
 -1         1 6.05071E+01
 -1         2 6.05071E+01
 -1         3 7.27992E+01
 -1         4 7.27992E+01
 -1         5 2.50577E+01
 -1         6 2.50577E+01
 -1         7 6.49053E+01
 -1         8 6.49053E+01
 -1         9 7.27992E+01
 -1        10 7.27992E+01
 -1        11 6.49053E+01
 -1        12 6.49053E+01
 -1        13 6.05071E+01
 -1        14 5.69698E+01
 -1        15 5.63992E+01
 -1        16 5.53804E+01
 -1        17 5.41525E+01
 -1        18 5.26354E+01
 -1        19 5.04736E+01
 -1        20 4.72805E+01
 -1        21 4.15159E+01
 -1        22 3.31363E+01
 -1        23 2.33869E+01
 -1        24 1.53084E+01
 -1        25 1.95229E+01
 -1        26 7.83277E+01
 -1        27 8.88427E+01
 -1        28 8.88427E+01
 -1        29 8.39803E+01
 -1        30 8.22632E+01
 -1        31 7.27992E+01
 -1        32 6.05071E+01
 -1        33 5.69698E+01
 -1        34 5.63992E+01
 -1        35 5.53804E+01
 -1        36 5.41525E+01
 -1        37 5.26354E+01
 -1        38 5.04736E+01
 -1        39 4.72805E+01
 -1        40 4.15159E+01
 -1        41 3.31363E+01
 -1        42 2.33869E+01
 -1        43 1.53084E+01
 -1        44 1.95229E+01
 -1        45 7.83277E+01
 -1        46 8.88427E+01
 -1        47 8.88427E+01
 -1        48 8.39803E+01
 -1        49 8.22632E+01
 -1        50 7.27992E+01
 -1        51 4.25752E+01
 -1        52 4.70474E+01
 -1        53 4.70474E+01
 -1        54 4.51777E+01
 -1        55 3.91487E+01
 -1        56 2.66941E+01
 -1        57 9.21506E+00
 -1        58 3.31548E+01
 -1        59 6.04412E+01
 -1        60 9.02056E+01
 -1        61 9.02056E+01
 -1        62 8.53775E+01
 -1        63 8.46344E+01
 -1        64 8.01850E+01
 -1        65 7.55035E+01
 -1        66 7.22623E+01
 -1        67 6.99227E+01
 -1        68 6.83052E+01
 -1        69 6.73026E+01
 -1        70 4.25752E+01
 -1        71 4.70474E+01
 -1        72 4.70474E+01
 -1        73 4.51777E+01
 -1        74 3.91487E+01
 -1        75 2.66941E+01
 -1        76 9.21506E+00
 -1        77 3.31548E+01
 -1        78 6.04412E+01
 -1        79 9.02056E+01
 -1        80 9.02056E+01
 -1        81 8.53775E+01
 -1        82 8.46344E+01
 -1        83 8.01850E+01
 -1        84 7.55035E+01
 -1        85 7.22623E+01
 -1        86 6.99227E+01
 -1        87 6.83052E+01
 -1        88 6.73026E+01
 -1        89 6.73026E+01
 -1        90 6.83052E+01
 -1        91 6.99227E+01
 -1        92 7.22623E+01
 -1        93 7.55035E+01
 -1        94 8.01850E+01
 -1        95 8.46344E+01
 -1        96 8.53775E+01
 -1        97 9.02056E+01
 -1        98 9.02056E+01
 -1        99 6.04412E+01
 -1       100 3.31548E+01
 -1       101 1.95229E+01
 -1       102 7.83277E+01
 -1       103 8.88427E+01
 -1       104 8.88427E+01
 -1       105 8.39803E+01
 -1       106 8.22632E+01
 -1       107 7.27992E+01
 -1       108 7.27992E+01
 -1       109 8.22632E+01
 -1       110 8.39803E+01
 -1       111 8.88427E+01
 -1       112 8.88427E+01
 -1       113 7.83277E+01
 -1       114 1.95229E+01
 -1       115 3.31548E+01
 -1       116 6.04412E+01
 -1       117 9.02056E+01
 -1       118 9.02056E+01
 -1       119 8.53775E+01
 -1       120 8.46344E+01
 -1       121 8.01850E+01
 -1       122 7.55035E+01
 -1       123 7.22623E+01
 -1       124 6.99227E+01
 -1       125 6.83052E+01
 -1       126 6.73026E+01
 -3
    1PSTEP                       209          53           1          
  100CL  153 5.30000E-01         126                     1   53           1
 -4  DISP        4    1
 -5  D1          1    2    1    0
 -5  D2          1    2    2    0
 -5  D3          1    2    3    0
 -5  ALL         1    2    0    0    1ALL
 -1         1 0.00000E+00 0.00000E+00 0.00000E+00
 -1         2 0.00000E+00 0.00000E+00 0.00000E+00
 -1         3 1.66416E-01-3.91093E-03 0.00000E+00
 -1         4 1.66416E-01-3.91093E-03 0.00000E+00
 -1         5 1.64622E-01-2.27109E-02 0.00000E+00
 -1         6 1.64622E-01-2.27109E-02 0.00000E+00
 -1         7 0.00000E+00 0.00000E+00 0.00000E+00
 -1         8 0.00000E+00 0.00000E+00 0.00000E+00
 -1         9 1.65521E-01-1.33036E-02 0.00000E+00
 -1        10 1.65521E-01-1.33036E-02 0.00000E+00
 -1        11 0.00000E+00 0.00000E+00 0.00000E+00
 -1        12 0.00000E+00 0.00000E+00 0.00000E+00
 -1        13 1.44488E-03 1.78644E-03 0.00000E+00
 -1        14 4.22481E-03 3.41249E-03 0.00000E+00
 -1        15 8.55122E-03 4.72867E-03 0.00000E+00
 -1        16 1.41801E-02 5.75764E-03 0.00000E+00
 -1        17 2.09625E-02 6.49259E-03 0.00000E+00
 -1        18 2.87369E-02 6.92714E-03 0.00000E+00
 -1        19 3.73139E-02 7.06620E-03 0.00000E+00
 -1        20 4.65188E-02 6.93090E-03 0.00000E+00
 -1        21 5.61823E-02 6.55902E-03 0.00000E+00
 -1        22 6.61628E-02 6.00285E-03 0.00000E+00
 -1        23 7.63579E-02 5.32151E-03 0.00000E+00
 -1        24 8.67472E-02 4.54124E-03 0.00000E+00
 -1        25 9.73078E-02 3.63839E-03 0.00000E+00
 -1        26 1.07924E-01 2.57613E-03 0.00000E+00
 -1        27 1.18376E-01 1.37567E-03 0.00000E+00
 -1        28 1.28487E-01 1.30559E-04 0.00000E+00
 -1        29 1.38220E-01-1.04495E-03 0.00000E+00
 -1        30 1.47688E-01-2.09153E-03 0.00000E+00
 -1        31 1.57047E-01-3.02515E-03 0.00000E+00
 -1        32 1.44488E-03 1.78644E-03 0.00000E+00
 -1        33 4.22481E-03 3.41249E-03 0.00000E+00
 -1        34 8.55122E-03 4.72867E-03 0.00000E+00
 -1        35 1.41801E-02 5.75764E-03 0.00000E+00
 -1        36 2.09625E-02 6.49259E-03 0.00000E+00
 -1        37 2.87369E-02 6.92714E-03 0.00000E+00
 -1        38 3.73139E-02 7.06620E-03 0.00000E+00
 -1        39 4.65188E-02 6.93090E-03 0.00000E+00
 -1        40 5.61823E-02 6.55902E-03 0.00000E+00
 -1        41 6.61628E-02 6.00285E-03 0.00000E+00
 -1        42 7.63579E-02 5.32151E-03 0.00000E+00
 -1        43 8.67472E-02 4.54124E-03 0.00000E+00
 -1        44 9.73078E-02 3.63839E-03 0.00000E+00
 -1        45 1.07924E-01 2.57613E-03 0.00000E+00
 -1        46 1.18376E-01 1.37567E-03 0.00000E+00
 -1        47 1.28487E-01 1.30559E-04 0.00000E+00
 -1        48 1.38220E-01-1.04495E-03 0.00000E+00
 -1        49 1.47688E-01-2.09153E-03 0.00000E+00
 -1        50 1.57047E-01-3.02515E-03 0.00000E+00
 -1        51 1.55233E-01-2.18581E-02 0.00000E+00
 -1        52 1.45823E-01-2.10915E-02 0.00000E+00
 -1        53 1.36266E-01-2.04214E-02 0.00000E+00
 -1        54 1.26410E-01-1.97986E-02 0.00000E+00
 -1        55 1.16170E-01-1.91183E-02 0.00000E+00
 -1        56 1.05628E-01-1.82846E-02 0.00000E+00
 -1        57 9.49937E-02-1.72786E-02 0.00000E+00
 -1        58 8.44721E-02-1.61644E-02 0.00000E+00
 -1        59 7.41533E-02-1.50193E-02 0.00000E+00
 -1        60 6.40484E-02-1.38701E-02 0.00000E+00
 -1        61 5.41901E-02-1.26961E-02 0.00000E+00
 -1        62 4.46865E-02-1.14733E-02 0.00000E+00
 -1        63 3.56872E-02-1.01953E-02 0.00000E+00
 -1        64 2.73541E-02-8.86793E-03 0.00000E+00
 -1        65 1.98526E-02-7.50241E-03 0.00000E+00
 -1        66 1.33470E-02-6.11304E-03 0.00000E+00
 -1        67 7.97863E-03-4.69997E-03 0.00000E+00
 -1        68 3.86646E-03-3.23845E-03 0.00000E+00
 -1        69 1.25267E-03-1.64579E-03 0.00000E+00
 -1        70 1.55233E-01-2.18581E-02 0.00000E+00
 -1        71 1.45823E-01-2.10915E-02 0.00000E+00
 -1        72 1.36266E-01-2.04214E-02 0.00000E+00
 -1        73 1.26410E-01-1.97986E-02 0.00000E+00
 -1        74 1.16170E-01-1.91183E-02 0.00000E+00
 -1        75 1.05628E-01-1.82846E-02 0.00000E+00
 -1        76 9.49937E-02-1.72786E-02 0.00000E+00
 -1        77 8.44721E-02-1.61644E-02 0.00000E+00
 -1        78 7.41533E-02-1.50193E-02 0.00000E+00
 -1        79 6.40484E-02-1.38701E-02 0.00000E+00
 -1        80 5.41901E-02-1.26961E-02 0.00000E+00
 -1        81 4.46865E-02-1.14733E-02 0.00000E+00
 -1        82 3.56872E-02-1.01953E-02 0.00000E+00
 -1        83 2.73541E-02-8.86793E-03 0.00000E+00
 -1        84 1.98526E-02-7.50241E-03 0.00000E+00
 -1        85 1.33470E-02-6.11304E-03 0.00000E+00
 -1        86 7.97863E-03-4.69997E-03 0.00000E+00
 -1        87 3.86646E-03-3.23845E-03 0.00000E+00
 -1        88 1.25267E-03-1.64579E-03 0.00000E+00
 -1        89 9.04971E-04 7.20229E-05 0.00000E+00
 -1        90 3.73403E-03 1.11116E-04 0.00000E+00
 -1        91 7.97947E-03 4.53992E-05 0.00000E+00
 -1        92 1.35157E-02-1.45394E-04 0.00000E+00
 -1        93 2.01932E-02-4.72674E-04 0.00000E+00
 -1        94 2.78654E-02-9.39914E-04 0.00000E+00
 -1        95 3.63578E-02-1.53786E-03 0.00000E+00
 -1        96 4.54934E-02-2.24918E-03 0.00000E+00
 -1        97 5.51056E-02-3.05155E-03 0.00000E+00
 -1        98 6.50444E-02-3.92016E-03 0.00000E+00
 -1        99 7.52083E-02-4.83773E-03 0.00000E+00
 -1       100 8.55746E-02-5.80280E-03 0.00000E+00
 -1       101 9.61383E-02-6.81593E-03 0.00000E+00
 -1       102 1.06796E-01-7.85646E-03 0.00000E+00
 -1       103 1.17324E-01-8.87967E-03 0.00000E+00
 -1       104 1.27510E-01-9.84389E-03 0.00000E+00
 -1       105 1.37293E-01-1.07395E-02 0.00000E+00
 -1       106 1.46782E-01-1.15924E-02 0.00000E+00
 -1       107 1.56148E-01-1.24388E-02 0.00000E+00
 -1       108 1.56148E-01-1.24388E-02 0.00000E+00
 -1       109 1.46782E-01-1.15924E-02 0.00000E+00
 -1       110 1.37293E-01-1.07395E-02 0.00000E+00
 -1       111 1.27510E-01-9.84389E-03 0.00000E+00
 -1       112 1.17324E-01-8.87967E-03 0.00000E+00
 -1       113 1.06796E-01-7.85646E-03 0.00000E+00
 -1       114 9.61383E-02-6.81593E-03 0.00000E+00
 -1       115 8.55746E-02-5.80280E-03 0.00000E+00
 -1       116 7.52083E-02-4.83773E-03 0.00000E+00
 -1       117 6.50444E-02-3.92016E-03 0.00000E+00
 -1       118 5.51056E-02-3.05155E-03 0.00000E+00
 -1       119 4.54934E-02-2.24918E-03 0.00000E+00
 -1       120 3.63578E-02-1.53786E-03 0.00000E+00
 -1       121 2.78654E-02-9.39914E-04 0.00000E+00
 -1       122 2.01932E-02-4.72674E-04 0.00000E+00
 -1       123 1.35157E-02-1.45394E-04 0.00000E+00
 -1       124 7.97947E-03 4.53992E-05 0.00000E+00
 -1       125 3.73403E-03 1.11116E-04 0.00000E+00
 -1       126 9.04971E-04 7.20229E-05 0.00000E+00
 -3
    1PSTEP                       210          53           1          
  100CL  153 5.30000E-01         126                     1   53           1
 -4  STRESS      6    1
 -5  SXX         1    4    1    1
 -5  SYY         1    4    2    2
 -5  SZZ         1    4    3    3
 -5  SXY         1    4    1    2
 -5  SYZ         1    4    2    3
 -5  SZX         1    4    3    1
 -1         1 8.40585E+03 2.02603E+04 8.19459E+03 4.94977E+03 2.78488E-10 2.35198E-10
 -1         2 8.40585E+03 2.02603E+04 8.19459E+03 4.94977E+03 2.78488E-10 2.35198E-10
 -1         3-8.52075E+01 1.14926E+00-2.52313E+01-6.44391E+01 3.18515E-08 2.37315E-07
 -1         4-8.52075E+01 1.14926E+00-2.52313E+01-6.44391E+01 3.18516E-08 2.37308E-07
 -1         5 8.02626E+01 3.82197E+02 1.38574E+02-2.85214E+01-1.23775E-07 1.82927E-07
 -1         6 8.02626E+01 3.82197E+02 1.38574E+02-2.85214E+01-1.23778E-07 1.82927E-07
 -1         7-7.50202E+03-1.69297E+04-7.64914E+03 3.46357E+03 2.67451E-10-1.89446E-10
 -1         8-7.50202E+03-1.69297E+04-7.64914E+03 3.46357E+03 2.67451E-10-1.89442E-10
 -1         9 4.18340E+00 2.32772E+02 7.10079E+01-6.41233E+01-4.91699E-08 2.04895E-07
 -1        10 4.18340E+00 2.32772E+02 7.10079E+01-6.41233E+01-4.91698E-08 2.04907E-07
 -1        11 4.23676E+02 6.21219E+02 3.69847E+02 2.78714E+03 2.60257E-10 1.54117E-11
 -1        12 4.23676E+02 6.21219E+02 3.69847E+02 2.78714E+03 2.60257E-10 1.54044E-11
 -1        13 2.77098E+03 1.73184E+04 5.75230E+03 1.55819E+03 4.41103E-09 5.03715E-08
 -1        14 3.44874E+03 1.60826E+04 5.61387E+03 1.24789E+03-1.69476E-08 6.98321E-08
 -1        15 2.99989E+03 1.40501E+04 4.92331E+03 1.48420E+03-4.47421E-08 3.02097E-08
 -1        16 2.72992E+03 1.23768E+04 4.37916E+03 1.56087E+03-5.18829E-08-4.67235E-08
 -1        17 2.42219E+03 1.07213E+04 3.82441E+03 1.60184E+03-3.81927E-08-1.04069E-07
 -1        18 2.06887E+03 9.03758E+03 3.24452E+03 1.55532E+03-1.50823E-08-1.45068E-07
 -1        19 1.73296E+03 7.39293E+03 2.67691E+03 1.42044E+03 1.58275E-08-1.67944E-07
 -1        20 1.37418E+03 5.85605E+03 2.12923E+03 1.23570E+03 3.99792E-08-1.44655E-07
 -1        21 1.04738E+03 4.56015E+03 1.65720E+03 1.02157E+03 5.55107E-08-1.14494E-07
 -1        22 7.53736E+02 3.60708E+03 1.29220E+03 8.15354E+02 7.15229E-08-8.34950E-08
 -1        23 5.84839E+02 2.97001E+03 1.05524E+03 6.71422E+02 8.72158E-08-2.62288E-08
 -1        24 4.24234E+02 2.26767E+03 8.00185E+02 6.11097E+02 7.90078E-08 7.08422E-08
 -1        25 1.80779E+02 1.13905E+03 3.92782E+02 5.25991E+02 2.89475E-08 1.69194E-07
 -1        26-1.96884E+02-3.48421E+02-1.64630E+02 3.02915E+02-3.19939E-08 1.80675E-07
 -1        27-5.39651E+02-1.60053E+03-6.44663E+02-2.79004E+01-6.38338E-08 1.23093E-07
 -1        28-7.40747E+02-2.07626E+03-8.49411E+02-2.98256E+02-4.32886E-08 4.10109E-08
 -1        29-6.97594E+02-1.69094E+03-7.19667E+02-3.91543E+02 3.21739E-09 4.60931E-09
 -1        30-4.81955E+02-8.87784E+02-4.11987E+02-3.12896E+02 3.52234E-08 6.45709E-08
 -1        31-2.19213E+02-2.28153E+02-1.34349E+02-1.55910E+02 3.96361E-08 1.48989E-07
 -1        32 2.77098E+03 1.73184E+04 5.75230E+03 1.55819E+03 4.41103E-09 5.03715E-08
 -1        33 3.44874E+03 1.60826E+04 5.61387E+03 1.24789E+03-1.69476E-08 6.98321E-08
 -1        34 2.99989E+03 1.40501E+04 4.92331E+03 1.48420E+03-4.47421E-08 3.02099E-08
 -1        35 2.72992E+03 1.23768E+04 4.37916E+03 1.56087E+03-5.18829E-08-4.67239E-08
 -1        36 2.42219E+03 1.07213E+04 3.82441E+03 1.60184E+03-3.81928E-08-1.04068E-07
 -1        37 2.06887E+03 9.03758E+03 3.24452E+03 1.55532E+03-1.50821E-08-1.45065E-07
 -1        38 1.73296E+03 7.39293E+03 2.67691E+03 1.42044E+03 1.58270E-08-1.67947E-07
 -1        39 1.37418E+03 5.85605E+03 2.12923E+03 1.23570E+03 3.99792E-08-1.44656E-07
 -1        40 1.04738E+03 4.56015E+03 1.65720E+03 1.02157E+03 5.55108E-08-1.14494E-07
 -1        41 7.53736E+02 3.60708E+03 1.29220E+03 8.15354E+02 7.15229E-08-8.34950E-08
 -1        42 5.84839E+02 2.97001E+03 1.05524E+03 6.71422E+02 8.72157E-08-2.62301E-08
 -1        43 4.24234E+02 2.26767E+03 8.00185E+02 6.11097E+02 7.90077E-08 7.08408E-08
 -1        44 1.80779E+02 1.13905E+03 3.92782E+02 5.25991E+02 2.89476E-08 1.69194E-07
 -1        45-1.96884E+02-3.48421E+02-1.64630E+02 3.02915E+02-3.19939E-08 1.80675E-07
 -1        46-5.39651E+02-1.60053E+03-6.44663E+02-2.79004E+01-6.38341E-08 1.23096E-07
 -1        47-7.40747E+02-2.07626E+03-8.49411E+02-2.98256E+02-4.32886E-08 4.10067E-08
 -1        48-6.97594E+02-1.69094E+03-7.19667E+02-3.91543E+02 3.21750E-09 4.60679E-09
 -1        49-4.81955E+02-8.87784E+02-4.11987E+02-3.12896E+02 3.52232E-08 6.45762E-08
 -1        50-2.19213E+02-2.28153E+02-1.34349E+02-1.55910E+02 3.96363E-08 1.48975E-07
 -1        51 1.32430E+02 7.98466E+02 2.78371E+02 1.00939E-01-1.09311E-07 1.01333E-07
 -1        52 3.26218E+02 1.81121E+03 6.37318E+02 9.35499E+01-6.11402E-08 3.55007E-08
 -1        53 5.60734E+02 2.85436E+03 1.01521E+03 3.06201E+02 3.55903E-09 1.79782E-08
 -1        54 7.39196E+02 3.36528E+03 1.21799E+03 5.64514E+02 4.65287E-08 4.86099E-08
 -1        55 7.16351E+02 2.94113E+03 1.08587E+03 7.16610E+02 3.34018E-08 1.47278E-07
 -1        56 4.61476E+02 1.75599E+03 6.59798E+02 6.46232E+02-2.19494E-08 1.91776E-07
 -1        57 7.86972E+01 4.38523E+02 1.53883E+02 4.03558E+02-7.43458E-08 1.39263E-07
 -1        58-2.46766E+02-4.86638E+02-2.20250E+02 1.58589E+02-8.51431E-08 2.54423E-08
 -1        59-4.59888E+02-1.05380E+03-4.54551E+02 3.27271E+01-5.65196E-08-5.91977E-08
 -1        60-6.19141E+02-1.65377E+03-6.83465E+02-6.58364E+00-2.18894E-08-1.05146E-07
 -1        61-8.49832E+02-2.58802E+03-1.03651E+03-5.85469E+01 2.59244E-10-1.34622E-07
 -1        62-1.17755E+03-3.85792E+03-1.52352E+03-1.68285E+02 1.34827E-08-1.54091E-07
 -1        63-1.56541E+03-5.33787E+03-2.09703E+03-3.05577E+02 2.99991E-08-1.63778E-07
 -1        64-1.96870E+03-6.91140E+03-2.70916E+03-4.30320E+02 4.60287E-08-1.41931E-07
 -1        65-2.37923E+03-8.48573E+03-3.32903E+03-5.13441E+02 5.40412E-08-9.78627E-08
 -1        66-2.77789E+03-1.00161E+04-3.93625E+03-5.27760E+02 5.36863E-08-3.61395E-08
 -1        67-3.13017E+03-1.15575E+04-4.53768E+03-4.18485E+02 3.65278E-08 3.79000E-08
 -1        68-3.83676E+03-1.35190E+04-5.38994E+03-2.87698E+02 9.05424E-09 5.75915E-08
 -1        69-3.13782E+03-1.46389E+04-5.54669E+03 4.22933E+02-8.55085E-09 4.35922E-08
 -1        70 1.32430E+02 7.98466E+02 2.78371E+02 1.00939E-01-1.09309E-07 1.01331E-07
 -1        71 3.26218E+02 1.81121E+03 6.37318E+02 9.35499E+01-6.11408E-08 3.55156E-08
 -1        72 5.60734E+02 2.85436E+03 1.01521E+03 3.06201E+02 3.55853E-09 1.79738E-08
 -1        73 7.39196E+02 3.36528E+03 1.21799E+03 5.64514E+02 4.65306E-08 4.86003E-08
 -1        74 7.16351E+02 2.94113E+03 1.08587E+03 7.16610E+02 3.34009E-08 1.47268E-07
 -1        75 4.61476E+02 1.75599E+03 6.59798E+02 6.46232E+02-2.19495E-08 1.91775E-07
 -1        76 7.86972E+01 4.38523E+02 1.53883E+02 4.03558E+02-7.43458E-08 1.39265E-07
 -1        77-2.46766E+02-4.86638E+02-2.20250E+02 1.58589E+02-8.51430E-08 2.54441E-08
 -1        78-4.59888E+02-1.05380E+03-4.54551E+02 3.27271E+01-5.65196E-08-5.91990E-08
 -1        79-6.19141E+02-1.65377E+03-6.83465E+02-6.58364E+00-2.18886E-08-1.05145E-07
 -1        80-8.49832E+02-2.58802E+03-1.03651E+03-5.85469E+01 2.59286E-10-1.34622E-07
 -1        81-1.17755E+03-3.85792E+03-1.52352E+03-1.68285E+02 1.34827E-08-1.54091E-07
 -1        82-1.56541E+03-5.33787E+03-2.09703E+03-3.05577E+02 2.99991E-08-1.63778E-07
 -1        83-1.96870E+03-6.91140E+03-2.70916E+03-4.30320E+02 4.60287E-08-1.41931E-07
 -1        84-2.37923E+03-8.48573E+03-3.32903E+03-5.13441E+02 5.40418E-08-9.78633E-08
 -1        85-2.77789E+03-1.00161E+04-3.93625E+03-5.27760E+02 5.36870E-08-3.61404E-08
 -1        86-3.13017E+03-1.15575E+04-4.53768E+03-4.18485E+02 3.65278E-08 3.79005E-08
 -1        87-3.83676E+03-1.35190E+04-5.38994E+03-2.87698E+02 9.05420E-09 5.75915E-08
 -1        88-3.13782E+03-1.46389E+04-5.54669E+03 4.22933E+02-8.55085E-09 4.35922E-08
 -1        89-8.14715E+01 4.98782E+02 1.43821E+02 4.71162E+02-3.09203E-09 4.54634E-08
 -1        90-3.45695E+01 6.69230E+02 2.19532E+02 6.71377E+02-9.52137E-10 6.94286E-08
 -1        91 1.69929E+01 7.06151E+02 2.36355E+02 5.72298E+02 5.28594E-10 3.91769E-08
 -1        92 4.48067E+01 7.47820E+02 2.52138E+02 5.67878E+02 3.51482E-09-3.78086E-08
 -1        93 8.24672E+01 7.91220E+02 2.71785E+02 5.96835E+02 1.02518E-08-1.03560E-07
 -1        94 1.07457E+02 8.24485E+02 2.85575E+02 6.30382E+02 1.83805E-08-1.47307E-07
 -1        95 1.36013E+02 8.60487E+02 3.02102E+02 6.35068E+02 2.42820E-08-1.69010E-07
 -1        96 1.41369E+02 8.86098E+02 3.09331E+02 6.08012E+02 2.50247E-08-1.52892E-07
 -1        97 1.30745E+02 9.13945E+02 3.13315E+02 5.41723E+02 2.85887E-08-1.29455E-07
 -1        98 9.04962E+01 9.34918E+02 3.06908E+02 4.47421E+02 2.79209E-08-9.76953E-08
 -1        99 8.11725E+01 9.30598E+02 3.02414E+02 3.86964E+02 1.62947E-08-4.91336E-08
 -1       100 1.12578E+02 8.62843E+02 2.91079E+02 4.33550E+02-5.31163E-09 5.24871E-08
 -1       101 1.68057E+02 7.55737E+02 2.75412E+02 5.43618E+02-2.16307E-08 1.63996E-07
 -1       102 1.77336E+02 6.63442E+02 2.50816E+02 5.65170E+02-2.71888E-08 2.01025E-07
 -1       103 1.18903E+02 6.30660E+02 2.23975E+02 4.00707E+02-2.12179E-08 1.38659E-07
 -1       104 3.57268E+00 6.27472E+02 1.88934E+02 1.25928E+02 4.08497E-10 3.85769E-08
 -1       105-8.36962E+01 5.94457E+02 1.53129E+02-9.73468E+01 2.89034E-09 3.49603E-09
 -1       106-9.88747E+01 4.85345E+02 1.15834E+02-1.71686E+02-1.40122E-08 3.56219E-08
 -1       107-4.98960E+01 3.16592E+02 7.98979E+01-1.13655E+02-3.50876E-08 1.28198E-07
 -1       108-4.98960E+01 3.16592E+02 7.98979E+01-1.13655E+02-3.50866E-08 1.28197E-07
 -1       109-9.88747E+01 4.85345E+02 1.15834E+02-1.71686E+02-1.40118E-08 3.56177E-08
 -1       110-8.36962E+01 5.94457E+02 1.53129E+02-9.73468E+01 2.89061E-09 3.49707E-09
 -1       111 3.57268E+00 6.27472E+02 1.88934E+02 1.25928E+02 4.07858E-10 3.85852E-08
 -1       112 1.18903E+02 6.30660E+02 2.23975E+02 4.00707E+02-2.12172E-08 1.38655E-07
 -1       113 1.77336E+02 6.63442E+02 2.50816E+02 5.65170E+02-2.71888E-08 2.01026E-07
 -1       114 1.68057E+02 7.55737E+02 2.75412E+02 5.43618E+02-2.16307E-08 1.63992E-07
 -1       115 1.12578E+02 8.62843E+02 2.91079E+02 4.33550E+02-5.31153E-09 5.24892E-08
 -1       116 8.11725E+01 9.30598E+02 3.02414E+02 3.86964E+02 1.62949E-08-4.91287E-08
 -1       117 9.04962E+01 9.34918E+02 3.06908E+02 4.47421E+02 2.79208E-08-9.76958E-08
 -1       118 1.30745E+02 9.13945E+02 3.13315E+02 5.41723E+02 2.85885E-08-1.29455E-07
 -1       119 1.41369E+02 8.86098E+02 3.09331E+02 6.08012E+02 2.50247E-08-1.52890E-07
 -1       120 1.36013E+02 8.60487E+02 3.02102E+02 6.35068E+02 2.42821E-08-1.69010E-07
 -1       121 1.07457E+02 8.24485E+02 2.85575E+02 6.30382E+02 1.83805E-08-1.47307E-07
 -1       122 8.24672E+01 7.91220E+02 2.71785E+02 5.96835E+02 1.02518E-08-1.03562E-07
 -1       123 4.48067E+01 7.47820E+02 2.52138E+02 5.67878E+02 3.51483E-09-3.78077E-08
 -1       124 1.69929E+01 7.06151E+02 2.36355E+02 5.72298E+02 5.28553E-10 3.91767E-08
 -1       125-3.45695E+01 6.69230E+02 2.19532E+02 6.71377E+02-9.52028E-10 6.94286E-08
 -1       126-8.14715E+01 4.98782E+02 1.43821E+02 4.71162E+02-3.09205E-09 4.54634E-08
 -3
    1PSTEP                       211          53           1          
  100CL  153 5.30000E-01         126                     1   53           1
 -4  TOSTRAIN    6    1
 -5  EXX         1    4    1    1
 -5  EYY         1    4    2    2
 -5  EZZ         1    4    3    3
 -5  EXY         1    4    1    2
 -5  EYZ         1    4    2    3
 -5  EZX         1    4    3    1
 -1         1-1.07516E-04 3.66761E-02-9.01184E-27 1.44486E-02 1.52556E-19 3.58910E-16
 -1         2-1.07516E-04 3.66761E-02-9.01184E-27 1.44486E-02 1.52556E-19 3.58910E-16
 -1         3-1.07998E-04-1.35542E-06 1.15812E-24-2.46478E-04 2.46580E-13 7.38330E-13
 -1         4-1.07998E-04-1.35542E-06 1.15807E-24-2.46478E-04 2.46576E-13 7.38308E-13
 -1         5-1.20741E-04 7.21563E-04 9.83785E-25-2.66805E-04-2.82931E-13 6.59322E-13
 -1         6-1.20741E-04 7.21563E-04 9.83803E-25-2.66805E-04-2.82941E-13 6.59326E-13
 -1         7-1.02516E-04-3.21619E-02-6.93907E-27 1.25266E-02 2.61586E-19-3.42469E-16
 -1         8-1.02516E-04-3.21619E-02-6.93907E-27 1.25266E-02 2.61832E-19-3.42457E-16
 -1         9-1.14369E-04 4.22136E-04 8.92656E-25-3.30406E-04-3.17381E-14 6.84032E-13
 -1        10-1.14369E-04 4.22136E-04 8.92757E-25-3.30406E-04-3.17306E-14 6.84070E-13
 -1        11-1.05016E-04 1.50017E-03-7.31111E-27 9.04956E-03 8.45571E-20-1.68272E-17
 -1        12-1.05016E-04 1.50017E-03-7.31112E-27 9.04956E-03 8.40978E-20-1.68508E-17
 -1        13-1.02475E-02 3.55933E-02 4.83325E-26 3.16659E-03 1.87121E-14 1.62234E-13
 -1        14-7.66120E-03 3.24297E-02 1.03926E-25 1.19777E-03-3.84432E-14 2.28869E-13
 -1        15-7.03961E-03 2.87133E-02 3.71329E-26 1.27639E-03-1.30654E-13 1.11206E-13
 -1        16-6.27538E-03 2.55230E-02 6.92399E-26 1.15981E-03-1.79518E-13-1.29824E-13
 -1        17-5.59696E-03 2.23788E-02 2.37061E-25 1.19653E-03-1.65530E-13-3.16002E-13
 -1        18-4.92159E-03 1.91342E-02 4.38413E-25 1.21053E-03-1.19988E-13-4.56266E-13
 -1        19-4.14899E-03 1.58556E-02 5.99105E-25 1.16529E-03-4.27897E-14-5.45288E-13
 -1        20-3.45017E-03 1.27462E-02 4.73481E-25 1.07210E-03 4.03992E-14-4.85405E-13
 -1        21-2.83430E-03 1.00587E-02 3.35856E-25 8.91277E-04 1.03955E-13-3.99706E-13
 -1        22-2.42809E-03 8.05429E-03 2.39550E-25 6.18963E-04 1.72050E-13-3.12236E-13
 -1        23-2.08642E-03 6.67722E-03 1.30187E-25 4.48113E-04 2.57946E-13-1.41349E-13
 -1        24-1.77806E-03 5.25665E-03 1.70192E-25 5.93576E-04 2.96895E-13 1.71685E-13
 -1        25-1.25838E-03 2.96492E-03 5.85853E-25 9.16296E-04 2.06295E-13 5.17834E-13
 -1        26-5.34424E-04-1.76905E-04 6.98585E-25 9.97693E-04 2.08636E-14 5.96457E-13
 -1        27 2.21148E-04-3.00964E-03 3.80629E-25 6.10099E-04-1.21570E-13 4.34738E-13
 -1        28 5.45066E-04-4.21779E-03 5.06633E-26-4.50085E-05-1.11975E-13 1.58826E-13
 -1        29 4.25299E-04-3.53752E-03-1.21835E-26-5.66546E-04 1.32106E-14 1.26927E-14
 -1        30 1.00869E-04-1.88366E-03 8.38814E-26-7.00403E-04 1.52657E-13 1.84621E-13
 -1        31-9.03380E-05-4.91530E-04 4.56070E-25-4.66386E-04 2.17837E-13 4.51670E-13
 -1        32-1.02475E-02 3.55933E-02 4.83325E-26 3.16659E-03 1.87121E-14 1.62234E-13
 -1        33-7.66120E-03 3.24297E-02 1.03926E-25 1.19777E-03-3.84433E-14 2.28869E-13
 -1        34-7.03961E-03 2.87133E-02 3.71329E-26 1.27639E-03-1.30654E-13 1.11206E-13
 -1        35-6.27538E-03 2.55230E-02 6.92409E-26 1.15981E-03-1.79518E-13-1.29825E-13
 -1        36-5.59696E-03 2.23788E-02 2.37057E-25 1.19653E-03-1.65530E-13-3.15999E-13
 -1        37-4.92159E-03 1.91342E-02 4.38392E-25 1.21053E-03-1.19986E-13-4.56256E-13
 -1        38-4.14899E-03 1.58556E-02 5.99124E-25 1.16529E-03-4.27927E-14-5.45296E-13
 -1        39-3.45017E-03 1.27462E-02 4.73488E-25 1.07210E-03 4.03986E-14-4.85408E-13
 -1        40-2.83430E-03 1.00587E-02 3.35856E-25 8.91277E-04 1.03955E-13-3.99706E-13
 -1        41-2.42809E-03 8.05429E-03 2.39550E-25 6.18963E-04 1.72050E-13-3.12236E-13
 -1        42-2.08642E-03 6.67722E-03 1.30189E-25 4.48113E-04 2.57945E-13-1.41353E-13
 -1        43-1.77806E-03 5.25665E-03 1.70189E-25 5.93576E-04 2.96894E-13 1.71681E-13
 -1        44-1.25838E-03 2.96492E-03 5.85853E-25 9.16296E-04 2.06296E-13 5.17834E-13
 -1        45-5.34424E-04-1.76905E-04 6.98585E-25 9.97693E-04 2.08636E-14 5.96457E-13
 -1        46 2.21148E-04-3.00964E-03 3.80641E-25 6.10099E-04-1.21569E-13 4.34747E-13
 -1        47 5.45066E-04-4.21779E-03 5.06515E-26-4.50085E-05-1.11978E-13 1.58813E-13
 -1        48 4.25299E-04-3.53752E-03-1.21853E-26-5.66546E-04 1.32093E-14 1.26846E-14
 -1        49 1.00869E-04-1.88366E-03 8.39039E-26-7.00403E-04 1.52660E-13 1.84638E-13
 -1        50-9.03380E-05-4.91530E-04 4.55998E-25-4.66386E-04 2.17829E-13 4.51625E-13
 -1        51-3.98147E-04 1.60637E-03 4.22424E-25-3.98085E-04-2.86222E-13 3.90079E-13
 -1        52-9.53469E-04 3.72276E-03 7.83519E-26-6.13586E-04-1.72310E-13 1.50796E-13
 -1        53-1.58574E-03 6.00143E-03-4.91911E-27-4.92680E-04 2.24998E-14 5.50858E-14
 -1        54-1.95103E-03 7.25135E-03 6.44716E-26 1.89601E-05 1.77972E-13 1.24544E-13
 -1        55-1.84672E-03 6.57098E-03 4.43606E-25 6.71804E-04 2.02649E-13 4.45676E-13
 -1        56-1.32636E-03 4.19459E-03 7.71384E-25 1.04712E-03 6.00189E-14 6.24212E-13
 -1        57-7.35280E-04 1.40377E-03 4.85144E-25 9.51602E-04-1.41270E-13 4.93623E-13
 -1        58-3.34322E-04-6.20209E-04 1.05627E-25 6.28909E-04-2.53797E-13 1.38682E-13
 -1        59-1.45256E-04-1.82342E-03 1.03152E-25 4.84378E-04-2.19542E-13-1.50916E-13
 -1        60 7.71981E-05-3.03480E-03 2.27138E-25 6.40694E-04-1.38235E-13-3.21009E-13
 -1        61 4.54763E-04-4.93438E-03 3.77359E-25 9.02719E-04-8.40601E-14-4.30082E-13
 -1        62 1.00003E-03-7.57376E-03 5.04323E-25 1.08636E-03-4.97522E-14-5.01302E-13
 -1        63 1.65461E-03-1.06863E-02 5.84759E-25 1.18155E-03 4.07226E-15-5.42622E-13
 -1        64 2.37231E-03-1.40175E-02 4.64575E-25 1.21823E-03 7.62131E-14-4.80857E-13
 -1        65 3.06182E-03-1.73428E-02 2.50068E-25 1.19750E-03 1.32502E-13-3.41100E-13
 -1        66 3.70960E-03-2.05617E-02 6.72989E-26 1.16537E-03 1.64071E-13-1.38287E-13
 -1        67 4.42856E-03-2.38173E-02 4.47912E-26 1.31219E-03 1.34331E-13 1.11613E-13
 -1        68 4.81774E-03-2.77777E-02 6.82577E-26 1.24615E-03 4.33804E-14 1.85829E-13
 -1        69 7.47183E-03-3.11155E-02 3.72779E-26 2.84481E-03-2.44482E-14 1.43267E-13
 -1        70-3.98147E-04 1.60637E-03 4.22415E-25-3.98085E-04-2.86218E-13 3.90071E-13
 -1        71-9.53469E-04 3.72276E-03 7.83827E-26-6.13586E-04-1.72303E-13 1.50844E-13
 -1        72-1.58574E-03 6.00143E-03-4.92245E-27-4.92680E-04 2.24954E-14 5.50720E-14
 -1        73-1.95103E-03 7.25135E-03 6.44548E-26 1.89601E-05 1.77972E-13 1.24512E-13
 -1        74-1.84672E-03 6.57098E-03 4.43543E-25 6.71804E-04 2.02640E-13 4.45644E-13
 -1        75-1.32636E-03 4.19459E-03 7.71380E-25 1.04712E-03 6.00184E-14 6.24210E-13
 -1        76-7.35280E-04 1.40377E-03 4.85158E-25 9.51602E-04-1.41269E-13 4.93629E-13
 -1        77-3.34322E-04-6.20209E-04 1.05631E-25 6.28909E-04-2.53796E-13 1.38688E-13
 -1        78-1.45256E-04-1.82342E-03 1.03155E-25 4.84378E-04-2.19542E-13-1.50920E-13
 -1        79 7.71981E-05-3.03480E-03 2.27137E-25 6.40694E-04-1.38233E-13-3.21009E-13
 -1        80 4.54763E-04-4.93438E-03 3.77360E-25 9.02719E-04-8.40600E-14-4.30082E-13
 -1        81 1.00003E-03-7.57376E-03 5.04323E-25 1.08636E-03-4.97522E-14-5.01302E-13
 -1        82 1.65461E-03-1.06863E-02 5.84759E-25 1.18155E-03 4.07222E-15-5.42622E-13
 -1        83 2.37231E-03-1.40175E-02 4.64574E-25 1.21823E-03 7.62131E-14-4.80856E-13
 -1        84 3.06182E-03-1.73428E-02 2.50072E-25 1.19750E-03 1.32503E-13-3.41102E-13
 -1        85 3.70960E-03-2.05617E-02 6.73008E-26 1.16537E-03 1.64073E-13-1.38290E-13
 -1        86 4.42856E-03-2.38173E-02 4.47912E-26 1.31219E-03 1.34331E-13 1.11615E-13
 -1        87 4.81774E-03-2.77777E-02 6.82577E-26 1.24615E-03 4.33803E-14 1.85829E-13
 -1        88 7.47183E-03-3.11155E-02 3.72778E-26 2.84481E-03-2.44482E-14 1.43267E-13
 -1        89-1.38785E-03 1.89790E-03 3.93179E-26 1.45396E-03-5.40490E-15 1.48143E-13
 -1        90-1.42173E-03 2.26106E-03 9.90861E-26 1.99981E-03 1.16230E-14 2.25535E-13
 -1        91-1.30553E-03 2.24871E-03 1.47427E-26 1.60585E-03 1.35669E-14 1.26639E-13
 -1        92-1.28289E-03 2.31307E-03 2.59003E-27 1.51368E-03-3.34351E-15-1.23418E-13
 -1        93-1.26757E-03 2.39953E-03 2.10966E-25 1.53332E-03-1.42642E-14-3.38045E-13
 -1        94-1.27464E-03 2.48086E-03 4.59641E-25 1.57120E-03-1.67740E-14-4.82378E-13
 -1        95-1.24719E-03 2.53671E-03 6.16630E-25 1.52883E-03-1.71872E-14-5.54904E-13
 -1        96-1.22507E-03 2.55471E-03 5.06769E-25 1.39351E-03-1.15784E-14-5.03602E-13
 -1        97-1.18977E-03 2.54242E-03 3.66998E-25 1.14012E-03 1.00971E-14-4.30972E-13
 -1        98-1.17544E-03 2.50350E-03 2.05005E-25 7.98324E-04 2.57694E-14-3.29418E-13
 -1        99-1.11584E-03 2.42590E-03 1.45784E-26 5.98937E-04 1.93541E-14-1.67218E-13
 -1       100-1.05619E-03 2.31808E-03-7.46514E-27 7.88504E-04 1.84473E-14 1.70503E-13
 -1       101-9.96829E-04 2.19130E-03 5.45252E-25 1.21341E-03 4.27120E-14 5.35999E-13
 -1       102-9.30391E-04 2.01732E-03 8.62147E-25 1.34628E-03 4.98287E-14 6.57496E-13
 -1       103-8.12784E-04 1.78134E-03 3.82809E-25 8.53982E-04 2.48509E-14 4.55297E-13
 -1       104-7.02979E-04 1.51846E-03 4.26133E-27-2.01302E-05 2.62468E-14 1.22614E-13
 -1       105-5.80221E-04 1.24131E-03-3.02561E-27-7.09817E-04 1.13884E-14 9.35275E-15
 -1       106-4.26300E-04 9.27271E-04 4.27601E-27-8.69893E-04-2.27101E-14 1.22299E-13
 -1       107-2.44242E-04 5.90358E-04 3.25582E-25-5.62453E-04-3.34963E-14 4.30658E-13
 -1       108-2.44242E-04 5.90358E-04 3.25577E-25-5.62453E-04-3.34934E-14 4.30657E-13
 -1       109-4.26300E-04 9.27271E-04 4.26678E-27-8.69893E-04-2.27113E-14 1.22286E-13
 -1       110-5.80221E-04 1.24131E-03-3.02454E-27-7.09817E-04 1.13899E-14 9.35588E-15
 -1       111-7.02979E-04 1.51846E-03 4.28466E-27-2.01302E-05 2.62502E-14 1.22640E-13
 -1       112-8.12784E-04 1.78134E-03 3.82795E-25 8.53982E-04 2.48504E-14 4.55284E-13
 -1       113-9.30391E-04 2.01732E-03 8.62154E-25 1.34628E-03 4.98296E-14 6.57499E-13
 -1       114-9.96829E-04 2.19130E-03 5.45225E-25 1.21341E-03 4.27091E-14 5.35987E-13
 -1       115-1.05619E-03 2.31808E-03-7.45937E-27 7.88504E-04 1.84490E-14 1.70510E-13
 -1       116-1.11584E-03 2.42590E-03 1.45686E-26 5.98937E-04 1.93580E-14-1.67202E-13
 -1       117-1.17544E-03 2.50350E-03 2.05006E-25 7.98324E-04 2.57688E-14-3.29420E-13
 -1       118-1.18977E-03 2.54242E-03 3.66998E-25 1.14012E-03 1.00964E-14-4.30972E-13
 -1       119-1.22507E-03 2.55471E-03 5.06757E-25 1.39351E-03-1.15772E-14-5.03596E-13
 -1       120-1.24719E-03 2.53671E-03 6.16633E-25 1.52883E-03-1.71872E-14-5.54905E-13
 -1       121-1.27464E-03 2.48086E-03 4.59644E-25 1.57120E-03-1.67744E-14-4.82379E-13
 -1       122-1.26757E-03 2.39953E-03 2.10972E-25 1.53332E-03-1.42648E-14-3.38050E-13
 -1       123-1.28289E-03 2.31307E-03 2.58822E-27 1.51368E-03-3.34312E-15-1.23415E-13
 -1       124-1.30553E-03 2.24871E-03 1.47427E-26 1.60585E-03 1.35667E-14 1.26638E-13
 -1       125-1.42173E-03 2.26106E-03 9.90860E-26 1.99981E-03 1.16233E-14 2.25535E-13
 -1       126-1.38785E-03 1.89790E-03 3.93179E-26 1.45396E-03-5.40494E-15 1.48143E-13
 -3
    1PSTEP                       212          53           1          
  100CL  153 5.30000E-01         126                     1   53           1
 -4  ERROR       1    1
 -5  STR(%)      1    1    0    0
 -1         1 6.04509E+01
 -1         2 6.04509E+01
 -1         3 4.49784E+01
 -1         4 4.49784E+01
 -1         5 1.45574E+01
 -1         6 1.45574E+01
 -1         7 6.44491E+01
 -1         8 6.44491E+01
 -1         9 4.49784E+01
 -1        10 4.49784E+01
 -1        11 6.44491E+01
 -1        12 6.44491E+01
 -1        13 6.04509E+01
 -1        14 5.72292E+01
 -1        15 5.67964E+01
 -1        16 5.58760E+01
 -1        17 5.48360E+01
 -1        18 5.35536E+01
 -1        19 5.14585E+01
 -1        20 4.86840E+01
 -1        21 4.49598E+01
 -1        22 4.06833E+01
 -1        23 3.62045E+01
 -1        24 3.24641E+01
 -1        25 2.12877E+01
 -1        26 9.82657E+01
 -1        27 9.82657E+01
 -1        28 8.57545E+01
 -1        29 8.43881E+01
 -1        30 7.60911E+01
 -1        31 6.18043E+01
 -1        32 6.04509E+01
 -1        33 5.72292E+01
 -1        34 5.67964E+01
 -1        35 5.58760E+01
 -1        36 5.48360E+01
 -1        37 5.35536E+01
 -1        38 5.14585E+01
 -1        39 4.86840E+01
 -1        40 4.49598E+01
 -1        41 4.06833E+01
 -1        42 3.62045E+01
 -1        43 3.24641E+01
 -1        44 2.12877E+01
 -1        45 9.82657E+01
 -1        46 9.82657E+01
 -1        47 8.57545E+01
 -1        48 8.43881E+01
 -1        49 7.60911E+01
 -1        50 6.18043E+01
 -1        51 3.03950E+01
 -1        52 4.24681E+01
 -1        53 4.61665E+01
 -1        54 4.61665E+01
 -1        55 4.48208E+01
 -1        56 3.43197E+01
 -1        57 5.62479E+01
 -1        58 9.36847E+01
 -1        59 1.02612E+02
 -1        60 1.02612E+02
 -1        61 9.43402E+01
 -1        62 8.74274E+01
 -1        63 8.38570E+01
 -1        64 7.82921E+01
 -1        65 7.39424E+01
 -1        66 7.08570E+01
 -1        67 6.88571E+01
 -1        68 6.76489E+01
 -1        69 6.68069E+01
 -1        70 3.03950E+01
 -1        71 4.24681E+01
 -1        72 4.61665E+01
 -1        73 4.61665E+01
 -1        74 4.48208E+01
 -1        75 3.43197E+01
 -1        76 5.62479E+01
 -1        77 9.36847E+01
 -1        78 1.02612E+02
 -1        79 1.02612E+02
 -1        80 9.43402E+01
 -1        81 8.74274E+01
 -1        82 8.38570E+01
 -1        83 7.82921E+01
 -1        84 7.39424E+01
 -1        85 7.08570E+01
 -1        86 6.88571E+01
 -1        87 6.76489E+01
 -1        88 6.68069E+01
 -1        89 6.68069E+01
 -1        90 6.76489E+01
 -1        91 6.88571E+01
 -1        92 7.08570E+01
 -1        93 7.39424E+01
 -1        94 7.82921E+01
 -1        95 8.38570E+01
 -1        96 8.74274E+01
 -1        97 9.43402E+01
 -1        98 1.02612E+02
 -1        99 1.02612E+02
 -1       100 9.36847E+01
 -1       101 5.62479E+01
 -1       102 9.82657E+01
 -1       103 9.82657E+01
 -1       104 8.57545E+01
 -1       105 8.43881E+01
 -1       106 7.60911E+01
 -1       107 6.18043E+01
 -1       108 6.18043E+01
 -1       109 7.60911E+01
 -1       110 8.43881E+01
 -1       111 8.57545E+01
 -1       112 9.82657E+01
 -1       113 9.82657E+01
 -1       114 5.62479E+01
 -1       115 9.36847E+01
 -1       116 1.02612E+02
 -1       117 1.02612E+02
 -1       118 9.43402E+01
 -1       119 8.74274E+01
 -1       120 8.38570E+01
 -1       121 7.82921E+01
 -1       122 7.39424E+01
 -1       123 7.08570E+01
 -1       124 6.88571E+01
 -1       125 6.76489E+01
 -1       126 6.68069E+01
 -3
    1PSTEP                       213          54           1          
  100CL  154 5.40000E-01         126                     1   54           1
 -4  DISP        4    1
 -5  D1          1    2    1    0
 -5  D2          1    2    2    0
 -5  D3          1    2    3    0
 -5  ALL         1    2    0    0    1ALL
 -1         1 0.00000E+00 0.00000E+00 0.00000E+00
 -1         2 0.00000E+00 0.00000E+00 0.00000E+00
 -1         3 1.72344E-01-4.64850E-03 0.00000E+00
 -1         4 1.72344E-01-4.64850E-03 0.00000E+00
 -1         5 1.70322E-01-2.46071E-02 0.00000E+00
 -1         6 1.70322E-01-2.46071E-02 0.00000E+00
 -1         7 0.00000E+00 0.00000E+00 0.00000E+00
 -1         8 0.00000E+00 0.00000E+00 0.00000E+00
 -1         9 1.71333E-01-1.46187E-02 0.00000E+00
 -1        10 1.71333E-01-1.46187E-02 0.00000E+00
 -1        11 0.00000E+00 0.00000E+00 0.00000E+00
 -1        12 0.00000E+00 0.00000E+00 0.00000E+00
 -1        13 1.40659E-03 1.77056E-03 0.00000E+00
 -1        14 4.16935E-03 3.40024E-03 0.00000E+00
 -1        15 8.50736E-03 4.72688E-03 0.00000E+00
 -1        16 1.41704E-02 5.76201E-03 0.00000E+00
 -1        17 2.10001E-02 6.49725E-03 0.00000E+00
 -1        18 2.88340E-02 6.92776E-03 0.00000E+00
 -1        19 3.74799E-02 7.06399E-03 0.00000E+00
 -1        20 4.67651E-02 6.94507E-03 0.00000E+00
 -1        21 5.65629E-02 6.62688E-03 0.00000E+00
 -1        22 6.68125E-02 6.14592E-03 0.00000E+00
 -1        23 7.74660E-02 5.50463E-03 0.00000E+00
 -1        24 8.84541E-02 4.67861E-03 0.00000E+00
 -1        25 9.96352E-02 3.64776E-03 0.00000E+00
 -1        26 1.10813E-01 2.42098E-03 0.00000E+00
 -1        27 1.21759E-01 1.06561E-03 0.00000E+00
 -1        28 1.32320E-01-2.98479E-04 0.00000E+00
 -1        29 1.42503E-01-1.55284E-03 0.00000E+00
 -1        30 1.52468E-01-2.65755E-03 0.00000E+00
 -1        31 1.62388E-01-3.66237E-03 0.00000E+00
 -1        32 1.40659E-03 1.77056E-03 0.00000E+00
 -1        33 4.16935E-03 3.40024E-03 0.00000E+00
 -1        34 8.50736E-03 4.72688E-03 0.00000E+00
 -1        35 1.41704E-02 5.76201E-03 0.00000E+00
 -1        36 2.10001E-02 6.49725E-03 0.00000E+00
 -1        37 2.88340E-02 6.92776E-03 0.00000E+00
 -1        38 3.74799E-02 7.06399E-03 0.00000E+00
 -1        39 4.67651E-02 6.94507E-03 0.00000E+00
 -1        40 5.65629E-02 6.62688E-03 0.00000E+00
 -1        41 6.68125E-02 6.14592E-03 0.00000E+00
 -1        42 7.74660E-02 5.50463E-03 0.00000E+00
 -1        43 8.84541E-02 4.67861E-03 0.00000E+00
 -1        44 9.96352E-02 3.64776E-03 0.00000E+00
 -1        45 1.10813E-01 2.42098E-03 0.00000E+00
 -1        46 1.21759E-01 1.06561E-03 0.00000E+00
 -1        47 1.32320E-01-2.98479E-04 0.00000E+00
 -1        48 1.42503E-01-1.55284E-03 0.00000E+00
 -1        49 1.52468E-01-2.65755E-03 0.00000E+00
 -1        50 1.62388E-01-3.66237E-03 0.00000E+00
 -1        51 1.60349E-01-2.36236E-02 0.00000E+00
 -1        52 1.50392E-01-2.27107E-02 0.00000E+00
 -1        53 1.40351E-01-2.19045E-02 0.00000E+00
 -1        54 1.30045E-01-2.11746E-02 0.00000E+00
 -1        55 1.19342E-01-2.04127E-02 0.00000E+00
 -1        56 1.08287E-01-1.95033E-02 0.00000E+00
 -1        57 9.70730E-02-1.84003E-02 0.00000E+00
 -1        58 8.59360E-02-1.71369E-02 0.00000E+00
 -1        59 7.50594E-02-1.57829E-02 0.00000E+00
 -1        60 6.45582E-02-1.44056E-02 0.00000E+00
 -1        61 5.44899E-02-1.30462E-02 0.00000E+00
 -1        62 4.48927E-02-1.17089E-02 0.00000E+00
 -1        63 3.58316E-02-1.03691E-02 0.00000E+00
 -1        64 2.74363E-02-9.00133E-03 0.00000E+00
 -1        65 1.98806E-02-7.60253E-03 0.00000E+00
 -1        66 1.33322E-02-6.18390E-03 0.00000E+00
 -1        67 7.93402E-03-4.74273E-03 0.00000E+00
 -1        68 3.81571E-03-3.25422E-03 0.00000E+00
 -1        69 1.22259E-03-1.64393E-03 0.00000E+00
 -1        70 1.60349E-01-2.36236E-02 0.00000E+00
 -1        71 1.50392E-01-2.27107E-02 0.00000E+00
 -1        72 1.40351E-01-2.19045E-02 0.00000E+00
 -1        73 1.30045E-01-2.11746E-02 0.00000E+00
 -1        74 1.19342E-01-2.04127E-02 0.00000E+00
 -1        75 1.08287E-01-1.95033E-02 0.00000E+00
 -1        76 9.70730E-02-1.84003E-02 0.00000E+00
 -1        77 8.59360E-02-1.71369E-02 0.00000E+00
 -1        78 7.50594E-02-1.57829E-02 0.00000E+00
 -1        79 6.45582E-02-1.44056E-02 0.00000E+00
 -1        80 5.44899E-02-1.30462E-02 0.00000E+00
 -1        81 4.48927E-02-1.17089E-02 0.00000E+00
 -1        82 3.58316E-02-1.03691E-02 0.00000E+00
 -1        83 2.74363E-02-9.00133E-03 0.00000E+00
 -1        84 1.98806E-02-7.60253E-03 0.00000E+00
 -1        85 1.33322E-02-6.18390E-03 0.00000E+00
 -1        86 7.93402E-03-4.74273E-03 0.00000E+00
 -1        87 3.81571E-03-3.25422E-03 0.00000E+00
 -1        88 1.22259E-03-1.64393E-03 0.00000E+00
 -1        89 8.71696E-04 6.46023E-05 0.00000E+00
 -1        90 3.67761E-03 9.61343E-05 0.00000E+00
 -1        91 7.93166E-03 2.28366E-05 0.00000E+00
 -1        92 1.35004E-02-1.78239E-04 0.00000E+00
 -1        93 2.02234E-02-5.19681E-04 0.00000E+00
 -1        94 2.79523E-02-1.00514E-03 0.00000E+00
 -1        95 3.65079E-02-1.62469E-03 0.00000E+00
 -1        96 4.57071E-02-2.35833E-03 0.00000E+00
 -1        97 5.54222E-02-3.18862E-03 0.00000E+00
 -1        98 6.55941E-02-4.10980E-03 0.00000E+00
 -1        99 7.61912E-02-5.12188E-03 0.00000E+00
 -1       100 8.71508E-02-6.21718E-03 0.00000E+00
 -1       101 9.83460E-02-7.37222E-03 0.00000E+00
 -1       102 1.09579E-01-8.54568E-03 0.00000E+00
 -1       103 1.20609E-01-9.68397E-03 0.00000E+00
 -1       104 1.31245E-01-1.07467E-02 0.00000E+00
 -1       105 1.41471E-01-1.17339E-02 0.00000E+00
 -1       106 1.51447E-01-1.26832E-02 0.00000E+00
 -1       107 1.61371E-01-1.36381E-02 0.00000E+00
 -1       108 1.61371E-01-1.36381E-02 0.00000E+00
 -1       109 1.51447E-01-1.26832E-02 0.00000E+00
 -1       110 1.41471E-01-1.17339E-02 0.00000E+00
 -1       111 1.31245E-01-1.07467E-02 0.00000E+00
 -1       112 1.20609E-01-9.68397E-03 0.00000E+00
 -1       113 1.09579E-01-8.54568E-03 0.00000E+00
 -1       114 9.83460E-02-7.37222E-03 0.00000E+00
 -1       115 8.71508E-02-6.21718E-03 0.00000E+00
 -1       116 7.61912E-02-5.12188E-03 0.00000E+00
 -1       117 6.55941E-02-4.10980E-03 0.00000E+00
 -1       118 5.54222E-02-3.18862E-03 0.00000E+00
 -1       119 4.57071E-02-2.35833E-03 0.00000E+00
 -1       120 3.65079E-02-1.62469E-03 0.00000E+00
 -1       121 2.79523E-02-1.00514E-03 0.00000E+00
 -1       122 2.02234E-02-5.19681E-04 0.00000E+00
 -1       123 1.35004E-02-1.78239E-04 0.00000E+00
 -1       124 7.93166E-03 2.28366E-05 0.00000E+00
 -1       125 3.67761E-03 9.61343E-05 0.00000E+00
 -1       126 8.71696E-04 6.46023E-05 0.00000E+00
 -3
    1PSTEP                       214          54           1          
  100CL  154 5.40000E-01         126                     1   54           1
 -4  STRESS      6    1
 -5  SXX         1    4    1    1
 -5  SYY         1    4    2    2
 -5  SZZ         1    4    3    3
 -5  SXY         1    4    1    2
 -5  SYZ         1    4    2    3
 -5  SZX         1    4    3    1
 -1         1 8.31707E+03 2.00611E+04 8.11894E+03 4.81254E+03 8.69051E-11 1.17308E-10
 -1         2 8.31707E+03 2.00611E+04 8.11894E+03 4.81254E+03 8.69051E-11 1.17308E-10
 -1         3-2.50804E+01 1.44359E+02 3.57490E+01-2.59285E+01-4.44772E-09 8.54051E-08
 -1         4-2.50804E+01 1.44359E+02 3.57490E+01-2.59285E+01-4.44785E-09 8.54046E-08
 -1         5 4.25250E+01 2.28426E+02 8.12238E+01-2.92105E+01-4.56082E-08 8.59751E-08
 -1         6 4.25250E+01 2.28426E+02 8.12238E+01-2.92105E+01-4.56082E-08 8.59396E-08
 -1         7-7.50554E+03-1.69169E+04-7.64385E+03 3.38191E+03 9.89269E-11-4.93657E-11
 -1         8-7.50554E+03-1.69169E+04-7.64385E+03 3.38191E+03 9.89269E-11-4.93696E-11
 -1         9 2.07834E+01 2.28130E+02 7.46027E+01-3.49674E+01-1.90009E-08 8.80792E-08
 -1        10 2.07834E+01 2.28130E+02 7.46027E+01-3.49674E+01-1.90007E-08 8.80857E-08
 -1        11 3.79907E+02 5.37159E+02 3.32934E+02 2.68333E+03 8.45665E-11 4.27383E-11
 -1        12 3.79907E+02 5.37159E+02 3.32934E+02 2.68333E+03 8.45664E-11 4.27456E-11
 -1        13 2.78288E+03 1.72583E+04 5.74048E+03 1.49171E+03 1.07268E-08 1.51803E-08
 -1        14 3.47257E+03 1.61612E+04 5.64261E+03 1.23172E+03 7.30750E-09 1.04628E-08
 -1        15 3.03118E+03 1.41602E+04 4.96308E+03 1.49721E+03-3.18928E-09-1.25387E-08
 -1        16 2.76103E+03 1.24605E+04 4.41192E+03 1.57955E+03-1.19314E-08-3.71042E-08
 -1        17 2.45197E+03 1.07822E+04 3.85068E+03 1.61450E+03-1.30823E-08-8.07745E-08
 -1        18 2.10511E+03 9.11547E+03 3.27793E+03 1.55834E+03-4.40857E-09-1.20953E-07
 -1        19 1.80613E+03 7.61704E+03 2.76380E+03 1.40757E+03 1.47598E-08-1.56626E-07
 -1        20 1.51287E+03 6.43515E+03 2.33848E+03 1.23383E+03 3.95786E-08-1.76306E-07
 -1        21 1.28183E+03 5.59402E+03 2.02721E+03 1.10199E+03 7.19544E-08-1.85897E-07
 -1        22 1.07985E+03 4.86176E+03 1.75455E+03 1.02584E+03 9.93041E-08-1.44735E-07
 -1        23 9.07386E+02 3.95437E+03 1.43866E+03 9.54262E+02 1.12236E-07-7.84259E-08
 -1        24 6.15195E+02 2.63557E+03 9.64608E+02 8.28391E+02 8.98935E-08 3.03061E-08
 -1        25 2.09213E+02 9.60345E+02 3.47546E+02 5.90929E+02 4.73584E-08 1.06582E-07
 -1        26-2.75862E+02-7.47360E+02-3.08372E+02 2.46851E+02 2.41795E-10 1.67608E-07
 -1        27-6.40749E+02-1.90235E+03-7.66570E+02-1.26185E+02-3.06520E-08 1.55920E-07
 -1        28-7.87855E+02-2.09303E+03-8.68880E+02-3.77679E+02-4.44275E-08 1.16385E-07
 -1        29-6.63124E+02-1.41568E+03-6.26105E+02-4.13628E+02-4.66558E-08 9.82239E-08
 -1        30-4.06527E+02-5.12385E+02-2.76225E+02-2.70694E+02-3.20642E-08 7.34963E-08
 -1        31-1.53817E+02 1.83046E+01-4.07234E+01-9.97052E+01-1.22870E-08 7.34337E-08
 -1        32 2.78288E+03 1.72583E+04 5.74048E+03 1.49171E+03 1.07268E-08 1.51803E-08
 -1        33 3.47257E+03 1.61612E+04 5.64261E+03 1.23172E+03 7.30750E-09 1.04628E-08
 -1        34 3.03118E+03 1.41602E+04 4.96308E+03 1.49721E+03-3.18928E-09-1.25388E-08
 -1        35 2.76103E+03 1.24605E+04 4.41192E+03 1.57955E+03-1.19314E-08-3.71036E-08
 -1        36 2.45197E+03 1.07822E+04 3.85068E+03 1.61450E+03-1.30823E-08-8.07743E-08
 -1        37 2.10511E+03 9.11547E+03 3.27793E+03 1.55834E+03-4.40839E-09-1.20950E-07
 -1        38 1.80613E+03 7.61704E+03 2.76380E+03 1.40757E+03 1.47594E-08-1.56629E-07
 -1        39 1.51287E+03 6.43515E+03 2.33848E+03 1.23383E+03 3.95786E-08-1.76307E-07
 -1        40 1.28183E+03 5.59402E+03 2.02721E+03 1.10199E+03 7.19544E-08-1.85898E-07
 -1        41 1.07985E+03 4.86176E+03 1.75455E+03 1.02584E+03 9.93041E-08-1.44735E-07
 -1        42 9.07386E+02 3.95437E+03 1.43866E+03 9.54262E+02 1.12236E-07-7.84259E-08
 -1        43 6.15195E+02 2.63557E+03 9.64608E+02 8.28391E+02 8.98935E-08 3.03056E-08
 -1        44 2.09213E+02 9.60345E+02 3.47546E+02 5.90929E+02 4.73583E-08 1.06585E-07
 -1        45-2.75862E+02-7.47360E+02-3.08372E+02 2.46851E+02 2.41785E-10 1.67605E-07
 -1        46-6.40749E+02-1.90235E+03-7.66570E+02-1.26185E+02-3.06521E-08 1.55920E-07
 -1        47-7.87855E+02-2.09303E+03-8.68880E+02-3.77679E+02-4.44273E-08 1.16385E-07
 -1        48-6.63124E+02-1.41568E+03-6.26105E+02-4.13628E+02-4.66557E-08 9.82168E-08
 -1        49-4.06527E+02-5.12385E+02-2.76225E+02-2.70694E+02-3.20640E-08 7.35044E-08
 -1        50-1.53817E+02 1.83046E+01-4.07234E+01-9.97052E+01-1.22870E-08 7.34234E-08
 -1        51 5.92825E+01 5.35624E+02 1.78006E+02-1.58147E+01-2.86549E-08 6.67909E-08
 -1        52 2.23015E+02 1.44989E+03 4.99207E+02 3.50385E+01-2.21287E-08 8.05241E-08
 -1        53 4.76921E+02 2.61526E+03 9.19670E+02 2.31045E+02-1.84571E-08 1.10954E-07
 -1        54 7.16415E+02 3.38592E+03 1.21722E+03 5.28734E+02-1.76273E-08 1.45040E-07
 -1        55 7.70632E+02 3.19084E+03 1.17534E+03 7.45830E+02-3.03289E-08 1.60536E-07
 -1        56 5.61484E+02 2.05316E+03 7.77274E+02 7.31420E+02-5.57436E-08 1.41647E-07
 -1        57 1.33800E+02 4.73158E+02 1.80143E+02 5.05529E+02-7.68393E-08 9.25311E-08
 -1        58-3.32745E+02-1.01323E+03-4.05068E+02 1.97946E+02-6.99918E-08-9.03402E-09
 -1        59-7.16872E+02-2.15204E+03-8.64509E+02-6.98314E+01-3.51249E-08-1.16067E-07
 -1        60-9.86012E+02-2.95758E+03-1.19036E+03-2.42564E+02 7.03556E-09-1.66892E-07
 -1        61-1.19063E+03-3.64287E+03-1.46130E+03-3.24164E+02 3.74623E-08-1.82901E-07
 -1        62-1.39151E+03-4.48853E+03-1.78167E+03-3.61784E+02 5.55056E-08-1.79080E-07
 -1        63-1.67316E+03-5.68091E+03-2.23585E+03-4.06435E+02 6.55733E-08-1.57686E-07
 -1        64-2.03613E+03-7.15252E+03-2.80534E+03-4.78099E+02 6.41558E-08-1.00984E-07
 -1        65-2.43679E+03-8.70311E+03-3.41562E+03-5.42060E+02 6.18685E-08-6.37727E-08
 -1        66-2.83567E+03-1.02356E+04-4.02432E+03-5.45415E+02 5.31777E-08-2.30553E-08
 -1        67-3.19362E+03-1.17902E+04-4.63271E+03-4.34828E+02 3.47609E-08 1.46941E-09
 -1        68-3.88078E+03-1.37142E+04-5.46817E+03-3.16078E+02 1.30369E-08 1.96198E-08
 -1        69-3.15078E+03-1.47078E+04-5.57401E+03 3.76445E+02 4.16752E-10 1.69364E-08
 -1        70 5.92825E+01 5.35624E+02 1.78006E+02-1.58147E+01-2.86551E-08 6.68105E-08
 -1        71 2.23015E+02 1.44989E+03 4.99207E+02 3.50385E+01-2.21265E-08 8.05230E-08
 -1        72 4.76921E+02 2.61526E+03 9.19670E+02 2.31045E+02-1.84575E-08 1.10954E-07
 -1        73 7.16415E+02 3.38592E+03 1.21722E+03 5.28734E+02-1.76289E-08 1.45040E-07
 -1        74 7.70632E+02 3.19084E+03 1.17534E+03 7.45830E+02-3.03291E-08 1.60537E-07
 -1        75 5.61484E+02 2.05316E+03 7.77274E+02 7.31420E+02-5.57435E-08 1.41646E-07
 -1        76 1.33800E+02 4.73158E+02 1.80143E+02 5.05529E+02-7.68396E-08 9.25407E-08
 -1        77-3.32745E+02-1.01323E+03-4.05068E+02 1.97946E+02-6.99896E-08-9.03947E-09
 -1        78-7.16872E+02-2.15204E+03-8.64509E+02-6.98314E+01-3.51252E-08-1.16060E-07
 -1        79-9.86012E+02-2.95758E+03-1.19036E+03-2.42564E+02 7.03484E-09-1.66884E-07
 -1        80-1.19063E+03-3.64287E+03-1.46130E+03-3.24164E+02 3.74618E-08-1.82906E-07
 -1        81-1.39151E+03-4.48853E+03-1.78167E+03-3.61784E+02 5.55056E-08-1.79080E-07
 -1        82-1.67316E+03-5.68091E+03-2.23585E+03-4.06435E+02 6.55734E-08-1.57685E-07
 -1        83-2.03613E+03-7.15252E+03-2.80534E+03-4.78099E+02 6.41555E-08-1.00987E-07
 -1        84-2.43679E+03-8.70311E+03-3.41562E+03-5.42060E+02 6.18703E-08-6.37686E-08
 -1        85-2.83567E+03-1.02356E+04-4.02432E+03-5.45415E+02 5.31777E-08-2.30540E-08
 -1        86-3.19362E+03-1.17902E+04-4.63271E+03-4.34828E+02 3.47609E-08 1.46918E-09
 -1        87-3.88078E+03-1.37142E+04-5.46817E+03-3.16078E+02 1.30369E-08 1.96197E-08
 -1        88-3.15078E+03-1.47078E+04-5.57401E+03 3.76445E+02 4.16752E-10 1.69364E-08
 -1        89-8.35556E+01 4.29126E+02 1.22402E+02 4.10195E+02 5.66754E-09 1.50351E-08
 -1        90-4.52962E+01 5.95663E+02 1.94634E+02 6.41008E+02 9.24399E-09 1.82724E-08
 -1        91 5.29071E+00 6.36051E+02 2.12435E+02 5.69451E+02 1.52864E-08 3.44529E-09
 -1        92 3.52723E+01 6.73085E+02 2.27552E+02 5.68131E+02 2.12532E-08-3.03836E-08
 -1        93 7.11577E+01 7.07264E+02 2.43866E+02 5.87522E+02 2.63023E-08-7.03354E-08
 -1        94 9.14002E+01 7.35271E+02 2.54823E+02 6.02483E+02 3.16064E-08-1.13280E-07
 -1        95 1.10657E+02 7.86255E+02 2.73564E+02 5.60614E+02 4.10090E-08-1.59238E-07
 -1        96 9.16003E+01 8.45144E+02 2.83745E+02 4.77986E+02 5.24221E-08-1.81723E-07
 -1        97 7.13598E+01 8.91386E+02 2.90160E+02 4.17259E+02 5.53641E-08-1.87658E-07
 -1        98 7.60223E+01 8.90652E+02 2.90137E+02 4.27303E+02 5.01582E-08-1.68660E-07
 -1        99 1.32404E+02 8.46418E+02 2.92792E+02 5.02435E+02 3.72592E-08-9.75096E-08
 -1       100 1.87722E+02 7.59865E+02 2.82623E+02 6.00760E+02 1.20988E-08 1.12311E-08
 -1       101 2.23894E+02 6.65809E+02 2.65029E+02 6.52406E+02-1.82031E-08 1.04242E-07
 -1       102 1.90828E+02 6.02352E+02 2.36543E+02 5.81995E+02-3.18486E-08 1.60778E-07
 -1       103 9.24459E+01 6.07359E+02 2.09133E+02 3.52526E+02-2.59953E-08 1.66212E-07
 -1       104-3.90135E+01 6.39515E+02 1.79747E+02 4.90921E+01-2.89155E-08 1.34824E-07
 -1       105-1.16416E+02 6.21484E+02 1.51296E+02-1.59332E+02-3.23513E-08 9.87221E-08
 -1       106-1.12443E+02 4.99351E+02 1.15832E+02-1.77480E+02-2.92940E-08 7.46433E-08
 -1       107-4.77822E+01 3.11934E+02 7.90767E+01-8.24467E+01-2.03848E-08 6.44379E-08
 -1       108-4.77822E+01 3.11934E+02 7.90767E+01-8.24467E+01-2.03846E-08 6.44379E-08
 -1       109-1.12443E+02 4.99351E+02 1.15832E+02-1.77480E+02-2.92945E-08 7.46427E-08
 -1       110-1.16416E+02 6.21484E+02 1.51296E+02-1.59332E+02-3.23515E-08 9.87230E-08
 -1       111-3.90135E+01 6.39515E+02 1.79747E+02 4.90921E+01-2.89157E-08 1.34824E-07
 -1       112 9.24459E+01 6.07359E+02 2.09133E+02 3.52526E+02-2.59948E-08 1.66211E-07
 -1       113 1.90828E+02 6.02352E+02 2.36543E+02 5.81995E+02-3.18488E-08 1.60779E-07
 -1       114 2.23894E+02 6.65809E+02 2.65029E+02 6.52406E+02-1.82024E-08 1.04237E-07
 -1       115 1.87722E+02 7.59865E+02 2.82623E+02 6.00760E+02 1.20984E-08 1.12328E-08
 -1       116 1.32404E+02 8.46418E+02 2.92792E+02 5.02435E+02 3.72591E-08-9.75107E-08
 -1       117 7.60223E+01 8.90652E+02 2.90137E+02 4.27303E+02 5.01584E-08-1.68662E-07
 -1       118 7.13598E+01 8.91386E+02 2.90160E+02 4.17259E+02 5.53638E-08-1.87655E-07
 -1       119 9.16003E+01 8.45144E+02 2.83745E+02 4.77986E+02 5.24221E-08-1.81723E-07
 -1       120 1.10657E+02 7.86255E+02 2.73564E+02 5.60614E+02 4.10090E-08-1.59240E-07
 -1       121 9.14002E+01 7.35271E+02 2.54823E+02 6.02483E+02 3.16064E-08-1.13278E-07
 -1       122 7.11577E+01 7.07264E+02 2.43866E+02 5.87522E+02 2.63021E-08-7.03364E-08
 -1       123 3.52723E+01 6.73085E+02 2.27552E+02 5.68131E+02 2.12532E-08-3.03849E-08
 -1       124 5.29071E+00 6.36051E+02 2.12435E+02 5.69451E+02 1.52865E-08 3.44554E-09
 -1       125-4.52962E+01 5.95663E+02 1.94634E+02 6.41008E+02 9.24398E-09 1.82723E-08
 -1       126-8.35556E+01 4.29126E+02 1.22402E+02 4.10195E+02 5.66754E-09 1.50351E-08
 -3
    1PSTEP                       215          54           1          
  100CL  154 5.40000E-01         126                     1   54           1
 -4  TOSTRAIN    6    1
 -5  EXX         1    4    1    1
 -5  EYY         1    4    2    2
 -5  EZZ         1    4    3    3
 -5  EXY         1    4    1    2
 -5  EYZ         1    4    2    3
 -5  EZX         1    4    3    1
 -1         1-1.06373E-04 3.63265E-02-1.13437E-27 1.40657E-02-4.67616E-19 2.68106E-16
 -1         2-1.06373E-04 3.63265E-02-1.13437E-27 1.40657E-02-4.67616E-19 2.68106E-16
 -1         3-1.43021E-04 2.97953E-04 1.53222E-25-1.85022E-04 4.11748E-14 2.74907E-13
 -1         4-1.43021E-04 2.97953E-04 1.53221E-25-1.85022E-04 4.11741E-14 2.74906E-13
 -1         5-6.46216E-05 4.16706E-04 1.95365E-25-2.05348E-04-8.93636E-14 3.03329E-13
 -1         6-6.46216E-05 4.16706E-04 1.95246E-25-2.05348E-04-8.93865E-14 3.03216E-13
 -1         7-1.01532E-04-3.21399E-02-9.80763E-28 1.22257E-02-1.83316E-19-5.69156E-17
 -1         8-1.01532E-04-3.21399E-02-9.80765E-28 1.22257E-02-1.83554E-19-5.69282E-17
 -1         9-1.03821E-04 4.27199E-04 1.68086E-25-2.36061E-04-3.36910E-15 2.92805E-13
 -1        10-1.03821E-04 4.27199E-04 1.68107E-25-2.36061E-04-3.36422E-15 2.92826E-13
 -1        11-1.03952E-04 1.34081E-03-8.91031E-28 8.71682E-03-2.92660E-19 1.18032E-16
 -1        12-1.03952E-04 1.34081E-03-8.91027E-28 8.71682E-03-2.92216E-19 1.18056E-16
 -1        13-1.01541E-02 3.54459E-02 6.21414E-27 2.98398E-03 3.49412E-14 4.76594E-14
 -1        14-7.67794E-03 3.25738E-02 2.00035E-27 1.13676E-03 2.50165E-14 3.20229E-14
 -1        15-7.08023E-03 2.89305E-02-6.28366E-28 1.27791E-03-1.37496E-14-3.94736E-14
 -1        16-6.29793E-03 2.56906E-02 2.33218E-26 1.17261E-03-5.13721E-14-1.14509E-13
 -1        17-5.59995E-03 2.24975E-02 1.28793E-25 1.19185E-03-7.70200E-14-2.52863E-13
 -1        18-4.91610E-03 1.92756E-02 2.99207E-25 1.16714E-03-7.50275E-14-3.84578E-13
 -1        19-4.16763E-03 1.62564E-02 5.17719E-25 1.01076E-03-4.07615E-14-5.08376E-13
 -1        20-3.63561E-03 1.38503E-02 6.88779E-25 7.68594E-04 1.90122E-14-5.85947E-13
 -1        21-3.29265E-03 1.21389E-02 8.36141E-25 5.79671E-04 1.08580E-13-6.37683E-13
 -1        22-3.04115E-03 1.06909E-02 6.28580E-25 5.62347E-04 2.16088E-13-5.26444E-13
 -1        23-2.58893E-03 8.85584E-03 3.41461E-25 7.42935E-04 2.98639E-13-3.26966E-13
 -1        24-1.98283E-03 6.17970E-03 1.27961E-25 1.02222E-03 3.04142E-13 3.17255E-14
 -1        25-1.16473E-03 2.67598E-03 2.47010E-25 1.20005E-03 2.25777E-13 3.03491E-13
 -1        26-3.19999E-04-1.01337E-03 5.78514E-25 1.05240E-03 1.20414E-13 5.31557E-13
 -1        27 3.77330E-04-3.69227E-03 5.29290E-25 4.89723E-04 1.16316E-14 5.16956E-13
 -1        28 5.64470E-04-4.32100E-03 3.22717E-25-2.55793E-04-6.25940E-14 4.00569E-13
 -1        29 3.06305E-04-3.01426E-03 2.47350E-25-7.49403E-04-8.38403E-14 3.43640E-13
 -1        30-9.42875E-05-1.10135E-03 1.33861E-25-7.43788E-04-5.43038E-14 2.55008E-13
 -1        31-2.19423E-04 4.29653E-05 1.15807E-25-4.07867E-04 8.49202E-15 2.41909E-13
 -1        32-1.01541E-02 3.54459E-02 6.21413E-27 2.98398E-03 3.49411E-14 4.76593E-14
 -1        33-7.67794E-03 3.25738E-02 2.00039E-27 1.13676E-03 2.50165E-14 3.20231E-14
 -1        34-7.08023E-03 2.89305E-02-6.28280E-28 1.27791E-03-1.37496E-14-3.94740E-14
 -1        35-6.29793E-03 2.56906E-02 2.33210E-26 1.17261E-03-5.13718E-14-1.14507E-13
 -1        36-5.59995E-03 2.24975E-02 1.28792E-25 1.19185E-03-7.70198E-14-2.52862E-13
 -1        37-4.91610E-03 1.92756E-02 2.99193E-25 1.16714E-03-7.50257E-14-3.84570E-13
 -1        38-4.16763E-03 1.62564E-02 5.17737E-25 1.01076E-03-4.07646E-14-5.08385E-13
 -1        39-3.63561E-03 1.38503E-02 6.88779E-25 7.68594E-04 1.90122E-14-5.85947E-13
 -1        40-3.29265E-03 1.21389E-02 8.36152E-25 5.79671E-04 1.08579E-13-6.37688E-13
 -1        41-3.04115E-03 1.06909E-02 6.28577E-25 5.62347E-04 2.16088E-13-5.26442E-13
 -1        42-2.58893E-03 8.85584E-03 3.41461E-25 7.42935E-04 2.98639E-13-3.26966E-13
 -1        43-1.98283E-03 6.17970E-03 1.27960E-25 1.02222E-03 3.04142E-13 3.17240E-14
 -1        44-1.16473E-03 2.67598E-03 2.47026E-25 1.20005E-03 2.25779E-13 3.03501E-13
 -1        45-3.19999E-04-1.01337E-03 5.78499E-25 1.05240E-03 1.20413E-13 5.31549E-13
 -1        46 3.77330E-04-3.69227E-03 5.29290E-25 4.89723E-04 1.16314E-14 5.16956E-13
 -1        47 5.64470E-04-4.32100E-03 3.22717E-25-2.55793E-04-6.25933E-14 4.00568E-13
 -1        48 3.06305E-04-3.01426E-03 2.47324E-25-7.49403E-04-8.38447E-14 3.43617E-13
 -1        49-9.42875E-05-1.10135E-03 1.33890E-25-7.43788E-04-5.42977E-14 2.55034E-13
 -1        50-2.19423E-04 4.29653E-05 1.15776E-25-4.07867E-04 8.48517E-15 2.41876E-13
 -1        51-3.04507E-04 1.07680E-03 1.09905E-25-3.48697E-04-4.78242E-14 2.31245E-13
 -1        52-7.84138E-04 2.95260E-03 1.45108E-25-6.73668E-04-1.78741E-14 2.70699E-13
 -1        53-1.45903E-03 5.45852E-03 2.62875E-25-6.89853E-04 1.46002E-14 3.65069E-13
 -1        54-1.96922E-03 7.26625E-03 4.48615E-25-2.02837E-04 4.20480E-14 4.72612E-13
 -1        55-1.98767E-03 7.10218E-03 5.63067E-25 5.40255E-04 1.57271E-14 5.30367E-13
 -1        56-1.49623E-03 4.87614E-03 4.81722E-25 1.09809E-03-7.52517E-14 4.88926E-13
 -1        57-8.11359E-04 1.59491E-03 2.71707E-25 1.23898E-03-1.76862E-13 3.48998E-13
 -1        58-1.54636E-04-1.59842E-03 4.02170E-26 1.05476E-03-2.28925E-13 2.15182E-14
 -1        59 3.47539E-04-4.08585E-03 2.61889E-25 7.70624E-04-1.92976E-13-3.44446E-13
 -1        60 6.91685E-04-5.83429E-03 5.74513E-25 5.75951E-04-8.98790E-14-5.36404E-13
 -1        61 9.55692E-04-7.26317E-03 7.34245E-25 5.77009E-04 2.40118E-15-6.08086E-13
 -1        62 1.32020E-03-9.00198E-03 7.43478E-25 7.69166E-04 6.94681E-14-6.07046E-13
 -1        63 1.84191E-03-1.14669E-02 6.10920E-25 1.02500E-03 1.22440E-13-5.43577E-13
 -1        64 2.49593E-03-1.45499E-02 2.94310E-25 1.18216E-03 1.56726E-13-3.58822E-13
 -1        65 3.16702E-03-1.78143E-02 1.61893E-25 1.20390E-03 1.74104E-13-2.34885E-13
 -1        66 3.80931E-03-2.10324E-02 6.76586E-26 1.19291E-03 1.67505E-13-9.58993E-14
 -1        67 4.52932E-03-2.43167E-02 2.40065E-26 1.32502E-03 1.16933E-13-6.28096E-15
 -1        68 4.93121E-03-2.82174E-02 1.04492E-26 1.18443E-03 4.85493E-14 6.10169E-14
 -1        69 7.52971E-03-3.12864E-02 5.08455E-27 2.68300E-03 3.32180E-15 5.51461E-14
 -1        70-3.04507E-04 1.07680E-03 1.09966E-25-3.48697E-04-4.78121E-14 2.31308E-13
 -1        71-7.84138E-04 2.95260E-03 1.45103E-25-6.73668E-04-1.78678E-14 2.70694E-13
 -1        72-1.45903E-03 5.45852E-03 2.62876E-25-6.89853E-04 1.45990E-14 3.65070E-13
 -1        73-1.96922E-03 7.26625E-03 4.48617E-25-2.02837E-04 4.20428E-14 4.72613E-13
 -1        74-1.98767E-03 7.10218E-03 5.63073E-25 5.40255E-04 1.57272E-14 5.30370E-13
 -1        75-1.49623E-03 4.87614E-03 4.81720E-25 1.09809E-03-7.52518E-14 4.88925E-13
 -1        76-8.11359E-04 1.59491E-03 2.71740E-25 1.23898E-03-1.76856E-13 3.49028E-13
 -1        77-1.54636E-04-1.59842E-03 4.02127E-26 1.05476E-03-2.28922E-13 2.14994E-14
 -1        78 3.47539E-04-4.08585E-03 2.61863E-25 7.70624E-04-1.92971E-13-3.44423E-13
 -1        79 6.91685E-04-5.83429E-03 5.74456E-25 5.75951E-04-8.98761E-14-5.36379E-13
 -1        80 9.55692E-04-7.26317E-03 7.34284E-25 5.77009E-04 2.39635E-15-6.08103E-13
 -1        81 1.32020E-03-9.00198E-03 7.43478E-25 7.69166E-04 6.94680E-14-6.07046E-13
 -1        82 1.84191E-03-1.14669E-02 6.10914E-25 1.02500E-03 1.22441E-13-5.43573E-13
 -1        83 2.49593E-03-1.45499E-02 2.94323E-25 1.18216E-03 1.56723E-13-3.58832E-13
 -1        84 3.16702E-03-1.78143E-02 1.61885E-25 1.20390E-03 1.74112E-13-2.34873E-13
 -1        85 3.80931E-03-2.10324E-02 6.76578E-26 1.19291E-03 1.67506E-13-9.58952E-14
 -1        86 4.52932E-03-2.43167E-02 2.40066E-26 1.32502E-03 1.16932E-13-6.28169E-15
 -1        87 4.93121E-03-2.82174E-02 1.04492E-26 1.18443E-03 4.85493E-14 6.10168E-14
 -1        88 7.52971E-03-3.12864E-02 5.08456E-27 2.68300E-03 3.32180E-15 5.51461E-14
 -1        89-1.31220E-03 1.72896E-03 4.89105E-27 1.26526E-03 2.00009E-14 4.81725E-14
 -1        90-1.37337E-03 2.10253E-03 8.23708E-27 1.91651E-03 3.38426E-14 5.71291E-14
 -1        91-1.27546E-03 2.11241E-03 8.28100E-28 1.61400E-03 5.02966E-14 6.24194E-15
 -1        92-1.24431E-03 2.16584E-03 2.01175E-26 1.53796E-03 5.64411E-14-1.06553E-13
 -1        93-1.21647E-03 2.22566E-03 1.08149E-25 1.53470E-03 5.20329E-14-2.38679E-13
 -1        94-1.21008E-03 2.28131E-03 2.81813E-25 1.51920E-03 4.24897E-14-3.80197E-13
 -1        95-1.16286E-03 2.32648E-03 5.66335E-25 1.32483E-03 4.07794E-14-5.33207E-13
 -1        96-1.15771E-03 2.37307E-03 7.57418E-25 9.89056E-04 5.69311E-14-6.12440E-13
 -1        97-1.16848E-03 2.41623E-03 8.10534E-25 7.31244E-04 5.62095E-14-6.33801E-13
 -1        98-1.17473E-03 2.42563E-03 6.39006E-25 7.33117E-04 4.67163E-14-5.70319E-13
 -1        99-1.12070E-03 2.38605E-03 1.80240E-25 9.94842E-04 5.07039E-14-3.35683E-13
 -1       100-1.06873E-03 2.29280E-03-5.66020E-26 1.36137E-03 4.62415E-14 2.69229E-14
 -1       101-9.88045E-04 2.13716E-03 2.00949E-25 1.59508E-03 1.70093E-14 3.43575E-13
 -1       102-9.08113E-04 1.93256E-03 5.59883E-25 1.41504E-03 1.36024E-14 5.32665E-13
 -1       103-8.05168E-04 1.70866E-03 5.97279E-25 6.84666E-04 3.34932E-14 5.45859E-13
 -1       104-7.02375E-04 1.47788E-03 3.97095E-25-3.04253E-04-3.88097E-16 4.48287E-13
 -1       105-5.76365E-04 1.22996E-03 2.23890E-25-9.50099E-04-3.75644E-14 3.35545E-13
 -1       106-4.39213E-04 9.40643E-04 1.34387E-25-9.18767E-04-4.45629E-14 2.56725E-13
 -1       107-2.61965E-04 6.04689E-04 9.49801E-26-4.74322E-04-2.30906E-14 2.18432E-13
 -1       108-2.61965E-04 6.04689E-04 9.49789E-26-4.74322E-04-2.30900E-14 2.18431E-13
 -1       109-4.39213E-04 9.40643E-04 1.34386E-25-9.18767E-04-4.45648E-14 2.56723E-13
 -1       110-5.76365E-04 1.22996E-03 2.23894E-25-9.50099E-04-3.75643E-14 3.35548E-13
 -1       111-7.02375E-04 1.47788E-03 3.97095E-25-3.04253E-04-3.88743E-16 4.48287E-13
 -1       112-8.05168E-04 1.70866E-03 5.97266E-25 6.84666E-04 3.34937E-14 5.45853E-13
 -1       113-9.08113E-04 1.93256E-03 5.59889E-25 1.41504E-03 1.36028E-14 5.32668E-13
 -1       114-9.88045E-04 2.13716E-03 2.00924E-25 1.59508E-03 1.70073E-14 3.43556E-13
 -1       115-1.06873E-03 2.29280E-03-5.66005E-26 1.36137E-03 4.62414E-14 2.69284E-14
 -1       116-1.12070E-03 2.38605E-03 1.80244E-25 9.94842E-04 5.07027E-14-3.35687E-13
 -1       117-1.17473E-03 2.42563E-03 6.39019E-25 7.33117E-04 4.67158E-14-5.70324E-13
 -1       118-1.16848E-03 2.41623E-03 8.10508E-25 7.31244E-04 5.62108E-14-6.33790E-13
 -1       119-1.15771E-03 2.37307E-03 7.57417E-25 9.89056E-04 5.69313E-14-6.12440E-13
 -1       120-1.16286E-03 2.32648E-03 5.66346E-25 1.32483E-03 4.07783E-14-5.33213E-13
 -1       121-1.21008E-03 2.28131E-03 2.81801E-25 1.51920E-03 4.24910E-14-3.80189E-13
 -1       122-1.21647E-03 2.22566E-03 1.08152E-25 1.53470E-03 5.20316E-14-2.38682E-13
 -1       123-1.24431E-03 2.16584E-03 2.01192E-26 1.53796E-03 5.64405E-14-1.06557E-13
 -1       124-1.27546E-03 2.11241E-03 8.28003E-28 1.61400E-03 5.02970E-14 6.24273E-15
 -1       125-1.37337E-03 2.10253E-03 8.23700E-27 1.91651E-03 3.38425E-14 5.71287E-14
 -1       126-1.31220E-03 1.72896E-03 4.89105E-27 1.26526E-03 2.00009E-14 4.81725E-14
 -3
    1PSTEP                       216          54           1          
  100CL  154 5.40000E-01         126                     1   54           1
 -4  ERROR       1    1
 -5  STR(%)      1    1    0    0
 -1         1 6.05065E+01
 -1         2 6.05065E+01
 -1         3 8.71529E+00
 -1         4 8.71529E+00
 -1         5 1.08254E+01
 -1         6 1.08254E+01
 -1         7 6.38383E+01
 -1         8 6.38383E+01
 -1         9 1.08254E+01
 -1        10 1.08254E+01
 -1        11 6.38383E+01
 -1        12 6.38383E+01
 -1        13 6.05065E+01
 -1        14 5.75827E+01
 -1        15 5.71798E+01
 -1        16 5.63301E+01
 -1        17 5.54066E+01
 -1        18 5.42992E+01
 -1        19 5.24842E+01
 -1        20 5.03493E+01
 -1        21 4.80165E+01
 -1        22 4.60501E+01
 -1        23 4.35917E+01
 -1        24 3.84152E+01
 -1        25 3.61827E+01
 -1        26 7.44589E+01
 -1        27 8.02258E+01
 -1        28 8.38613E+01
 -1        29 8.38613E+01
 -1        30 6.66553E+01
 -1        31 5.35245E+01
 -1        32 6.05065E+01
 -1        33 5.75827E+01
 -1        34 5.71798E+01
 -1        35 5.63301E+01
 -1        36 5.54066E+01
 -1        37 5.42992E+01
 -1        38 5.24842E+01
 -1        39 5.03493E+01
 -1        40 4.80165E+01
 -1        41 4.60501E+01
 -1        42 4.35917E+01
 -1        43 3.84152E+01
 -1        44 3.61827E+01
 -1        45 7.44589E+01
 -1        46 8.02258E+01
 -1        47 8.38613E+01
 -1        48 8.38613E+01
 -1        49 6.66553E+01
 -1        50 5.35245E+01
 -1        51 1.97625E+01
 -1        52 3.68889E+01
 -1        53 4.57980E+01
 -1        54 4.57980E+01
 -1        55 4.55771E+01
 -1        56 3.91827E+01
 -1        57 5.56041E+01
 -1        58 8.75478E+01
 -1        59 8.92768E+01
 -1        60 8.92768E+01
 -1        61 8.70951E+01
 -1        62 8.45218E+01
 -1        63 8.05034E+01
 -1        64 7.60727E+01
 -1        65 7.25223E+01
 -1        66 6.99164E+01
 -1        67 6.82024E+01
 -1        68 6.69972E+01
 -1        69 6.60882E+01
 -1        70 1.97625E+01
 -1        71 3.68889E+01
 -1        72 4.57980E+01
 -1        73 4.57980E+01
 -1        74 4.55771E+01
 -1        75 3.91827E+01
 -1        76 5.56041E+01
 -1        77 8.75478E+01
 -1        78 8.92768E+01
 -1        79 8.92768E+01
 -1        80 8.70951E+01
 -1        81 8.45218E+01
 -1        82 8.05034E+01
 -1        83 7.60727E+01
 -1        84 7.25223E+01
 -1        85 6.99164E+01
 -1        86 6.82024E+01
 -1        87 6.69972E+01
 -1        88 6.60882E+01
 -1        89 6.60882E+01
 -1        90 6.69972E+01
 -1        91 6.82024E+01
 -1        92 6.99164E+01
 -1        93 7.25223E+01
 -1        94 7.60727E+01
 -1        95 8.05034E+01
 -1        96 8.45218E+01
 -1        97 8.70951E+01
 -1        98 8.92768E+01
 -1        99 8.92768E+01
 -1       100 8.75478E+01
 -1       101 5.56041E+01
 -1       102 7.44589E+01
 -1       103 8.02258E+01
 -1       104 8.38613E+01
 -1       105 8.38613E+01
 -1       106 6.66553E+01
 -1       107 5.35245E+01
 -1       108 5.35245E+01
 -1       109 6.66553E+01
 -1       110 8.38613E+01
 -1       111 8.38613E+01
 -1       112 8.02258E+01
 -1       113 7.44589E+01
 -1       114 5.56041E+01
 -1       115 8.75478E+01
 -1       116 8.92768E+01
 -1       117 8.92768E+01
 -1       118 8.70951E+01
 -1       119 8.45218E+01
 -1       120 8.05034E+01
 -1       121 7.60727E+01
 -1       122 7.25223E+01
 -1       123 6.99164E+01
 -1       124 6.82024E+01
 -1       125 6.69972E+01
 -1       126 6.60882E+01
 -3
    1PSTEP                       217          55           1          
  100CL  155 5.50000E-01         126                     1   55           1
 -4  DISP        4    1
 -5  D1          1    2    1    0
 -5  D2          1    2    2    0
 -5  D3          1    2    3    0
 -5  ALL         1    2    0    0    1ALL
 -1         1 0.00000E+00 0.00000E+00 0.00000E+00
 -1         2 0.00000E+00 0.00000E+00 0.00000E+00
 -1         3 1.78377E-01-5.53738E-03 0.00000E+00
 -1         4 1.78377E-01-5.53738E-03 0.00000E+00
 -1         5 1.76118E-01-2.66229E-02 0.00000E+00
 -1         6 1.76118E-01-2.66229E-02 0.00000E+00
 -1         7 0.00000E+00 0.00000E+00 0.00000E+00
 -1         8 0.00000E+00 0.00000E+00 0.00000E+00
 -1         9 1.77249E-01-1.60730E-02 0.00000E+00
 -1        10 1.77249E-01-1.60730E-02 0.00000E+00
 -1        11 0.00000E+00 0.00000E+00 0.00000E+00
 -1        12 0.00000E+00 0.00000E+00 0.00000E+00
 -1        13 1.39009E-03 1.75859E-03 0.00000E+00
 -1        14 4.14162E-03 3.38966E-03 0.00000E+00
 -1        15 8.49514E-03 4.72774E-03 0.00000E+00
 -1        16 1.42121E-02 5.76510E-03 0.00000E+00
 -1        17 2.10998E-02 6.48483E-03 0.00000E+00
 -1        18 2.89642E-02 6.90171E-03 0.00000E+00
 -1        19 3.76334E-02 7.05124E-03 0.00000E+00
 -1        20 4.69916E-02 6.97835E-03 0.00000E+00
 -1        21 5.69698E-02 6.72489E-03 0.00000E+00
 -1        22 6.75553E-02 6.29426E-03 0.00000E+00
 -1        23 7.87036E-02 5.64135E-03 0.00000E+00
 -1        24 9.02699E-02 4.71255E-03 0.00000E+00
 -1        25 1.01991E-01 3.51642E-03 0.00000E+00
 -1        26 1.13603E-01 2.13844E-03 0.00000E+00
 -1        27 1.24941E-01 6.97691E-04 0.00000E+00
 -1        28 1.35976E-01-7.12275E-04 0.00000E+00
 -1        29 1.46750E-01-2.03938E-03 0.00000E+00
 -1        30 1.57346E-01-3.26980E-03 0.00000E+00
 -1        31 1.67859E-01-4.42045E-03 0.00000E+00
 -1        32 1.39009E-03 1.75859E-03 0.00000E+00
 -1        33 4.14162E-03 3.38966E-03 0.00000E+00
 -1        34 8.49514E-03 4.72774E-03 0.00000E+00
 -1        35 1.42121E-02 5.76510E-03 0.00000E+00
 -1        36 2.10998E-02 6.48483E-03 0.00000E+00
 -1        37 2.89642E-02 6.90171E-03 0.00000E+00
 -1        38 3.76334E-02 7.05124E-03 0.00000E+00
 -1        39 4.69916E-02 6.97835E-03 0.00000E+00
 -1        40 5.69698E-02 6.72489E-03 0.00000E+00
 -1        41 6.75553E-02 6.29426E-03 0.00000E+00
 -1        42 7.87036E-02 5.64135E-03 0.00000E+00
 -1        43 9.02699E-02 4.71255E-03 0.00000E+00
 -1        44 1.01991E-01 3.51642E-03 0.00000E+00
 -1        45 1.13603E-01 2.13844E-03 0.00000E+00
 -1        46 1.24941E-01 6.97691E-04 0.00000E+00
 -1        47 1.35976E-01-7.12275E-04 0.00000E+00
 -1        48 1.46750E-01-2.03938E-03 0.00000E+00
 -1        49 1.57346E-01-3.26980E-03 0.00000E+00
 -1        50 1.67859E-01-4.42045E-03 0.00000E+00
 -1        51 1.65582E-01-2.55305E-02 0.00000E+00
 -1        52 1.55026E-01-2.45046E-02 0.00000E+00
 -1        53 1.44358E-01-2.35471E-02 0.00000E+00
 -1        54 1.33481E-01-2.26286E-02 0.00000E+00
 -1        55 1.22327E-01-2.16958E-02 0.00000E+00
 -1        56 1.10879E-01-2.06782E-02 0.00000E+00
 -1        57 9.92123E-02-1.95023E-02 0.00000E+00
 -1        58 8.75260E-02-1.81310E-02 0.00000E+00
 -1        59 7.60933E-02-1.65992E-02 0.00000E+00
 -1        60 6.51504E-02-1.50038E-02 0.00000E+00
 -1        61 5.48063E-02-1.34414E-02 0.00000E+00
 -1        62 4.50749E-02-1.19537E-02 0.00000E+00
 -1        63 3.59681E-02-1.05249E-02 0.00000E+00
 -1        64 2.75598E-02-9.12022E-03 0.00000E+00
 -1        65 1.99752E-02-7.71095E-03 0.00000E+00
 -1        66 1.33711E-02-6.27728E-03 0.00000E+00
 -1        67 7.92448E-03-4.80449E-03 0.00000E+00
 -1        68 3.79562E-03-3.28173E-03 0.00000E+00
 -1        69 1.21521E-03-1.65103E-03 0.00000E+00
 -1        70 1.65582E-01-2.55305E-02 0.00000E+00
 -1        71 1.55026E-01-2.45046E-02 0.00000E+00
 -1        72 1.44358E-01-2.35471E-02 0.00000E+00
 -1        73 1.33481E-01-2.26286E-02 0.00000E+00
 -1        74 1.22327E-01-2.16958E-02 0.00000E+00
 -1        75 1.10879E-01-2.06782E-02 0.00000E+00
 -1        76 9.92123E-02-1.95023E-02 0.00000E+00
 -1        77 8.75260E-02-1.81310E-02 0.00000E+00
 -1        78 7.60933E-02-1.65992E-02 0.00000E+00
 -1        79 6.51504E-02-1.50038E-02 0.00000E+00
 -1        80 5.48063E-02-1.34414E-02 0.00000E+00
 -1        81 4.50749E-02-1.19537E-02 0.00000E+00
 -1        82 3.59681E-02-1.05249E-02 0.00000E+00
 -1        83 2.75598E-02-9.12022E-03 0.00000E+00
 -1        84 1.99752E-02-7.71095E-03 0.00000E+00
 -1        85 1.33711E-02-6.27728E-03 0.00000E+00
 -1        86 7.92448E-03-4.80449E-03 0.00000E+00
 -1        87 3.79562E-03-3.28173E-03 0.00000E+00
 -1        88 1.21521E-03-1.65103E-03 0.00000E+00
 -1        89 8.59205E-04 5.61361E-05 0.00000E+00
 -1        90 3.64945E-03 7.80096E-05 0.00000E+00
 -1        91 7.91572E-03-6.18664E-06 0.00000E+00
 -1        92 1.35389E-02-2.22349E-04 0.00000E+00
 -1        93 2.03214E-02-5.79849E-04 0.00000E+00
 -1        94 2.80772E-02-1.07728E-03 0.00000E+00
 -1        95 3.66429E-02-1.70714E-03 0.00000E+00
 -1        96 4.58922E-02-2.45993E-03 0.00000E+00
 -1        97 5.57574E-02-3.33120E-03 0.00000E+00
 -1        98 6.62352E-02-4.32810E-03 0.00000E+00
 -1        99 7.73109E-02-5.45688E-03 0.00000E+00
 -1       100 8.88537E-02-6.69683E-03 0.00000E+00
 -1       101 1.00603E-01-7.99159E-03 0.00000E+00
 -1       102 1.12274E-01-9.27575E-03 0.00000E+00
 -1       103 1.23683E-01-1.05078E-02 0.00000E+00
 -1       104 1.34776E-01-1.16783E-02 0.00000E+00
 -1       105 1.45590E-01-1.27982E-02 0.00000E+00
 -1       106 1.56205E-01-1.38880E-02 0.00000E+00
 -1       107 1.66727E-01-1.49728E-02 0.00000E+00
 -1       108 1.66727E-01-1.49728E-02 0.00000E+00
 -1       109 1.56205E-01-1.38880E-02 0.00000E+00
 -1       110 1.45590E-01-1.27982E-02 0.00000E+00
 -1       111 1.34776E-01-1.16783E-02 0.00000E+00
 -1       112 1.23683E-01-1.05078E-02 0.00000E+00
 -1       113 1.12274E-01-9.27575E-03 0.00000E+00
 -1       114 1.00603E-01-7.99159E-03 0.00000E+00
 -1       115 8.88537E-02-6.69683E-03 0.00000E+00
 -1       116 7.73109E-02-5.45688E-03 0.00000E+00
 -1       117 6.62352E-02-4.32810E-03 0.00000E+00
 -1       118 5.57574E-02-3.33120E-03 0.00000E+00
 -1       119 4.58922E-02-2.45993E-03 0.00000E+00
 -1       120 3.66429E-02-1.70714E-03 0.00000E+00
 -1       121 2.80772E-02-1.07728E-03 0.00000E+00
 -1       122 2.03214E-02-5.79849E-04 0.00000E+00
 -1       123 1.35389E-02-2.22349E-04 0.00000E+00
 -1       124 7.91572E-03-6.18664E-06 0.00000E+00
 -1       125 3.64945E-03 7.80096E-05 0.00000E+00
 -1       126 8.59205E-04 5.61361E-05 0.00000E+00
 -3
    1PSTEP                       218          55           1          
  100CL  155 5.50000E-01         126                     1   55           1
 -4  STRESS      6    1
 -5  SXX         1    4    1    1
 -5  SYY         1    4    2    2
 -5  SZZ         1    4    3    3
 -5  SXY         1    4    1    2
 -5  SYZ         1    4    2    3
 -5  SZX         1    4    3    1
 -1         1 8.25624E+03 1.99143E+04 8.06353E+03 4.75215E+03-1.51487E-10-1.45370E-10
 -1         2 8.25624E+03 1.99143E+04 8.06353E+03 4.75215E+03-1.51487E-10-1.45370E-10
 -1         3-6.80932E+01 1.95278E+01-1.45778E+01-4.50678E+01-7.74563E-08-1.39271E-07
 -1         4-6.80932E+01 1.95278E+01-1.45778E+01-4.50678E+01-7.74563E-08-1.39273E-07
 -1         5 6.44108E+01 3.13620E+02 1.13299E+02-1.54627E+01 1.09964E-07-9.72513E-08
 -1         6 6.44108E+01 3.13620E+02 1.13299E+02-1.54627E+01 1.09968E-07-9.72532E-08
 -1         7-7.54273E+03-1.69874E+04-7.67859E+03 3.36052E+03-2.45189E-10 2.50086E-10
 -1         8-7.54273E+03-1.69874E+04-7.67859E+03 3.36052E+03-2.45189E-10 2.50090E-10
 -1         9 7.15881E+00 2.08336E+02 6.45899E+01-4.19176E+01 1.42925E-08-1.22827E-07
 -1        10 7.15881E+00 2.08336E+02 6.45899E+01-4.19176E+01 1.42921E-08-1.22823E-07
 -1        11 3.37333E+02 4.44062E+02 2.92928E+02 2.64374E+03-1.90166E-10 2.28432E-11
 -1        12 3.37333E+02 4.44062E+02 2.92928E+02 2.64374E+03-1.90166E-10 2.28359E-11
 -1        13 2.79364E+03 1.72073E+04 5.73090E+03 1.45591E+03-6.31921E-09-2.72957E-08
 -1        14 3.50375E+03 1.62391E+04 5.67363E+03 1.21667E+03 9.32518E-09-6.03921E-08
 -1        15 3.07661E+03 1.42707E+04 5.00687E+03 1.51955E+03 2.98899E-08-3.94410E-08
 -1        16 2.79762E+03 1.24652E+04 4.42432E+03 1.61068E+03 3.34778E-08-4.24673E-09
 -1        17 2.46480E+03 1.07122E+04 3.83586E+03 1.60110E+03 2.33741E-08 1.54732E-10
 -1        18 2.12770E+03 9.18829E+03 3.30663E+03 1.50394E+03 1.35143E-08-2.79611E-08
 -1        19 1.89516E+03 8.03417E+03 2.91039E+03 1.37272E+03 8.92912E-09-6.56467E-08
 -1        20 1.70824E+03 7.24749E+03 2.63031E+03 1.27626E+03 1.59987E-08-9.70321E-08
 -1        21 1.57691E+03 6.66971E+03 2.42480E+03 1.25331E+03 3.27713E-08-1.32698E-07
 -1        22 1.40903E+03 5.86769E+03 2.14264E+03 1.27491E+03 4.76938E-08-1.18668E-07
 -1        23 1.16786E+03 4.48339E+03 1.66893E+03 1.21152E+03 4.32280E-08-5.75175E-08
 -1        24 7.22416E+02 2.53403E+03 9.65680E+02 9.61983E+02 3.87309E-08-4.32824E-08
 -1        25 1.67367E+02 5.49181E+02 2.12422E+02 5.48969E+02 4.43028E-08-3.16518E-08
 -1        26-3.35490E+02-9.04774E+02-3.73300E+02 1.26523E+02 4.49682E-08 1.75821E-08
 -1        27-5.90023E+02-1.56357E+03-6.48322E+02-1.70941E+02 2.51700E-08 7.24831E-08
 -1        28-6.39906E+02-1.56582E+03-6.64066E+02-2.97503E+02-2.13641E-08 1.48483E-07
 -1        29-5.36662E+02-1.15049E+03-5.07540E+02-2.99831E+02-6.47528E-08 1.33148E-07
 -1        30-3.72048E+02-5.88900E+02-2.88755E+02-2.24347E+02-8.93293E-08 5.75231E-08
 -1        31-1.78879E+02-1.41976E+02-9.63187E+01-1.11399E+02-8.89744E-08-5.13045E-08
 -1        32 2.79364E+03 1.72073E+04 5.73090E+03 1.45591E+03-6.31921E-09-2.72957E-08
 -1        33 3.50375E+03 1.62391E+04 5.67363E+03 1.21667E+03 9.32519E-09-6.03921E-08
 -1        34 3.07661E+03 1.42707E+04 5.00687E+03 1.51955E+03 2.98898E-08-3.94410E-08
 -1        35 2.79762E+03 1.24652E+04 4.42432E+03 1.61068E+03 3.34778E-08-4.24686E-09
 -1        36 2.46480E+03 1.07122E+04 3.83586E+03 1.60110E+03 2.33740E-08 1.55640E-10
 -1        37 2.12770E+03 9.18829E+03 3.30663E+03 1.50394E+03 1.35139E-08-2.79603E-08
 -1        38 1.89516E+03 8.03417E+03 2.91039E+03 1.37272E+03 8.92922E-09-6.56501E-08
 -1        39 1.70824E+03 7.24749E+03 2.63031E+03 1.27626E+03 1.59987E-08-9.70321E-08
 -1        40 1.57691E+03 6.66971E+03 2.42480E+03 1.25331E+03 3.27712E-08-1.32699E-07
 -1        41 1.40903E+03 5.86769E+03 2.14264E+03 1.27491E+03 4.76938E-08-1.18668E-07
 -1        42 1.16786E+03 4.48339E+03 1.66893E+03 1.21152E+03 4.32280E-08-5.75157E-08
 -1        43 7.22416E+02 2.53403E+03 9.65680E+02 9.61983E+02 3.87308E-08-4.32829E-08
 -1        44 1.67367E+02 5.49181E+02 2.12422E+02 5.48969E+02 4.43028E-08-3.16513E-08
 -1        45-3.35490E+02-9.04774E+02-3.73300E+02 1.26523E+02 4.49682E-08 1.75804E-08
 -1        46-5.90023E+02-1.56357E+03-6.48322E+02-1.70941E+02 2.51697E-08 7.24831E-08
 -1        47-6.39906E+02-1.56582E+03-6.64066E+02-2.97503E+02-2.13638E-08 1.48483E-07
 -1        48-5.36662E+02-1.15049E+03-5.07540E+02-2.99831E+02-6.47526E-08 1.33160E-07
 -1        49-3.72048E+02-5.88900E+02-2.88755E+02-2.24347E+02-8.93293E-08 5.75147E-08
 -1        50-1.78879E+02-1.41976E+02-9.63187E+01-1.11399E+02-8.89744E-08-5.13284E-08
 -1        51 9.75209E+01 6.29660E+02 2.17586E+02 2.01876E+01 8.43416E-08 1.61920E-09
 -1        52 2.51720E+02 1.39008E+03 4.90197E+02 1.08363E+02 4.92983E-08 8.19670E-08
 -1        53 4.40535E+02 2.18910E+03 7.83344E+02 2.67683E+02-9.79736E-09 1.32485E-07
 -1        54 6.03667E+02 2.75603E+03 9.99063E+02 4.50947E+02-6.63824E-08 1.21400E-07
 -1        55 6.67268E+02 2.82015E+03 1.03635E+03 6.09416E+02-8.57274E-08 6.07391E-08
 -1        56 5.66459E+02 2.15066E+03 8.08026E+02 6.79742E+02-6.19084E-08-6.05583E-09
 -1        57 2.31554E+02 6.98493E+02 2.76311E+02 5.81460E+02-2.38055E-08-4.12996E-08
 -1        58-2.85315E+02-1.20099E+03-4.48323E+02 2.87430E+02-3.71495E-09-4.90411E-08
 -1        59-8.44857E+02-2.96523E+03-1.15158E+03-9.99160E+01 2.18404E-09-7.37944E-08
 -1        60-1.26726E+03-4.15709E+03-1.64362E+03-4.15980E+02 1.91328E-08-1.08439E-07
 -1        61-1.51156E+03-4.82622E+03-1.92304E+03-5.66585E+02 4.88075E-08-1.23369E-07
 -1        62-1.65520E+03-5.37074E+03-2.13440E+03-5.89160E+02 6.89408E-08-9.72305E-08
 -1        63-1.82698E+03-6.16038E+03-2.43161E+03-5.72668E+02 6.79306E-08-5.05750E-08
 -1        64-2.08860E+03-7.30686E+03-2.86950E+03-5.66995E+02 5.44188E-08-2.36399E-08
 -1        65-2.43674E+03-8.74924E+03-3.43021E+03-5.66202E+02 3.26018E-08-6.01686E-09
 -1        66-2.84216E+03-1.03772E+04-4.07234E+03-5.48574E+02 9.26785E-09-1.03395E-08
 -1        67-3.22732E+03-1.20425E+04-4.72597E+03-4.57239E+02 7.57313E-09-5.08418E-08
 -1        68-3.91500E+03-1.39399E+04-5.55371E+03-3.53772E+02 1.93404E-08-6.10070E-08
 -1        69-3.16376E+03-1.48210E+04-5.61583E+03 3.49551E+02 2.04976E-08-3.79035E-08
 -1        70 9.75209E+01 6.29660E+02 2.17586E+02 2.01876E+01 8.43400E-08 1.62542E-09
 -1        71 2.51720E+02 1.39008E+03 4.90197E+02 1.08363E+02 4.92977E-08 8.19704E-08
 -1        72 4.40535E+02 2.18910E+03 7.83344E+02 2.67683E+02-9.79675E-09 1.32482E-07
 -1        73 6.03667E+02 2.75603E+03 9.99063E+02 4.50947E+02-6.63838E-08 1.21402E-07
 -1        74 6.67268E+02 2.82015E+03 1.03635E+03 6.09416E+02-8.57291E-08 6.07354E-08
 -1        75 5.66459E+02 2.15066E+03 8.08026E+02 6.79742E+02-6.19084E-08-6.05521E-09
 -1        76 2.31554E+02 6.98493E+02 2.76311E+02 5.81460E+02-2.38058E-08-4.13020E-08
 -1        77-2.85315E+02-1.20099E+03-4.48323E+02 2.87430E+02-3.71093E-09-4.90341E-08
 -1        78-8.44857E+02-2.96523E+03-1.15158E+03-9.99160E+01 2.18304E-09-7.37964E-08
 -1        79-1.26726E+03-4.15709E+03-1.64362E+03-4.15980E+02 1.91339E-08-1.08440E-07
 -1        80-1.51156E+03-4.82622E+03-1.92304E+03-5.66585E+02 4.88063E-08-1.23366E-07
 -1        81-1.65520E+03-5.37074E+03-2.13440E+03-5.89160E+02 6.89416E-08-9.72303E-08
 -1        82-1.82698E+03-6.16038E+03-2.43161E+03-5.72668E+02 6.79296E-08-5.05744E-08
 -1        83-2.08860E+03-7.30686E+03-2.86950E+03-5.66995E+02 5.44191E-08-2.36398E-08
 -1        84-2.43674E+03-8.74924E+03-3.43021E+03-5.66202E+02 3.26018E-08-6.01644E-09
 -1        85-2.84216E+03-1.03772E+04-4.07234E+03-5.48574E+02 9.26782E-09-1.03394E-08
 -1        86-3.22732E+03-1.20425E+04-4.72597E+03-4.57239E+02 7.57307E-09-5.08419E-08
 -1        87-3.91500E+03-1.39399E+04-5.55371E+03-3.53772E+02 1.93404E-08-6.10069E-08
 -1        88-3.16376E+03-1.48210E+04-5.61583E+03 3.49551E+02 2.04976E-08-3.79035E-08
 -1        89-8.30897E+01 3.47202E+02 9.86221E+01 3.72627E+02 8.03522E-09-3.33251E-08
 -1        90-4.69512E+01 5.05387E+02 1.67667E+02 6.06062E+02 1.62215E-08-6.05435E-08
 -1        91 1.41171E+01 5.48067E+02 1.88906E+02 5.70723E+02 1.85976E-08-4.92018E-08
 -1        92 5.22142E+01 5.93148E+02 2.09078E+02 5.89460E+02 2.04273E-08-3.78398E-09
 -1        93 7.56584E+01 6.45956E+02 2.27647E+02 5.68030E+02 2.60085E-08 3.83868E-10
 -1        94 7.02157E+01 6.92258E+02 2.36685E+02 5.13338E+02 3.21909E-08-2.19522E-08
 -1        95 7.05909E+01 7.46029E+02 2.50894E+02 4.30370E+02 3.70159E-08-5.53073E-08
 -1        96 5.10338E+01 7.89086E+02 2.56454E+02 3.54027E+02 4.31009E-08-1.03092E-07
 -1        97 5.74822E+01 8.04184E+02 2.61350E+02 3.51581E+02 4.50673E-08-1.30967E-07
 -1        98 1.11131E+02 7.55809E+02 2.61011E+02 4.70935E+02 3.41242E-08-1.15074E-07
 -1        99 2.20211E+02 6.68688E+02 2.65917E+02 6.48314E+02 2.12027E-08-6.98863E-08
 -1       100 2.84561E+02 5.89537E+02 2.60475E+02 7.46480E+02 1.71178E-08-4.84599E-08
 -1       101 2.57086E+02 5.67504E+02 2.45509E+02 6.74227E+02 1.16474E-08-3.89157E-08
 -1       102 1.52912E+02 5.86043E+02 2.20460E+02 4.69014E+02-4.81653E-09 4.77786E-10
 -1       103 5.21232E+01 6.07770E+02 1.97501E+02 2.35719E+02-3.11916E-08 7.31281E-08
 -1       104-2.46725E+01 5.91708E+02 1.70006E+02 5.37957E+01-4.75973E-08 1.44635E-07
 -1       105-6.48039E+01 5.31887E+02 1.40031E+02-5.92492E+01-3.91639E-08 1.47023E-07
 -1       106-7.63504E+01 4.22555E+02 1.03742E+02-1.00837E+02-1.64582E-08 7.75759E-08
 -1       107-4.25919E+01 2.76567E+02 7.01074E+01-6.96839E+01 2.57837E-10-1.88035E-08
 -1       108-4.25919E+01 2.76567E+02 7.01074E+01-6.96839E+01 2.57960E-10-1.88140E-08
 -1       109-7.63504E+01 4.22555E+02 1.03742E+02-1.00837E+02-1.64581E-08 7.75770E-08
 -1       110-6.48039E+01 5.31887E+02 1.40031E+02-5.92492E+01-3.91643E-08 1.47027E-07
 -1       111-2.46725E+01 5.91708E+02 1.70006E+02 5.37957E+01-4.75975E-08 1.44633E-07
 -1       112 5.21232E+01 6.07770E+02 1.97501E+02 2.35719E+02-3.11904E-08 7.31290E-08
 -1       113 1.52912E+02 5.86043E+02 2.20460E+02 4.69014E+02-4.81607E-09 4.76864E-10
 -1       114 2.57086E+02 5.67504E+02 2.45509E+02 6.74227E+02 1.16467E-08-3.89114E-08
 -1       115 2.84561E+02 5.89537E+02 2.60475E+02 7.46480E+02 1.71174E-08-4.84599E-08
 -1       116 2.20211E+02 6.68688E+02 2.65917E+02 6.48314E+02 2.12030E-08-6.98893E-08
 -1       117 1.11131E+02 7.55809E+02 2.61011E+02 4.70935E+02 3.41240E-08-1.15074E-07
 -1       118 5.74822E+01 8.04184E+02 2.61350E+02 3.51581E+02 4.50677E-08-1.30965E-07
 -1       119 5.10338E+01 7.89086E+02 2.56454E+02 3.54027E+02 4.31008E-08-1.03093E-07
 -1       120 7.05909E+01 7.46029E+02 2.50894E+02 4.30370E+02 3.70160E-08-5.53079E-08
 -1       121 7.02157E+01 6.92258E+02 2.36685E+02 5.13338E+02 3.21905E-08-2.19532E-08
 -1       122 7.56584E+01 6.45956E+02 2.27647E+02 5.68030E+02 2.60087E-08 3.82131E-10
 -1       123 5.22142E+01 5.93148E+02 2.09078E+02 5.89460E+02 2.04274E-08-3.78380E-09
 -1       124 1.41171E+01 5.48067E+02 1.88906E+02 5.70723E+02 1.85976E-08-4.92017E-08
 -1       125-4.69512E+01 5.05387E+02 1.67667E+02 6.06062E+02 1.62215E-08-6.05435E-08
 -1       126-8.30897E+01 3.47202E+02 9.86221E+01 3.72627E+02 8.03520E-09-3.33250E-08
 -3
    1PSTEP                       219          55           1          
  100CL  155 5.50000E-01         126                     1   55           1
 -4  TOSTRAIN    6    1
 -5  EXX         1    4    1    1
 -5  EYY         1    4    2    2
 -5  EZZ         1    4    3    3
 -5  EXY         1    4    1    2
 -5  EYZ         1    4    2    3
 -5  EZX         1    4    3    1
 -1         1-1.05834E-04 3.60700E-02-2.61635E-27 1.39008E-02-2.64742E-19-2.59537E-16
 -1         2-1.05834E-04 3.60700E-02-2.61635E-27 1.39008E-02-2.64742E-19-2.59537E-16
 -1         3-1.01104E-04 3.79177E-05 4.78892E-25-1.92125E-04-3.41453E-13-3.89601E-13
 -1         4-1.01104E-04 3.79177E-05 4.78896E-25-1.92125E-04-3.41454E-13-3.89607E-13
 -1         5-1.02234E-04 5.93421E-04 3.83372E-25-2.12403E-04 2.82407E-13-3.84196E-13
 -1         6-1.02234E-04 5.93421E-04 3.83388E-25-2.12403E-04 2.82419E-13-3.84204E-13
 -1         7-1.01499E-04-3.22808E-02-6.66525E-27 1.21519E-02-7.91886E-19 5.60104E-16
 -1         8-1.01499E-04-3.22808E-02-6.66525E-27 1.21519E-02-7.91651E-19 5.60117E-16
 -1         9-1.01669E-04 3.81618E-04 2.51953E-25-2.58571E-04-3.87477E-14-4.00015E-13
 -1        10-1.01669E-04 3.81618E-04 2.51944E-25-2.58571E-04-3.87464E-14-4.00003E-13
 -1        11-1.03666E-04 1.16725E-03-4.03071E-27 8.59192E-03-3.17684E-19 1.19267E-16
 -1        12-1.03666E-04 1.16725E-03-4.03070E-27 8.59192E-03-3.18123E-19 1.19243E-16
 -1        13-1.00776E-02 3.53252E-02 1.20848E-26 2.88652E-03-2.23778E-14-8.73547E-14
 -1        14-7.67817E-03 3.27112E-02 7.55326E-26 1.07570E-03 1.63842E-14-1.96698E-13
 -1        15-7.09912E-03 2.91438E-02 4.62865E-26 1.30481E-03 8.11787E-14-1.36313E-13
 -1        16-6.24871E-03 2.56963E-02 1.88949E-26 1.24818E-03 1.02772E-13-2.69544E-14
 -1        17-5.49863E-03 2.23300E-02 8.82045E-27 1.16238E-03 7.31202E-14-1.04288E-14
 -1        18-4.87367E-03 1.93592E-02 1.49649E-26 9.59540E-04 2.80609E-14-9.65446E-14
 -1        19-4.28935E-03 1.70237E-02 8.56886E-26 7.00694E-04-8.84485E-15-2.14624E-13
 -1        20-3.94395E-03 1.54425E-02 1.97951E-25 4.81293E-04-8.55734E-15-3.18780E-13
 -1        21-3.74012E-03 1.43334E-02 3.92630E-25 4.52450E-04 1.68953E-14-4.43100E-13
 -1        22-3.49711E-03 1.28497E-02 3.39129E-25 7.26969E-04 6.79520E-14-4.09384E-13
 -1        23-2.83629E-03 1.01124E-02 1.00217E-25 1.18275E-03 9.40430E-14-2.13509E-13
 -1        24-1.89021E-03 6.09370E-03 6.90546E-26 1.46809E-03 8.96916E-14-1.65941E-13
 -1        25-8.88461E-04 1.81312E-03 5.44923E-26 1.30771E-03 1.16171E-13-1.33627E-13
 -1        26-1.65131E-04-1.45038E-03 2.95982E-26 7.79278E-04 1.55644E-13 2.20458E-14
 -1        27 2.64255E-04-3.06925E-03 9.39409E-26 1.91723E-04 1.33073E-13 2.11461E-13
 -1        28 3.40143E-04-3.21293E-03 4.56972E-25-2.31615E-04 3.82458E-14 4.86601E-13
 -1        29 2.17980E-04-2.41432E-03 4.47025E-25-4.67347E-04-1.12799E-13 4.68187E-13
 -1        30-1.88441E-06-1.24828E-03 1.87264E-25-5.18563E-04-2.44416E-13 2.44245E-13
 -1        31-1.14135E-04-3.03112E-04 1.56983E-25-3.55002E-04-3.17991E-13-1.02203E-13
 -1        32-1.00776E-02 3.53252E-02 1.20848E-26 2.88652E-03-2.23778E-14-8.73547E-14
 -1        33-7.67817E-03 3.27112E-02 7.55326E-26 1.07570E-03 1.63842E-14-1.96698E-13
 -1        34-7.09912E-03 2.91438E-02 4.62864E-26 1.30481E-03 8.11786E-14-1.36313E-13
 -1        35-6.24871E-03 2.56963E-02 1.88949E-26 1.24818E-03 1.02772E-13-2.69547E-14
 -1        36-5.49863E-03 2.23300E-02 8.82032E-27 1.16238E-03 7.31204E-14-1.04258E-14
 -1        37-4.87367E-03 1.93592E-02 1.49628E-26 9.59540E-04 2.80602E-14-9.65419E-14
 -1        38-4.28935E-03 1.70237E-02 8.56966E-26 7.00694E-04-8.84638E-15-2.14635E-13
 -1        39-3.94395E-03 1.54425E-02 1.97951E-25 4.81293E-04-8.55734E-15-3.18780E-13
 -1        40-3.74012E-03 1.43334E-02 3.92635E-25 4.52450E-04 1.68944E-14-4.43103E-13
 -1        41-3.49711E-03 1.28497E-02 3.39128E-25 7.26969E-04 6.79522E-14-4.09383E-13
 -1        42-2.83629E-03 1.01124E-02 1.00212E-25 1.18275E-03 9.40444E-14-2.13503E-13
 -1        43-1.89021E-03 6.09370E-03 6.90558E-26 1.46809E-03 8.96908E-14-1.65943E-13
 -1        44-8.88461E-04 1.81312E-03 5.44923E-26 1.30771E-03 1.16171E-13-1.33626E-13
 -1        45-1.65131E-04-1.45038E-03 2.95981E-26 7.79278E-04 1.55643E-13 2.20403E-14
 -1        46 2.64255E-04-3.06925E-03 9.39412E-26 1.91723E-04 1.33072E-13 2.11461E-13
 -1        47 3.40143E-04-3.21293E-03 4.56972E-25-2.31615E-04 3.82467E-14 4.86601E-13
 -1        48 2.17980E-04-2.41432E-03 4.47077E-25-4.67347E-04-1.12790E-13 4.68224E-13
 -1        49-1.88441E-06-1.24828E-03 1.87201E-25-5.18563E-04-2.44422E-13 2.44218E-13
 -1        50-1.14135E-04-3.03112E-04 1.57002E-25-3.55002E-04-3.18008E-13-1.02279E-13
 -1        51-3.40498E-04 1.28457E-03 9.15498E-26-2.96011E-04 2.68584E-13-5.25983E-14
 -1        52-7.56179E-04 2.88487E-03 1.54018E-25-4.44806E-04 2.12365E-13 2.26364E-13
 -1        53-1.22184E-03 4.62636E-03 3.54610E-25-4.01403E-04 6.12249E-14 4.27145E-13
 -1        54-1.58488E-03 5.92957E-03 3.89547E-25-1.70962E-04-1.22966E-13 4.31926E-13
 -1        55-1.72482E-03 6.23220E-03 2.04777E-25 2.49189E-04-2.25429E-13 2.54792E-13
 -1        56-1.50966E-03 5.02242E-03 5.52903E-26 8.25083E-04-1.99076E-13 2.71146E-14
 -1        57-9.20788E-04 2.12229E-03 3.78583E-26 1.34284E-03-1.05909E-13-1.12535E-13
 -1        58-5.49080E-05-1.88301E-03 4.76292E-26 1.50305E-03-4.83213E-14-1.52416E-13
 -1        59 7.69885E-04-5.74328E-03 1.10151E-25 1.21557E-03-4.68835E-14-2.35680E-13
 -1        60 1.32364E-03-8.41337E-03 2.50978E-25 7.40405E-04-1.46139E-14-3.58354E-13
 -1        61 1.58955E-03-9.87745E-03 3.68976E-25 4.49334E-04 7.54473E-14-4.25842E-13
 -1        62 1.79841E-03-1.09907E-02 2.95120E-25 4.82679E-04 1.62637E-13-3.53834E-13
 -1        63 2.12629E-03-1.25879E-02 1.47092E-25 7.14473E-04 1.91790E-13-2.01511E-13
 -1        64 2.61822E-03-1.49455E-02 7.35843E-26 9.70645E-04 1.65723E-13-1.04851E-13
 -1        65 3.23671E-03-1.79451E-02 2.25564E-26 1.16844E-03 1.04803E-13-3.47582E-14
 -1        66 3.93580E-03-2.13604E-02-1.10789E-28 1.26197E-03 2.66072E-14-3.71969E-14
 -1        67 4.71816E-03-2.48965E-02 5.21459E-26 1.34005E-03 8.93497E-15-1.67644E-13
 -1        68 5.10380E-03-2.87466E-02 8.60856E-26 1.10650E-03 5.16916E-14-2.03293E-13
 -1        69 7.63113E-03-3.15615E-02 3.57469E-26 2.60167E-03 6.56234E-14-1.26157E-13
 -1        70-3.40498E-04 1.28457E-03 9.15394E-26-2.96011E-04 2.68583E-13-5.25775E-14
 -1        71-7.56179E-04 2.88487E-03 1.54032E-25-4.44806E-04 2.12366E-13 2.26376E-13
 -1        72-1.22184E-03 4.62636E-03 3.54589E-25-4.01403E-04 6.12242E-14 4.27133E-13
 -1        73-1.58488E-03 5.92957E-03 3.89559E-25-1.70962E-04-1.22968E-13 4.31934E-13
 -1        74-1.72482E-03 6.23220E-03 2.04769E-25 2.49189E-04-2.25437E-13 2.54781E-13
 -1        75-1.50966E-03 5.02242E-03 5.52894E-26 8.25083E-04-1.99075E-13 2.71166E-14
 -1        76-9.20788E-04 2.12229E-03 3.78614E-26 1.34284E-03-1.05912E-13-1.12542E-13
 -1        77-5.49080E-05-1.88301E-03 4.76133E-26 1.50305E-03-4.83034E-14-1.52397E-13
 -1        78 7.69885E-04-5.74328E-03 1.10155E-25 1.21557E-03-4.68881E-14-2.35685E-13
 -1        79 1.32364E-03-8.41337E-03 2.50984E-25 7.40405E-04-1.46111E-14-3.58357E-13
 -1        80 1.58955E-03-9.87745E-03 3.68959E-25 4.49334E-04 7.54457E-14-4.25832E-13
 -1        81 1.79841E-03-1.09907E-02 2.95121E-25 4.82679E-04 1.62640E-13-3.53834E-13
 -1        82 2.12629E-03-1.25879E-02 1.47088E-25 7.14473E-04 1.91787E-13-2.01509E-13
 -1        83 2.61822E-03-1.49455E-02 7.35851E-26 9.70645E-04 1.65724E-13-1.04851E-13
 -1        84 3.23671E-03-1.79451E-02 2.25562E-26 1.16844E-03 1.04804E-13-3.47569E-14
 -1        85 3.93580E-03-2.13604E-02-1.10829E-28 1.26197E-03 2.66071E-14-3.71968E-14
 -1        86 4.71816E-03-2.48965E-02 5.21460E-26 1.34005E-03 8.93477E-15-1.67644E-13
 -1        87 5.10380E-03-2.87466E-02 8.60856E-26 1.10650E-03 5.16915E-14-2.03292E-13
 -1        88 7.63113E-03-3.15615E-02 3.57470E-26 2.60167E-03 6.56235E-14-1.26157E-13
 -1        89-1.22324E-03 1.53620E-03 2.07604E-26 1.15386E-03 2.25426E-14-1.09188E-13
 -1        90-1.28718E-03 1.89707E-03 8.18839E-26 1.82429E-03 3.93849E-14-2.00131E-13
 -1        91-1.19048E-03 1.92289E-03 5.45197E-26 1.64684E-03 4.46445E-14-1.65158E-13
 -1        92-1.15645E-03 1.99672E-03 4.97640E-27 1.64016E-03 6.41536E-14-2.04226E-14
 -1        93-1.13096E-03 2.06968E-03 1.30961E-26 1.50192E-03 8.36409E-14-1.10130E-14
 -1        94-1.12772E-03 2.11927E-03 2.74714E-26 1.25496E-03 9.15404E-14-8.74728E-14
 -1        95-1.08153E-03 2.14365E-03 8.43023E-26 9.26215E-04 8.65150E-14-1.98376E-13
 -1        96-1.07277E-03 2.16450E-03 2.56562E-25 6.17750E-04 7.38284E-14-3.55766E-13
 -1        97-1.07529E-03 2.19182E-03 4.04404E-25 5.66140E-04 5.73157E-14-4.46729E-13
 -1        98-1.08673E-03 2.20592E-03 3.00289E-25 9.49100E-04 2.84654E-14-3.89297E-13
 -1        99-1.03320E-03 2.17905E-03 1.06684E-25 1.57228E-03 1.65450E-14-2.36916E-13
 -1       100-9.72560E-04 2.09981E-03 5.34397E-26 1.94039E-03 1.81241E-14-1.66181E-13
 -1       101-9.04625E-04 1.96889E-03 2.75514E-26 1.72277E-03 7.69047E-15-1.31868E-13
 -1       102-8.37395E-04 1.79209E-03-2.36635E-26 1.04677E-03-1.48802E-14 5.12285E-15
 -1       103-7.30282E-04 1.58423E-03 1.03252E-25 2.93030E-04-4.54616E-14 2.54450E-13
 -1       104-6.22366E-04 1.35704E-03 4.79248E-25-2.69937E-04-4.77522E-14 4.92629E-13
 -1       105-5.01932E-04 1.10748E-03 4.78066E-25-5.80717E-04-2.14287E-14 4.94082E-13
 -1       106-3.79032E-04 8.28123E-04 8.97840E-26-6.33371E-04 1.31550E-15 2.57764E-13
 -1       107-2.27317E-04 5.31083E-04-5.75955E-26-4.19660E-04-1.20608E-14-5.99284E-14
 -1       108-2.27317E-04 5.31083E-04-5.75855E-26-4.19660E-04-1.20675E-14-5.99617E-14
 -1       109-3.79032E-04 8.28123E-04 8.97835E-26-6.33371E-04 1.31670E-15 2.57768E-13
 -1       110-5.01932E-04 1.10748E-03 4.78090E-25-5.80717E-04-2.14274E-14 4.94094E-13
 -1       111-6.22366E-04 1.35704E-03 4.79235E-25-2.69937E-04-4.77545E-14 4.92622E-13
 -1       112-7.30282E-04 1.58423E-03 1.03254E-25 2.93030E-04-4.54569E-14 2.54452E-13
 -1       113-8.37395E-04 1.79209E-03-2.36616E-26 1.04677E-03-1.48794E-14 5.11959E-15
 -1       114-9.04625E-04 1.96889E-03 2.75457E-26 1.72277E-03 7.69155E-15-1.31854E-13
 -1       115-9.72560E-04 2.09981E-03 5.34396E-26 1.94039E-03 1.81229E-14-1.66181E-13
 -1       116-1.03320E-03 2.17905E-03 1.06693E-25 1.57228E-03 1.65438E-14-2.36926E-13
 -1       117-1.08673E-03 2.20592E-03 3.00291E-25 9.49100E-04 2.84645E-14-3.89298E-13
 -1       118-1.07529E-03 2.19182E-03 4.04393E-25 5.66140E-04 5.73183E-14-4.46722E-13
 -1       119-1.07277E-03 2.16450E-03 2.56563E-25 6.17750E-04 7.38279E-14-3.55767E-13
 -1       120-1.08153E-03 2.14365E-03 8.43036E-26 9.26215E-04 8.65151E-14-1.98378E-13
 -1       121-1.12772E-03 2.11927E-03 2.74719E-26 1.25496E-03 9.15389E-14-8.74759E-14
 -1       122-1.13096E-03 2.06968E-03 1.30964E-26 1.50192E-03 8.36407E-14-1.10187E-14
 -1       123-1.15645E-03 1.99672E-03 4.97649E-27 1.64016E-03 6.41540E-14-2.04220E-14
 -1       124-1.19048E-03 1.92289E-03 5.45195E-26 1.64684E-03 4.46445E-14-1.65158E-13
 -1       125-1.28718E-03 1.89707E-03 8.18840E-26 1.82429E-03 3.93850E-14-2.00131E-13
 -1       126-1.22324E-03 1.53620E-03 2.07604E-26 1.15386E-03 2.25425E-14-1.09188E-13
 -3
    1PSTEP                       220          55           1          
  100CL  155 5.50000E-01         126                     1   55           1
 -4  ERROR       1    1
 -5  STR(%)      1    1    0    0
 -1         1 6.07390E+01
 -1         2 6.07390E+01
 -1         3 4.19071E+01
 -1         4 4.19071E+01
 -1         5 1.28201E+01
 -1         6 1.28201E+01
 -1         7 6.33828E+01
 -1         8 6.33828E+01
 -1         9 4.19071E+01
 -1        10 4.19071E+01
 -1        11 6.33828E+01
 -1        12 6.33828E+01
 -1        13 6.07390E+01
 -1        14 5.80133E+01
 -1        15 5.76650E+01
 -1        16 5.69220E+01
 -1        17 5.59241E+01
 -1        18 5.47175E+01
 -1        19 5.31749E+01
 -1        20 5.17638E+01
 -1        21 5.05221E+01
 -1        22 4.98487E+01
 -1        23 4.79767E+01
 -1        24 4.01382E+01
 -1        25 5.97083E+01
 -1        26 8.68855E+01
 -1        27 8.68855E+01
 -1        28 8.67017E+01
 -1        29 8.67017E+01
 -1        30 8.00794E+01
 -1        31 8.00794E+01
 -1        32 6.07390E+01
 -1        33 5.80133E+01
 -1        34 5.76650E+01
 -1        35 5.69220E+01
 -1        36 5.59241E+01
 -1        37 5.47175E+01
 -1        38 5.31749E+01
 -1        39 5.17638E+01
 -1        40 5.05221E+01
 -1        41 4.98487E+01
 -1        42 4.79767E+01
 -1        43 4.01382E+01
 -1        44 5.97083E+01
 -1        45 8.68855E+01
 -1        46 8.68855E+01
 -1        47 8.67017E+01
 -1        48 8.67017E+01
 -1        49 8.00794E+01
 -1        50 8.00794E+01
 -1        51 2.86686E+01
 -1        52 3.98874E+01
 -1        53 4.37521E+01
 -1        54 4.37521E+01
 -1        55 4.30191E+01
 -1        56 4.05304E+01
 -1        57 4.14798E+01
 -1        58 7.31770E+01
 -1        59 8.40019E+01
 -1        60 8.40019E+01
 -1        61 7.84075E+01
 -1        62 7.56572E+01
 -1        63 7.50373E+01
 -1        64 7.36573E+01
 -1        65 7.15727E+01
 -1        66 6.94381E+01
 -1        67 6.75884E+01
 -1        68 6.61675E+01
 -1        69 6.53486E+01
 -1        70 2.86686E+01
 -1        71 3.98874E+01
 -1        72 4.37521E+01
 -1        73 4.37521E+01
 -1        74 4.30191E+01
 -1        75 4.05304E+01
 -1        76 4.14798E+01
 -1        77 7.31770E+01
 -1        78 8.40019E+01
 -1        79 8.40019E+01
 -1        80 7.84075E+01
 -1        81 7.56572E+01
 -1        82 7.50373E+01
 -1        83 7.36573E+01
 -1        84 7.15727E+01
 -1        85 6.94381E+01
 -1        86 6.75884E+01
 -1        87 6.61675E+01
 -1        88 6.53486E+01
 -1        89 6.53486E+01
 -1        90 6.61675E+01
 -1        91 6.75884E+01
 -1        92 6.94381E+01
 -1        93 7.15727E+01
 -1        94 7.36573E+01
 -1        95 7.50373E+01
 -1        96 7.56572E+01
 -1        97 7.84075E+01
 -1        98 8.40019E+01
 -1        99 8.40019E+01
 -1       100 7.31770E+01
 -1       101 5.97083E+01
 -1       102 8.68855E+01
 -1       103 8.68855E+01
 -1       104 8.67017E+01
 -1       105 8.67017E+01
 -1       106 8.00794E+01
 -1       107 8.00794E+01
 -1       108 8.00794E+01
 -1       109 8.00794E+01
 -1       110 8.67017E+01
 -1       111 8.67017E+01
 -1       112 8.68855E+01
 -1       113 8.68855E+01
 -1       114 5.97083E+01
 -1       115 7.31770E+01
 -1       116 8.40019E+01
 -1       117 8.40019E+01
 -1       118 7.84075E+01
 -1       119 7.56572E+01
 -1       120 7.50373E+01
 -1       121 7.36573E+01
 -1       122 7.15727E+01
 -1       123 6.94381E+01
 -1       124 6.75884E+01
 -1       125 6.61675E+01
 -1       126 6.53486E+01
 -3
    1PSTEP                       221          56           1          
  100CL  156 5.60000E-01         126                     1   56           1
 -4  DISP        4    1
 -5  D1          1    2    1    0
 -5  D2          1    2    2    0
 -5  D3          1    2    3    0
 -5  ALL         1    2    0    0    1ALL
 -1         1 0.00000E+00 0.00000E+00 0.00000E+00
 -1         2 0.00000E+00 0.00000E+00 0.00000E+00
 -1         3 1.84560E-01-6.51098E-03 0.00000E+00
 -1         4 1.84560E-01-6.51098E-03 0.00000E+00
 -1         5 1.82030E-01-2.88171E-02 0.00000E+00
 -1         6 1.82030E-01-2.88171E-02 0.00000E+00
 -1         7 0.00000E+00 0.00000E+00 0.00000E+00
 -1         8 0.00000E+00 0.00000E+00 0.00000E+00
 -1         9 1.83299E-01-1.76584E-02 0.00000E+00
 -1        10 1.83299E-01-1.76584E-02 0.00000E+00
 -1        11 0.00000E+00 0.00000E+00 0.00000E+00
 -1        12 0.00000E+00 0.00000E+00 0.00000E+00
 -1        13 1.39252E-03 1.75977E-03 0.00000E+00
 -1        14 4.16155E-03 3.39020E-03 0.00000E+00
 -1        15 8.54471E-03 4.72134E-03 0.00000E+00
 -1        16 1.42968E-02 5.74415E-03 0.00000E+00
 -1        17 2.12106E-02 6.44617E-03 0.00000E+00
 -1        18 2.90806E-02 6.86125E-03 0.00000E+00
 -1        19 3.77657E-02 7.04882E-03 0.00000E+00
 -1        20 4.72329E-02 7.04838E-03 0.00000E+00
 -1        21 5.74827E-02 6.85320E-03 0.00000E+00
 -1        22 6.84852E-02 6.41341E-03 0.00000E+00
 -1        23 8.01077E-02 5.67305E-03 0.00000E+00
 -1        24 9.21259E-02 4.61086E-03 0.00000E+00
 -1        25 1.04249E-01 3.28309E-03 0.00000E+00
 -1        26 1.16239E-01 1.81179E-03 0.00000E+00
 -1        27 1.27996E-01 3.21164E-04 0.00000E+00
 -1        28 1.39565E-01-1.13210E-03 0.00000E+00
 -1        29 1.50990E-01-2.54693E-03 0.00000E+00
 -1        30 1.62274E-01-3.92420E-03 0.00000E+00
 -1        31 1.73433E-01-5.24362E-03 0.00000E+00
 -1        32 1.39252E-03 1.75977E-03 0.00000E+00
 -1        33 4.16155E-03 3.39020E-03 0.00000E+00
 -1        34 8.54471E-03 4.72134E-03 0.00000E+00
 -1        35 1.42968E-02 5.74415E-03 0.00000E+00
 -1        36 2.12106E-02 6.44617E-03 0.00000E+00
 -1        37 2.90806E-02 6.86125E-03 0.00000E+00
 -1        38 3.77657E-02 7.04882E-03 0.00000E+00
 -1        39 4.72329E-02 7.04838E-03 0.00000E+00
 -1        40 5.74827E-02 6.85320E-03 0.00000E+00
 -1        41 6.84852E-02 6.41341E-03 0.00000E+00
 -1        42 8.01077E-02 5.67305E-03 0.00000E+00
 -1        43 9.21259E-02 4.61086E-03 0.00000E+00
 -1        44 1.04249E-01 3.28309E-03 0.00000E+00
 -1        45 1.16239E-01 1.81179E-03 0.00000E+00
 -1        46 1.27996E-01 3.21164E-04 0.00000E+00
 -1        47 1.39565E-01-1.13210E-03 0.00000E+00
 -1        48 1.50990E-01-2.54693E-03 0.00000E+00
 -1        49 1.62274E-01-3.92420E-03 0.00000E+00
 -1        50 1.73433E-01-5.24362E-03 0.00000E+00
 -1        51 1.70881E-01-2.76011E-02 0.00000E+00
 -1        52 1.59670E-01-2.64456E-02 0.00000E+00
 -1        53 1.48317E-01-2.53126E-02 0.00000E+00
 -1        54 1.36816E-01-2.41748E-02 0.00000E+00
 -1        55 1.25164E-01-2.30279E-02 0.00000E+00
 -1        56 1.13322E-01-2.18453E-02 0.00000E+00
 -1        57 1.01284E-01-2.05536E-02 0.00000E+00
 -1        58 8.91925E-02-1.90828E-02 0.00000E+00
 -1        59 7.73105E-02-1.74310E-02 0.00000E+00
 -1        60 6.59163E-02-1.56736E-02 0.00000E+00
 -1        61 5.52013E-02-1.39159E-02 0.00000E+00
 -1        62 4.52509E-02-1.22420E-02 0.00000E+00
 -1        63 3.60750E-02-1.06854E-02 0.00000E+00
 -1        64 2.76703E-02-9.22407E-03 0.00000E+00
 -1        65 2.00848E-02-7.80033E-03 0.00000E+00
 -1        66 1.34554E-02-6.35901E-03 0.00000E+00
 -1        67 7.97650E-03-4.87054E-03 0.00000E+00
 -1        68 3.82047E-03-3.32583E-03 0.00000E+00
 -1        69 1.22431E-03-1.67196E-03 0.00000E+00
 -1        70 1.70881E-01-2.76011E-02 0.00000E+00
 -1        71 1.59670E-01-2.64456E-02 0.00000E+00
 -1        72 1.48317E-01-2.53126E-02 0.00000E+00
 -1        73 1.36816E-01-2.41748E-02 0.00000E+00
 -1        74 1.25164E-01-2.30279E-02 0.00000E+00
 -1        75 1.13322E-01-2.18453E-02 0.00000E+00
 -1        76 1.01284E-01-2.05536E-02 0.00000E+00
 -1        77 8.91925E-02-1.90828E-02 0.00000E+00
 -1        78 7.73105E-02-1.74310E-02 0.00000E+00
 -1        79 6.59163E-02-1.56736E-02 0.00000E+00
 -1        80 5.52013E-02-1.39159E-02 0.00000E+00
 -1        81 4.52509E-02-1.22420E-02 0.00000E+00
 -1        82 3.60750E-02-1.06854E-02 0.00000E+00
 -1        83 2.76703E-02-9.22407E-03 0.00000E+00
 -1        84 2.00848E-02-7.80033E-03 0.00000E+00
 -1        85 1.34554E-02-6.35901E-03 0.00000E+00
 -1        86 7.97650E-03-4.87054E-03 0.00000E+00
 -1        87 3.82047E-03-3.32583E-03 0.00000E+00
 -1        88 1.22431E-03-1.67196E-03 0.00000E+00
 -1        89 8.62432E-04 4.69772E-05 0.00000E+00
 -1        90 3.67023E-03 5.64282E-05 0.00000E+00
 -1        91 7.96583E-03-4.23467E-05 0.00000E+00
 -1        92 1.36243E-02-2.73846E-04 0.00000E+00
 -1        93 2.04325E-02-6.44407E-04 0.00000E+00
 -1        94 2.81859E-02-1.14950E-03 0.00000E+00
 -1        95 3.67466E-02-1.78603E-03 0.00000E+00
 -1        96 4.60757E-02-2.56313E-03 0.00000E+00
 -1        97 5.61874E-02-3.49719E-03 0.00000E+00
 -1        98 6.70695E-02-4.59823E-03 0.00000E+00
 -1        99 7.86195E-02-5.85517E-03 0.00000E+00
 -1       100 9.06187E-02-7.22448E-03 0.00000E+00
 -1       101 1.02769E-01-8.63500E-03 0.00000E+00
 -1       102 1.14806E-01-1.00215E-02 0.00000E+00
 -1       103 1.26613E-01-1.13588E-02 0.00000E+00
 -1       104 1.38220E-01-1.26581E-02 0.00000E+00
 -1       105 1.49680E-01-1.39333E-02 0.00000E+00
 -1       106 1.60994E-01-1.51864E-02 0.00000E+00
 -1       107 1.72168E-01-1.64211E-02 0.00000E+00
 -1       108 1.72168E-01-1.64211E-02 0.00000E+00
 -1       109 1.60994E-01-1.51864E-02 0.00000E+00
 -1       110 1.49680E-01-1.39333E-02 0.00000E+00
 -1       111 1.38220E-01-1.26581E-02 0.00000E+00
 -1       112 1.26613E-01-1.13588E-02 0.00000E+00
 -1       113 1.14806E-01-1.00215E-02 0.00000E+00
 -1       114 1.02769E-01-8.63500E-03 0.00000E+00
 -1       115 9.06187E-02-7.22448E-03 0.00000E+00
 -1       116 7.86195E-02-5.85517E-03 0.00000E+00
 -1       117 6.70695E-02-4.59823E-03 0.00000E+00
 -1       118 5.61874E-02-3.49719E-03 0.00000E+00
 -1       119 4.60757E-02-2.56313E-03 0.00000E+00
 -1       120 3.67466E-02-1.78603E-03 0.00000E+00
 -1       121 2.81859E-02-1.14950E-03 0.00000E+00
 -1       122 2.04325E-02-6.44407E-04 0.00000E+00
 -1       123 1.36243E-02-2.73846E-04 0.00000E+00
 -1       124 7.96583E-03-4.23467E-05 0.00000E+00
 -1       125 3.67023E-03 5.64282E-05 0.00000E+00
 -1       126 8.62432E-04 4.69772E-05 0.00000E+00
 -3
    1PSTEP                       222          56           1          
  100CL  156 5.60000E-01         126                     1   56           1
 -4  STRESS      6    1
 -5  SXX         1    4    1    1
 -5  SYY         1    4    2    2
 -5  SZZ         1    4    3    3
 -5  SXY         1    4    1    2
 -5  SYZ         1    4    2    3
 -5  SZX         1    4    3    1
 -1         1 8.26236E+03 1.99261E+04 8.06907E+03 4.76063E+03-3.20563E-10-2.93052E-10
 -1         2 8.26236E+03 1.99261E+04 8.06907E+03 4.76063E+03-3.20563E-10-2.93052E-10
 -1         3-1.15445E+02-1.25490E+02-7.22949E+01-6.62604E+01-8.39519E-08-2.65279E-07
 -1         4-1.15445E+02-1.25490E+02-7.22949E+01-6.62604E+01-8.39529E-08-2.65278E-07
 -1         5 9.83307E+01 4.28770E+02 1.57937E+02 7.09318E+00 1.79308E-07-2.00668E-07
 -1         6 9.83307E+01 4.28770E+02 1.57937E+02 7.09318E+00 1.79315E-07-2.00638E-07
 -1         7-7.63975E+03-1.71916E+04-7.77743E+03 3.38112E+03-3.43142E-10 2.85320E-10
 -1         8-7.63975E+03-1.71916E+04-7.77743E+03 3.38112E+03-3.43142E-10 2.85320E-10
 -1         9-5.39921E+00 1.90232E+02 5.54118E+01-4.73305E+01 5.00749E-08-2.32567E-07
 -1        10-5.39921E+00 1.90232E+02 5.54118E+01-4.73305E+01 5.00757E-08-2.32572E-07
 -1        11 2.95518E+02 3.42646E+02 2.50973E+02 2.65237E+03-2.99030E-10-1.99916E-11
 -1        12 2.95518E+02 3.42646E+02 2.50973E+02 2.65237E+03-2.99030E-10-1.99916E-11
 -1        13 2.81032E+03 1.72180E+04 5.73944E+03 1.45593E+03-1.06030E-08-5.76253E-08
 -1        14 3.52083E+03 1.62214E+04 5.67445E+03 1.22272E+03 1.34055E-08-6.65181E-08
 -1        15 3.08117E+03 1.41945E+04 4.98775E+03 1.52717E+03 3.96244E-08-5.13338E-08
 -1        16 2.78808E+03 1.23412E+04 4.38764E+03 1.60631E+03 4.74030E-08 8.54011E-09
 -1        17 2.46322E+03 1.06520E+04 3.81969E+03 1.56629E+03 3.17429E-08 6.30689E-08
 -1        18 2.17033E+03 9.41736E+03 3.38548E+03 1.45429E+03 9.38808E-09 6.74300E-08
 -1        19 2.03058E+03 8.71840E+03 3.14581E+03 1.38367E+03-3.80011E-09 5.02977E-08
 -1        20 1.95496E+03 8.24761E+03 2.98848E+03 1.41900E+03-1.31265E-08 4.77872E-08
 -1        21 1.87311E+03 7.56547E+03 2.76815E+03 1.49848E+03-1.73948E-08 2.81091E-08
 -1        22 1.64221E+03 6.29956E+03 2.33532E+03 1.50111E+03-2.98023E-08 5.62655E-09
 -1        23 1.27313E+03 4.42848E+03 1.68382E+03 1.31647E+03-3.66125E-08-3.48632E-08
 -1        24 7.20536E+02 2.26114E+03 8.84861E+02 9.42183E+02-2.07165E-08-1.01515E-07
 -1        25 1.42645E+02 4.19365E+02 1.66741E+02 4.74478E+02 1.22283E-08-1.35840E-07
 -1        26-2.92740E+02-6.42052E+02-2.81064E+02 8.55410E+01 4.43381E-08-1.18197E-07
 -1        27-4.38297E+02-9.43976E+02-4.15366E+02-1.13873E+02 4.90581E-08-4.53384E-08
 -1        28-4.43829E+02-9.36841E+02-4.14841E+02-1.50459E+02 1.67897E-08 3.88369E-08
 -1        29-4.03863E+02-8.76375E+02-3.84709E+02-1.54879E+02-3.74510E-08 6.38666E-08
 -1        30-3.40024E+02-6.88470E+02-3.09058E+02-1.67850E+02-8.06177E-08-7.87120E-09
 -1        31-2.07240E+02-3.28654E+02-1.60917E+02-1.23082E+02-1.03246E-07-1.13036E-07
 -1        32 2.81032E+03 1.72180E+04 5.73944E+03 1.45593E+03-1.06030E-08-5.76253E-08
 -1        33 3.52083E+03 1.62214E+04 5.67445E+03 1.22272E+03 1.34055E-08-6.65181E-08
 -1        34 3.08117E+03 1.41945E+04 4.98775E+03 1.52717E+03 3.96244E-08-5.13338E-08
 -1        35 2.78808E+03 1.23412E+04 4.38764E+03 1.60631E+03 4.74030E-08 8.54012E-09
 -1        36 2.46322E+03 1.06520E+04 3.81969E+03 1.56629E+03 3.17428E-08 6.30693E-08
 -1        37 2.17033E+03 9.41736E+03 3.38548E+03 1.45429E+03 9.38853E-09 6.74277E-08
 -1        38 2.03058E+03 8.71840E+03 3.14581E+03 1.38367E+03-3.80017E-09 5.02989E-08
 -1        39 1.95496E+03 8.24761E+03 2.98848E+03 1.41900E+03-1.31265E-08 4.77872E-08
 -1        40 1.87311E+03 7.56547E+03 2.76815E+03 1.49848E+03-1.73947E-08 2.81100E-08
 -1        41 1.64221E+03 6.29956E+03 2.33532E+03 1.50111E+03-2.98023E-08 5.62630E-09
 -1        42 1.27313E+03 4.42848E+03 1.68382E+03 1.31647E+03-3.66125E-08-3.48614E-08
 -1        43 7.20536E+02 2.26114E+03 8.84861E+02 9.42183E+02-2.07165E-08-1.01516E-07
 -1        44 1.42645E+02 4.19365E+02 1.66741E+02 4.74478E+02 1.22284E-08-1.35840E-07
 -1        45-2.92740E+02-6.42052E+02-2.81064E+02 8.55410E+01 4.43377E-08-1.18197E-07
 -1        46-4.38297E+02-9.43976E+02-4.15366E+02-1.13873E+02 4.90581E-08-4.53384E-08
 -1        47-4.43829E+02-9.36841E+02-4.14841E+02-1.50459E+02 1.67897E-08 3.88369E-08
 -1        48-4.03863E+02-8.76375E+02-3.84709E+02-1.54879E+02-3.74509E-08 6.38660E-08
 -1        49-3.40024E+02-6.88470E+02-3.09058E+02-1.67850E+02-8.06173E-08-7.87643E-09
 -1        50-2.07240E+02-3.28654E+02-1.60917E+02-1.23082E+02-1.03246E-07-1.13052E-07
 -1        51 1.42614E+02 7.50320E+02 2.67118E+02 7.01756E+01 1.34389E-07-7.52068E-08
 -1        52 2.74490E+02 1.32232E+03 4.76918E+02 1.95040E+02 6.44505E-08 2.23168E-08
 -1        53 3.70900E+02 1.68160E+03 6.12399E+02 3.05395E+02-1.90464E-10 5.68466E-08
 -1        54 4.29592E+02 1.92538E+03 7.02095E+02 3.66537E+02-4.23234E-08 1.10215E-08
 -1        55 4.58836E+02 2.05747E+03 7.49599E+02 4.41892E+02-4.48177E-08-6.78574E-08
 -1        56 4.17205E+02 1.73700E+03 6.41644E+02 5.31875E+02-8.75375E-09-1.28594E-07
 -1        57 1.90601E+02 5.98995E+02 2.34757E+02 5.13570E+02 2.73383E-08-1.28529E-07
 -1        58-2.69662E+02-1.26008E+03-4.61622E+02 2.84601E+02 4.45097E-08-9.06248E-08
 -1        59-8.74725E+02-3.30475E+03-1.26496E+03-9.46497E+01 3.90668E-08-1.47282E-08
 -1        60-1.42393E+03-4.96248E+03-1.94029E+03-4.66605E+02 2.47586E-08 2.25754E-08
 -1        61-1.79360E+03-5.98702E+03-2.36962E+03-7.11690E+02 1.83738E-08 3.94789E-08
 -1        62-1.97952E+03-6.50739E+03-2.58748E+03-8.01359E+02 1.74206E-08 5.29153E-08
 -1        63-2.07964E+03-6.90904E+03-2.74243E+03-7.69615E+02 1.11856E-08 6.67603E-08
 -1        64-2.21132E+03-7.60964E+03-3.00158E+03-6.83102E+02-3.35221E-09 6.49523E-08
 -1        65-2.46889E+03-8.82304E+03-3.46325E+03-6.05838E+02-2.19475E-08 4.28959E-08
 -1        66-2.85377E+03-1.04447E+04-4.09803E+03-5.58290E+02-2.85691E-08-7.70504E-09
 -1        67-3.24853E+03-1.21771E+04-4.77696E+03-4.65658E+02-1.86704E-08-5.53806E-08
 -1        68-3.95140E+03-1.41203E+04-5.62508E+03-3.63961E+02 3.51213E-09-8.03129E-08
 -1        69-3.19432E+03-1.50030E+04-5.68615E+03 3.46966E+02 1.71236E-08-5.47346E-08
 -1        70 1.42614E+02 7.50320E+02 2.67118E+02 7.01756E+01 1.34388E-07-7.52081E-08
 -1        71 2.74490E+02 1.32232E+03 4.76918E+02 1.95040E+02 6.44507E-08 2.23105E-08
 -1        72 3.70900E+02 1.68160E+03 6.12399E+02 3.05395E+02-1.90548E-10 5.68491E-08
 -1        73 4.29592E+02 1.92538E+03 7.02095E+02 3.66537E+02-4.23234E-08 1.10353E-08
 -1        74 4.58836E+02 2.05747E+03 7.49599E+02 4.41892E+02-4.48178E-08-6.78611E-08
 -1        75 4.17205E+02 1.73700E+03 6.41644E+02 5.31875E+02-8.75367E-09-1.28594E-07
 -1        76 1.90601E+02 5.98995E+02 2.34757E+02 5.13570E+02 2.73383E-08-1.28529E-07
 -1        77-2.69662E+02-1.26008E+03-4.61622E+02 2.84601E+02 4.45118E-08-9.06254E-08
 -1        78-8.74725E+02-3.30475E+03-1.26496E+03-9.46497E+01 3.90666E-08-1.47263E-08
 -1        79-1.42393E+03-4.96248E+03-1.94029E+03-4.66605E+02 2.47588E-08 2.25758E-08
 -1        80-1.79360E+03-5.98702E+03-2.36962E+03-7.11690E+02 1.83730E-08 3.94776E-08
 -1        81-1.97952E+03-6.50739E+03-2.58748E+03-8.01359E+02 1.74206E-08 5.29120E-08
 -1        82-2.07964E+03-6.90904E+03-2.74243E+03-7.69615E+02 1.11858E-08 6.67605E-08
 -1        83-2.21132E+03-7.60964E+03-3.00158E+03-6.83102E+02-3.35270E-09 6.49494E-08
 -1        84-2.46889E+03-8.82304E+03-3.46325E+03-6.05838E+02-2.19491E-08 4.28997E-08
 -1        85-2.85377E+03-1.04447E+04-4.09803E+03-5.58290E+02-2.85696E-08-7.70295E-09
 -1        86-3.24853E+03-1.21771E+04-4.77696E+03-4.65658E+02-1.86707E-08-5.53810E-08
 -1        87-3.95140E+03-1.41203E+04-5.62508E+03-3.63961E+02 3.51214E-09-8.03130E-08
 -1        88-3.19432E+03-1.50030E+04-5.68615E+03 3.46966E+02 1.71236E-08-5.47346E-08
 -1        89-8.86259E+01 2.50136E+02 6.82372E+01 3.68715E+02 2.35167E-09-5.22494E-08
 -1        90-5.65320E+01 3.93295E+02 1.31698E+02 6.05685E+02 7.63368E-09-8.19174E-08
 -1        91 6.82507E+00 4.37732E+02 1.53903E+02 5.73334E+02 1.06690E-08-5.00962E-08
 -1        92 4.13863E+01 4.96507E+02 1.77164E+02 5.84560E+02 6.56071E-09-1.19946E-09
 -1        93 5.41888E+01 5.77239E+02 2.01479E+02 5.21887E+02 4.94832E-09 5.63836E-08
 -1        94 2.23244E+01 6.49928E+02 2.11116E+02 4.02647E+02 8.74083E-09 7.35686E-08
 -1        95 6.83624E+00 6.98482E+02 2.19191E+02 3.00273E+02 5.26324E-09 6.21662E-08
 -1        96 1.56380E+01 6.87141E+02 2.16745E+02 2.96460E+02 1.11265E-09 5.00750E-08
 -1        97 7.77177E+01 6.25538E+02 2.14989E+02 4.07013E+02 1.51055E-09 3.38816E-08
 -1        98 1.66442E+02 5.27885E+02 2.10012E+02 5.82756E+02-1.52464E-09 1.73647E-08
 -1        99 2.69827E+02 4.45173E+02 2.14213E+02 7.24759E+02-3.78011E-10-2.57545E-08
 -1       100 2.93646E+02 4.13620E+02 2.10800E+02 7.38774E+02 1.31385E-08-9.81289E-08
 -1       101 2.17860E+02 4.59916E+02 2.01865E+02 5.87140E+02 2.23643E-08-1.39880E-07
 -1       102 8.83662E+01 5.28794E+02 1.84214E+02 3.50064E+02 1.75763E-08-1.29767E-07
 -1       103 1.52598E+01 5.50844E+02 1.69495E+02 1.67471E+02-1.82092E-09-5.81785E-08
 -1       104-9.72241E+00 4.93890E+02 1.45182E+02 9.83961E+01-1.85092E-08 3.10902E-08
 -1       105-1.96251E+01 4.09016E+02 1.16771E+02 6.20947E+01-1.96287E-08 6.94849E-08
 -1       106-4.16556E+01 3.29839E+02 8.63719E+01-1.02166E+01-1.05921E-08 2.10630E-08
 -1       107-3.72958E+01 2.37831E+02 6.01419E+01-5.05803E+01 1.35282E-08-8.91350E-08
 -1       108-3.72958E+01 2.37831E+02 6.01419E+01-5.05803E+01 1.35283E-08-8.91379E-08
 -1       109-4.16556E+01 3.29839E+02 8.63719E+01-1.02166E+01-1.05925E-08 2.10610E-08
 -1       110-1.96251E+01 4.09016E+02 1.16771E+02 6.20947E+01-1.96289E-08 6.94880E-08
 -1       111-9.72241E+00 4.93890E+02 1.45182E+02 9.83961E+01-1.85092E-08 3.10884E-08
 -1       112 1.52598E+01 5.50844E+02 1.69495E+02 1.67471E+02-1.82086E-09-5.81780E-08
 -1       113 8.83662E+01 5.28794E+02 1.84214E+02 3.50064E+02 1.75762E-08-1.29767E-07
 -1       114 2.17860E+02 4.59916E+02 2.01865E+02 5.87140E+02 2.23641E-08-1.39881E-07
 -1       115 2.93646E+02 4.13620E+02 2.10800E+02 7.38774E+02 1.31383E-08-9.81276E-08
 -1       116 2.69827E+02 4.45173E+02 2.14213E+02 7.24759E+02-3.78359E-10-2.57584E-08
 -1       117 1.66442E+02 5.27885E+02 2.10012E+02 5.82756E+02-1.52461E-09 1.73653E-08
 -1       118 7.77177E+01 6.25538E+02 2.14989E+02 4.07013E+02 1.51065E-09 3.38792E-08
 -1       119 1.56380E+01 6.87141E+02 2.16745E+02 2.96460E+02 1.11266E-09 5.00755E-08
 -1       120 6.83624E+00 6.98482E+02 2.19191E+02 3.00273E+02 5.26312E-09 6.21657E-08
 -1       121 2.23244E+01 6.49928E+02 2.11116E+02 4.02647E+02 8.74076E-09 7.35714E-08
 -1       122 5.41888E+01 5.77239E+02 2.01479E+02 5.21887E+02 4.94875E-09 5.63822E-08
 -1       123 4.13863E+01 4.96507E+02 1.77164E+02 5.84560E+02 6.56069E-09-1.19970E-09
 -1       124 6.82507E+00 4.37732E+02 1.53903E+02 5.73334E+02 1.06692E-08-5.00961E-08
 -1       125-5.65320E+01 3.93295E+02 1.31698E+02 6.05685E+02 7.63363E-09-8.19174E-08
 -1       126-8.86259E+01 2.50136E+02 6.82372E+01 3.68715E+02 2.35167E-09-5.22494E-08
 -3
    1PSTEP                       223          56           1          
  100CL  156 5.60000E-01         126                     1   56           1
 -4  TOSTRAIN    6    1
 -5  EXX         1    4    1    1
 -5  EYY         1    4    2    2
 -5  EZZ         1    4    3    3
 -5  EXY         1    4    1    2
 -5  EYZ         1    4    2    3
 -5  EZX         1    4    3    1
 -1         1-1.06982E-04 3.60945E-02-1.19675E-26 1.39250E-02 2.00801E-19-5.01671E-16
 -1         2-1.06982E-04 3.60945E-02-1.19675E-26 1.39250E-02 2.00801E-19-5.01671E-16
 -1         3-4.84015E-05-2.64840E-04 1.48795E-24-1.87046E-04-4.58377E-13-7.79949E-13
 -1         4-4.84015E-05-2.64840E-04 1.48795E-24-1.87046E-04-4.58380E-13-7.79947E-13
 -1         5-1.50384E-04 8.35196E-04 1.40299E-24-2.12259E-04 4.22003E-13-7.65473E-13
 -1         6-1.50384E-04 8.35196E-04 1.40282E-24-2.12259E-04 4.22046E-13-7.65385E-13
 -1         7-1.02986E-04-3.26825E-02-1.15648E-26 1.22430E-02-3.33773E-19 5.65599E-16
 -1         8-1.02986E-04-3.26825E-02-1.15648E-26 1.22430E-02-3.33773E-19 5.65599E-16
 -1         9-9.93929E-05 3.39514E-04 1.05434E-24-2.76473E-04-9.95236E-15-7.73094E-13
 -1        10-9.93929E-05 3.39514E-04 1.05437E-24-2.76473E-04-9.95335E-15-7.73110E-13
 -1        11-1.04984E-04 9.83686E-04-9.54137E-27 8.62419E-03-1.27071E-19 1.82256E-18
 -1        12-1.04984E-04 9.83686E-04-9.54137E-27 8.62419E-03-1.27071E-19 1.82256E-18
 -1        13-1.00559E-02 3.53399E-02 6.50087E-26 2.87848E-03-3.88602E-14-1.84861E-13
 -1        14-7.63295E-03 3.26679E-02 9.47074E-26 1.08449E-03 2.78621E-14-2.17206E-13
 -1        15-7.03225E-03 2.89900E-02 7.66744E-26 1.33128E-03 1.08086E-13-1.77838E-13
 -1        16-6.16149E-03 2.54446E-02 2.65181E-26 1.25946E-03 1.51175E-13 8.52913E-15
 -1        17-5.41833E-03 2.21770E-02 9.35856E-26 1.07071E-03 1.27610E-13 1.87259E-13
 -1        18-4.92449E-03 1.97577E-02 9.59992E-26 7.04263E-04 6.37269E-14 2.10631E-13
 -1        19-4.58557E-03 1.83583E-02 5.22479E-26 3.97663E-04 1.63843E-14 1.62562E-13
 -1        20-4.41884E-03 1.74961E-02 5.05987E-26 3.76487E-04-1.16932E-14 1.60233E-13
 -1        21-4.16251E-03 1.62675E-02 1.99642E-26 6.62067E-04-3.56055E-14 1.00923E-13
 -1        22-3.67396E-03 1.38737E-02 1.14584E-26 1.10456E-03-8.88702E-14 3.93491E-14
 -1        23-2.74552E-03 1.00877E-02 3.61531E-26 1.48116E-03-1.40089E-13-8.22478E-14
 -1        24-1.67727E-03 5.52832E-03 2.09231E-25 1.54288E-03-1.42557E-13-3.04047E-13
 -1        25-7.48319E-04 1.47375E-03 3.87137E-25 1.15060E-03-6.65670E-14-4.38237E-13
 -1        26-2.35507E-04-9.81584E-04 3.23366E-25 5.07520E-04 4.91579E-14-4.07725E-13
 -1        27 2.24921E-07-1.79860E-03 6.13895E-26 4.38586E-05 1.20936E-13-1.80686E-13
 -1        28 3.78207E-05-1.83377E-03 1.36656E-26-7.79383E-05 8.24345E-14 1.10352E-13
 -1        29 7.92301E-05-1.74475E-03 9.78260E-26-1.11173E-04-7.14097E-14 2.29988E-13
 -1        30 7.93071E-05-1.41747E-03 8.78577E-26-2.42210E-04-2.61541E-13 3.39883E-14
 -1        31 3.57117E-06-7.00480E-04 3.85459E-25-2.74448E-04-4.09571E-13-2.83380E-13
 -1        32-1.00559E-02 3.53399E-02 6.50087E-26 2.87848E-03-3.88602E-14-1.84861E-13
 -1        33-7.63295E-03 3.26679E-02 9.47074E-26 1.08449E-03 2.78621E-14-2.17206E-13
 -1        34-7.03225E-03 2.89900E-02 7.66745E-26 1.33128E-03 1.08086E-13-1.77839E-13
 -1        35-6.16149E-03 2.54446E-02 2.65181E-26 1.25946E-03 1.51175E-13 8.52917E-15
 -1        36-5.41833E-03 2.21770E-02 9.35865E-26 1.07071E-03 1.27610E-13 1.87260E-13
 -1        37-4.92449E-03 1.97577E-02 9.59931E-26 7.04263E-04 6.37271E-14 2.10624E-13
 -1        38-4.58557E-03 1.83583E-02 5.22510E-26 3.97663E-04 1.63848E-14 1.62566E-13
 -1        39-4.41884E-03 1.74961E-02 5.05987E-26 3.76487E-04-1.16932E-14 1.60233E-13
 -1        40-4.16251E-03 1.62675E-02 1.99653E-26 6.62067E-04-3.56048E-14 1.00926E-13
 -1        41-3.67396E-03 1.38737E-02 1.14581E-26 1.10456E-03-8.88704E-14 3.93484E-14
 -1        42-2.74552E-03 1.00877E-02 3.61497E-26 1.48116E-03-1.40088E-13-8.22420E-14
 -1        43-1.67727E-03 5.52832E-03 2.09232E-25 1.54288E-03-1.42557E-13-3.04048E-13
 -1        44-7.48319E-04 1.47375E-03 3.87137E-25 1.15060E-03-6.65666E-14-4.38237E-13
 -1        45-2.35507E-04-9.81584E-04 3.23366E-25 5.07520E-04 4.91566E-14-4.07725E-13
 -1        46 2.24921E-07-1.79860E-03 6.13895E-26 4.38586E-05 1.20936E-13-1.80686E-13
 -1        47 3.78207E-05-1.83377E-03 1.36656E-26-7.79383E-05 8.24343E-14 1.10352E-13
 -1        48 7.92301E-05-1.74475E-03 9.78183E-26-1.11173E-04-7.14098E-14 2.29986E-13
 -1        49 7.93071E-05-1.41747E-03 8.78374E-26-2.42210E-04-2.61543E-13 3.39714E-14
 -1        50 3.57117E-06-7.00480E-04 3.85515E-25-2.74448E-04-4.09582E-13-2.83430E-13
 -1        51-4.05721E-04 1.56482E-03 3.91237E-25-2.24647E-04 3.70272E-13-3.35717E-13
 -1        52-7.65526E-04 2.83594E-03 4.43844E-26-1.77550E-04 2.19619E-13 2.35129E-14
 -1        53-1.00687E-03 3.66650E-03 5.18472E-26-5.52094E-05 4.13125E-14 1.79965E-13
 -1        54-1.16486E-03 4.21505E-03 1.94638E-26-2.63306E-05-1.24844E-13 6.65350E-14
 -1        55-1.31900E-03 4.57612E-03 1.12087E-25 9.71639E-05-1.91966E-13-1.80291E-13
 -1        56-1.29151E-03 4.07890E-03 3.37694E-25 5.43278E-04-1.25902E-13-3.99117E-13
 -1        57-8.48482E-04 1.86885E-03 3.60181E-25 1.16824E-03-1.33204E-14-4.26957E-13
 -1        58 4.65632E-06-1.99927E-03 1.99635E-25 1.56917E-03 7.09367E-14-3.20948E-13
 -1        59 9.55979E-04-6.41496E-03 1.87604E-26 1.52134E-03 1.13462E-13-7.63919E-14
 -1        60 1.72259E-03-1.00819E-02 1.84535E-26 1.13547E-03 9.59953E-14 5.36767E-14
 -1        61 2.16533E-03-1.23618E-02 3.87135E-26 6.77993E-04 8.65298E-14 1.13273E-13
 -1        62 2.35453E-03-1.34810E-02 6.47518E-26 3.91889E-04 9.04162E-14 1.58207E-13
 -1        63 2.47517E-03-1.42619E-02 9.66424E-26 4.13911E-04 7.58226E-14 2.07652E-13
 -1        64 2.75374E-03-1.56428E-02 8.69466E-26 7.10093E-04 2.38685E-14 2.10807E-13
 -1        65 3.27735E-03-1.81250E-02 4.01869E-26 1.07106E-03-5.19985E-14 1.48871E-13
 -1        66 3.98661E-03-2.15179E-02 6.68740E-27 1.26809E-03-9.81847E-14-1.34144E-14
 -1        67 4.81343E-03-2.52041E-02 6.36633E-26 1.36741E-03-8.04883E-14-1.73900E-13
 -1        68 5.21498E-03-2.91538E-02 1.32930E-25 1.12158E-03-6.28631E-15-2.62680E-13
 -1        69 7.75625E-03-3.19789E-02 6.21696E-26 2.62281E-03 5.23263E-14-1.80633E-13
 -1        70-4.05721E-04 1.56482E-03 3.91264E-25-2.24647E-04 3.70267E-13-3.35720E-13
 -1        71-7.65526E-04 2.83594E-03 4.43902E-26-1.77550E-04 2.19615E-13 2.34929E-14
 -1        72-1.00687E-03 3.66650E-03 5.18535E-26-5.52094E-05 4.13141E-14 1.79972E-13
 -1        73-1.16486E-03 4.21505E-03 1.94627E-26-2.63306E-05-1.24834E-13 6.65786E-14
 -1        74-1.31900E-03 4.57612E-03 1.12087E-25 9.71639E-05-1.91968E-13-1.80302E-13
 -1        75-1.29151E-03 4.07890E-03 3.37694E-25 5.43278E-04-1.25902E-13-3.99117E-13
 -1        76-8.48482E-04 1.86885E-03 3.60179E-25 1.16824E-03-1.33201E-14-4.26956E-13
 -1        77 4.65632E-06-1.99927E-03 1.99640E-25 1.56917E-03 7.09429E-14-3.20951E-13
 -1        78 9.55979E-04-6.41496E-03 1.87572E-26 1.52134E-03 1.13463E-13-7.63859E-14
 -1        79 1.72259E-03-1.00819E-02 1.84542E-26 1.13547E-03 9.59962E-14 5.36778E-14
 -1        80 2.16533E-03-1.23618E-02 3.87110E-26 6.77993E-04 8.65262E-14 1.13269E-13
 -1        81 2.35453E-03-1.34810E-02 6.47443E-26 3.91889E-04 9.04140E-14 1.58196E-13
 -1        82 2.47517E-03-1.42619E-02 9.66429E-26 4.13911E-04 7.58234E-14 2.07653E-13
 -1        83 2.75374E-03-1.56428E-02 8.69390E-26 7.10093E-04 2.38654E-14 2.10798E-13
 -1        84 3.27735E-03-1.81250E-02 4.01956E-26 1.07106E-03-5.20019E-14 1.48884E-13
 -1        85 3.98661E-03-2.15179E-02 6.68615E-27 1.26809E-03-9.81855E-14-1.34075E-14
 -1        86 4.81343E-03-2.52041E-02 6.36636E-26 1.36741E-03-8.04897E-14-1.73901E-13
 -1        87 5.21498E-03-2.91538E-02 1.32930E-25 1.12158E-03-6.28629E-15-2.62680E-13
 -1        88 7.75625E-03-3.19789E-02 6.21696E-26 2.62281E-03 5.23263E-14-1.80633E-13
 -1        89-1.14982E-03 1.32936E-03 5.10328E-26 1.15188E-03 2.16999E-15-1.70072E-13
 -1        90-1.20899E-03 1.66125E-03 1.40101E-25 1.84566E-03 6.98712E-15-2.67461E-13
 -1        91-1.10941E-03 1.68928E-03 4.69766E-26 1.68654E-03 1.88954E-14-1.65563E-13
 -1        92-1.08744E-03 1.78929E-03-1.42019E-26 1.65733E-03 2.07035E-14-6.50793E-15
 -1        93-1.07049E-03 1.89539E-03 5.87068E-26 1.37956E-03 4.19835E-14 1.79096E-13
 -1        94-1.08537E-03 1.96362E-03 1.15043E-25 9.11529E-04 6.64282E-14 2.31415E-13
 -1        95-1.05520E-03 1.97421E-03 8.13990E-26 5.18879E-04 5.25461E-14 1.95811E-13
 -1        96-1.03216E-03 1.94390E-03 5.14754E-26 4.75797E-04 3.48044E-14 1.59030E-13
 -1        97-9.98589E-04 1.90694E-03 2.21080E-26 8.42134E-04 2.75327E-14 1.06685E-13
 -1        98-9.75683E-04 1.86955E-03-1.65473E-28 1.44823E-03 7.52748E-15 5.61326E-14
 -1        99-8.94769E-04 1.81506E-03-4.13428E-27 1.96552E-03-2.05253E-14-8.11036E-14
 -1       100-8.36306E-04 1.74793E-03 1.90796E-25 2.03127E-03-3.40339E-14-3.19924E-13
 -1       101-7.98401E-04 1.67336E-03 4.21083E-25 1.50167E-03-3.77635E-14-4.58870E-13
 -1       102-7.63511E-04 1.56153E-03 3.50735E-25 6.77781E-04-4.42488E-14-4.23364E-13
 -1       103-6.59390E-04 1.39316E-03 3.94660E-26 8.88612E-05-4.98262E-14-1.82503E-13
 -1       104-5.63518E-04 1.19188E-03 7.38747E-27-8.12821E-05-3.51560E-14 1.12210E-13
 -1       105-4.63820E-04 9.69165E-04 1.03515E-25-1.27924E-04-1.06354E-14 2.34461E-13
 -1       106-3.43110E-04 7.16935E-04-3.33329E-26-2.94474E-04-1.80594E-14 7.44467E-14
 -1       107-2.01075E-04 4.61536E-04 6.06480E-26-3.42414E-04-2.18780E-14-2.92227E-13
 -1       108-2.01075E-04 4.61536E-04 6.06453E-26-3.42414E-04-2.18797E-14-2.92236E-13
 -1       109-3.43110E-04 7.16935E-04-3.33435E-26-2.94474E-04-1.80619E-14 7.44407E-14
 -1       110-4.63820E-04 9.69165E-04 1.03521E-25-1.27924E-04-1.06339E-14 2.34471E-13
 -1       111-5.63518E-04 1.19188E-03 7.38754E-27-8.12821E-05-3.51572E-14 1.12204E-13
 -1       112-6.59390E-04 1.39316E-03 3.94659E-26 8.88612E-05-4.98256E-14-1.82501E-13
 -1       113-7.63511E-04 1.56153E-03 3.50735E-25 6.77781E-04-4.42491E-14-4.23364E-13
 -1       114-7.98401E-04 1.67336E-03 4.21088E-25 1.50167E-03-3.77647E-14-4.58873E-13
 -1       115-8.36306E-04 1.74793E-03 1.90792E-25 2.03127E-03-3.40337E-14-3.19920E-13
 -1       116-8.94769E-04 1.81506E-03-4.12743E-27 1.96552E-03-2.05293E-14-8.11157E-14
 -1       117-9.75683E-04 1.86955E-03-1.64848E-28 1.44823E-03 7.52793E-15 5.61342E-14
 -1       118-9.98589E-04 1.90694E-03 2.21050E-26 8.42134E-04 2.75314E-14 1.06677E-13
 -1       119-1.03216E-03 1.94390E-03 5.14766E-26 4.75797E-04 3.48048E-14 1.59032E-13
 -1       120-1.05520E-03 1.97421E-03 8.13975E-26 5.18879E-04 5.25454E-14 1.95809E-13
 -1       121-1.08537E-03 1.96362E-03 1.15051E-25 9.11529E-04 6.64294E-14 2.31424E-13
 -1       122-1.07049E-03 1.89539E-03 5.87036E-26 1.37956E-03 4.19842E-14 1.79091E-13
 -1       123-1.08744E-03 1.78929E-03-1.42017E-26 1.65733E-03 2.07033E-14-6.50870E-15
 -1       124-1.10941E-03 1.68928E-03 4.69768E-26 1.68654E-03 1.88959E-14-1.65563E-13
 -1       125-1.20899E-03 1.66125E-03 1.40101E-25 1.84566E-03 6.98699E-15-2.67461E-13
 -1       126-1.14982E-03 1.32936E-03 5.10328E-26 1.15188E-03 2.16999E-15-1.70072E-13
 -3
    1PSTEP                       224          56           1          
  100CL  156 5.60000E-01         126                     1   56           1
 -4  ERROR       1    1
 -5  STR(%)      1    1    0    0
 -1         1 6.10642E+01
 -1         2 6.10642E+01
 -1         3 7.17915E+01
 -1         4 7.17915E+01
 -1         5 2.31646E+01
 -1         6 2.31646E+01
 -1         7 6.29440E+01
 -1         8 6.29440E+01
 -1         9 7.17915E+01
 -1        10 7.17915E+01
 -1        11 6.29440E+01
 -1        12 6.29440E+01
 -1        13 6.10642E+01
 -1        14 5.85419E+01
 -1        15 5.82894E+01
 -1        16 5.75843E+01
 -1        17 5.65021E+01
 -1        18 5.51967E+01
 -1        19 5.37427E+01
 -1        20 5.30680E+01
 -1        21 5.30680E+01
 -1        22 5.30368E+01
 -1        23 5.04906E+01
 -1        24 4.09584E+01
 -1        25 6.52280E+01
 -1        26 8.68201E+01
 -1        27 9.01539E+01
 -1        28 9.01539E+01
 -1        29 8.84540E+01
 -1        30 8.80624E+01
 -1        31 7.74515E+01
 -1        32 6.10642E+01
 -1        33 5.85419E+01
 -1        34 5.82894E+01
 -1        35 5.75843E+01
 -1        36 5.65021E+01
 -1        37 5.51967E+01
 -1        38 5.37427E+01
 -1        39 5.30680E+01
 -1        40 5.30680E+01
 -1        41 5.30368E+01
 -1        42 5.04906E+01
 -1        43 4.09584E+01
 -1        44 6.52280E+01
 -1        45 8.68201E+01
 -1        46 9.01539E+01
 -1        47 9.01539E+01
 -1        48 8.84540E+01
 -1        49 8.80624E+01
 -1        50 7.74515E+01
 -1        51 3.88915E+01
 -1        52 4.15264E+01
 -1        53 4.15264E+01
 -1        54 4.00369E+01
 -1        55 3.89756E+01
 -1        56 3.76554E+01
 -1        57 3.93388E+01
 -1        58 6.52211E+01
 -1        59 7.66791E+01
 -1        60 7.66791E+01
 -1        61 7.43016E+01
 -1        62 7.09608E+01
 -1        63 7.03877E+01
 -1        64 7.03877E+01
 -1        65 7.01899E+01
 -1        66 6.86121E+01
 -1        67 6.67623E+01
 -1        68 6.53885E+01
 -1        69 6.46611E+01
 -1        70 3.88915E+01
 -1        71 4.15264E+01
 -1        72 4.15264E+01
 -1        73 4.00369E+01
 -1        74 3.89756E+01
 -1        75 3.76554E+01
 -1        76 3.93388E+01
 -1        77 6.52211E+01
 -1        78 7.66791E+01
 -1        79 7.66791E+01
 -1        80 7.43016E+01
 -1        81 7.09608E+01
 -1        82 7.03877E+01
 -1        83 7.03877E+01
 -1        84 7.01899E+01
 -1        85 6.86121E+01
 -1        86 6.67623E+01
 -1        87 6.53885E+01
 -1        88 6.46611E+01
 -1        89 6.46611E+01
 -1        90 6.53885E+01
 -1        91 6.67623E+01
 -1        92 6.86121E+01
 -1        93 7.01899E+01
 -1        94 7.03877E+01
 -1        95 7.03877E+01
 -1        96 7.09608E+01
 -1        97 7.43016E+01
 -1        98 7.66791E+01
 -1        99 7.66791E+01
 -1       100 6.52211E+01
 -1       101 6.52280E+01
 -1       102 8.68201E+01
 -1       103 9.01539E+01
 -1       104 9.01539E+01
 -1       105 8.84540E+01
 -1       106 8.80624E+01
 -1       107 7.74515E+01
 -1       108 7.74515E+01
 -1       109 8.80624E+01
 -1       110 8.84540E+01
 -1       111 9.01539E+01
 -1       112 9.01539E+01
 -1       113 8.68201E+01
 -1       114 6.52280E+01
 -1       115 6.52211E+01
 -1       116 7.66791E+01
 -1       117 7.66791E+01
 -1       118 7.43016E+01
 -1       119 7.09608E+01
 -1       120 7.03877E+01
 -1       121 7.03877E+01
 -1       122 7.01899E+01
 -1       123 6.86121E+01
 -1       124 6.67623E+01
 -1       125 6.53885E+01
 -1       126 6.46611E+01
 -3
    1PSTEP                       225          57           1          
  100CL  157 5.70000E-01         126                     1   57           1
 -4  DISP        4    1
 -5  D1          1    2    1    0
 -5  D2          1    2    2    0
 -5  D3          1    2    3    0
 -5  ALL         1    2    0    0    1ALL
 -1         1 0.00000E+00 0.00000E+00 0.00000E+00
 -1         2 0.00000E+00 0.00000E+00 0.00000E+00
 -1         3 1.90950E-01-7.49179E-03 0.00000E+00
 -1         4 1.90950E-01-7.49179E-03 0.00000E+00
 -1         5 1.88075E-01-3.12640E-02 0.00000E+00
 -1         6 1.88075E-01-3.12640E-02 0.00000E+00
 -1         7 0.00000E+00 0.00000E+00 0.00000E+00
 -1         8 0.00000E+00 0.00000E+00 0.00000E+00
 -1         9 1.89515E-01-1.93709E-02 0.00000E+00
 -1        10 1.89515E-01-1.93709E-02 0.00000E+00
 -1        11 0.00000E+00 0.00000E+00 0.00000E+00
 -1        12 0.00000E+00 0.00000E+00 0.00000E+00
 -1        13 1.41483E-03 1.77037E-03 0.00000E+00
 -1        14 4.23124E-03 3.39436E-03 0.00000E+00
 -1        15 8.65205E-03 4.69795E-03 0.00000E+00
 -1        16 1.43993E-02 5.69233E-03 0.00000E+00
 -1        17 2.12803E-02 6.39207E-03 0.00000E+00
 -1        18 2.91411E-02 6.84315E-03 0.00000E+00
 -1        19 3.79007E-02 7.09497E-03 0.00000E+00
 -1        20 4.75769E-02 7.15413E-03 0.00000E+00
 -1        21 5.81778E-02 6.96565E-03 0.00000E+00
 -1        22 6.96034E-02 6.45045E-03 0.00000E+00
 -1        23 8.16153E-02 5.57880E-03 0.00000E+00
 -1        24 9.39430E-02 4.39697E-03 0.00000E+00
 -1        25 1.06358E-01 3.00450E-03 0.00000E+00
 -1        26 1.18731E-01 1.50171E-03 0.00000E+00
 -1        27 1.31003E-01-3.82527E-05 0.00000E+00
 -1        28 1.43169E-01-1.57855E-03 0.00000E+00
 -1        29 1.55231E-01-3.10301E-03 0.00000E+00
 -1        30 1.67196E-01-4.60117E-03 0.00000E+00
 -1        31 1.79083E-01-6.06079E-03 0.00000E+00
 -1        32 1.41483E-03 1.77037E-03 0.00000E+00
 -1        33 4.23124E-03 3.39436E-03 0.00000E+00
 -1        34 8.65205E-03 4.69795E-03 0.00000E+00
 -1        35 1.43993E-02 5.69233E-03 0.00000E+00
 -1        36 2.12803E-02 6.39207E-03 0.00000E+00
 -1        37 2.91411E-02 6.84315E-03 0.00000E+00
 -1        38 3.79007E-02 7.09497E-03 0.00000E+00
 -1        39 4.75769E-02 7.15413E-03 0.00000E+00
 -1        40 5.81778E-02 6.96565E-03 0.00000E+00
 -1        41 6.96034E-02 6.45045E-03 0.00000E+00
 -1        42 8.16153E-02 5.57880E-03 0.00000E+00
 -1        43 9.39430E-02 4.39697E-03 0.00000E+00
 -1        44 1.06358E-01 3.00450E-03 0.00000E+00
 -1        45 1.18731E-01 1.50171E-03 0.00000E+00
 -1        46 1.31003E-01-3.82527E-05 0.00000E+00
 -1        47 1.43169E-01-1.57855E-03 0.00000E+00
 -1        48 1.55231E-01-3.10301E-03 0.00000E+00
 -1        49 1.67196E-01-4.60117E-03 0.00000E+00
 -1        50 1.79083E-01-6.06079E-03 0.00000E+00
 -1        51 1.76188E-01-2.98606E-02 0.00000E+00
 -1        52 1.64265E-01-2.85009E-02 0.00000E+00
 -1        53 1.52252E-01-2.71597E-02 0.00000E+00
 -1        54 1.40138E-01-2.58126E-02 0.00000E+00
 -1        55 1.27922E-01-2.44445E-02 0.00000E+00
 -1        56 1.15611E-01-2.30363E-02 0.00000E+00
 -1        57 1.03229E-01-2.15567E-02 0.00000E+00
 -1        58 9.08602E-02-1.99677E-02 0.00000E+00
 -1        59 7.86633E-02-1.82412E-02 0.00000E+00
 -1        60 6.68768E-02-1.63901E-02 0.00000E+00
 -1        61 5.57613E-02-1.44850E-02 0.00000E+00
 -1        62 4.55069E-02-1.26322E-02 0.00000E+00
 -1        63 3.61705E-02-1.09127E-02 0.00000E+00
 -1        64 2.77237E-02-9.33749E-03 0.00000E+00
 -1        65 2.01629E-02-7.85698E-03 0.00000E+00
 -1        66 1.35684E-02-6.40471E-03 0.00000E+00
 -1        67 8.09025E-03-4.92602E-03 0.00000E+00
 -1        68 3.89562E-03-3.38299E-03 0.00000E+00
 -1        69 1.25504E-03-1.70855E-03 0.00000E+00
 -1        70 1.76188E-01-2.98606E-02 0.00000E+00
 -1        71 1.64265E-01-2.85009E-02 0.00000E+00
 -1        72 1.52252E-01-2.71597E-02 0.00000E+00
 -1        73 1.40138E-01-2.58126E-02 0.00000E+00
 -1        74 1.27922E-01-2.44445E-02 0.00000E+00
 -1        75 1.15611E-01-2.30363E-02 0.00000E+00
 -1        76 1.03229E-01-2.15567E-02 0.00000E+00
 -1        77 9.08602E-02-1.99677E-02 0.00000E+00
 -1        78 7.86633E-02-1.82412E-02 0.00000E+00
 -1        79 6.68768E-02-1.63901E-02 0.00000E+00
 -1        80 5.57613E-02-1.44850E-02 0.00000E+00
 -1        81 4.55069E-02-1.26322E-02 0.00000E+00
 -1        82 3.61705E-02-1.09127E-02 0.00000E+00
 -1        83 2.77237E-02-9.33749E-03 0.00000E+00
 -1        84 2.01629E-02-7.85698E-03 0.00000E+00
 -1        85 1.35684E-02-6.40471E-03 0.00000E+00
 -1        86 8.09025E-03-4.92602E-03 0.00000E+00
 -1        87 3.89562E-03-3.38299E-03 0.00000E+00
 -1        88 1.25504E-03-1.70855E-03 0.00000E+00
 -1        89 8.84082E-04 3.55310E-05 0.00000E+00
 -1        90 3.74393E-03 3.02230E-05 0.00000E+00
 -1        91 8.08087E-03-8.23843E-05 0.00000E+00
 -1        92 1.37345E-02-3.23682E-04 0.00000E+00
 -1        93 2.05012E-02-6.99788E-04 0.00000E+00
 -1        94 2.82280E-02-1.21278E-03 0.00000E+00
 -1        95 3.68394E-02-1.87179E-03 0.00000E+00
 -1        96 4.63525E-02-2.69940E-03 0.00000E+00
 -1        97 5.68006E-02-3.72009E-03 0.00000E+00
 -1        98 6.81084E-02-4.93544E-03 0.00000E+00
 -1        99 8.00564E-02-6.30799E-03 0.00000E+00
 -1       100 9.23617E-02-7.77380E-03 0.00000E+00
 -1       101 1.04784E-01-9.27276E-03 0.00000E+00
 -1       102 1.17177E-01-1.07679E-02 0.00000E+00
 -1       103 1.29478E-01-1.22437E-02 0.00000E+00
 -1       104 1.41671E-01-1.36980E-02 0.00000E+00
 -1       105 1.53759E-01-1.51333E-02 0.00000E+00
 -1       106 1.65743E-01-1.65513E-02 0.00000E+00
 -1       107 1.77642E-01-1.79581E-02 0.00000E+00
 -1       108 1.77642E-01-1.79581E-02 0.00000E+00
 -1       109 1.65743E-01-1.65513E-02 0.00000E+00
 -1       110 1.53759E-01-1.51333E-02 0.00000E+00
 -1       111 1.41671E-01-1.36980E-02 0.00000E+00
 -1       112 1.29478E-01-1.22437E-02 0.00000E+00
 -1       113 1.17177E-01-1.07679E-02 0.00000E+00
 -1       114 1.04784E-01-9.27276E-03 0.00000E+00
 -1       115 9.23617E-02-7.77380E-03 0.00000E+00
 -1       116 8.00564E-02-6.30799E-03 0.00000E+00
 -1       117 6.81084E-02-4.93544E-03 0.00000E+00
 -1       118 5.68006E-02-3.72009E-03 0.00000E+00
 -1       119 4.63525E-02-2.69940E-03 0.00000E+00
 -1       120 3.68394E-02-1.87179E-03 0.00000E+00
 -1       121 2.82280E-02-1.21278E-03 0.00000E+00
 -1       122 2.05012E-02-6.99788E-04 0.00000E+00
 -1       123 1.37345E-02-3.23682E-04 0.00000E+00
 -1       124 8.08087E-03-8.23843E-05 0.00000E+00
 -1       125 3.74393E-03 3.02230E-05 0.00000E+00
 -1       126 8.84082E-04 3.55310E-05 0.00000E+00
 -3
    1PSTEP                       226          57           1          
  100CL  157 5.70000E-01         126                     1   57           1
 -4  STRESS      6    1
 -5  SXX         1    4    1    1
 -5  SYY         1    4    2    2
 -5  SZZ         1    4    3    3
 -5  SXY         1    4    1    2
 -5  SYZ         1    4    2    3
 -5  SZX         1    4    3    1
 -1         1 8.31955E+03 2.00531E+04 8.11912E+03 4.84051E+03-1.22241E-10-7.89343E-11
 -1         2 8.31955E+03 2.00531E+04 8.11912E+03 4.84051E+03-1.22241E-10-7.89343E-11
 -1         3-6.08618E+01-2.06969E+01-2.44656E+01-3.19737E+01-2.20125E-10-1.62398E-07
 -1         4-6.08618E+01-2.06969E+01-2.44656E+01-3.19737E+01-2.19385E-10-1.62399E-07
 -1         5 7.40952E+01 3.03013E+02 1.13033E+02 8.98473E+00 7.18031E-08-1.61114E-07
 -1         6 7.40952E+01 3.03013E+02 1.13033E+02 8.98473E+00 7.18031E-08-1.61141E-07
 -1         7-7.80331E+03-1.75452E+04-7.94854E+03 3.45725E+03-6.36278E-11 4.19943E-12
 -1         8-7.80331E+03-1.75452E+04-7.94854E+03 3.45725E+03-6.36278E-11 4.19552E-12
 -1         9 1.65299E+01 1.82560E+02 5.96900E+01-1.95755E+01 3.47196E-08-1.52829E-07
 -1        10 1.65299E+01 1.82560E+02 5.96900E+01-1.95755E+01 3.47182E-08-1.52821E-07
 -1        11 2.47993E+02 2.16474E+02 1.99956E+02 2.71749E+03-1.04773E-10-2.24199E-11
 -1        12 2.47993E+02 2.16474E+02 1.99956E+02 2.71749E+03-1.04773E-10-2.24126E-11
 -1        13 2.83455E+03 1.72541E+04 5.75658E+03 1.50149E+03 2.51143E-09-2.21855E-08
 -1        14 3.52557E+03 1.60763E+04 5.63687E+03 1.26091E+03 6.12547E-09-1.21556E-08
 -1        15 3.05446E+03 1.39279E+04 4.90768E+03 1.51588E+03 1.30374E-08-2.37892E-08
 -1        16 2.76885E+03 1.21825E+04 4.33947E+03 1.54243E+03 1.98618E-08 5.27969E-09
 -1        17 2.49653E+03 1.08217E+04 3.87865E+03 1.50422E+03 1.83234E-08 5.76692E-08
 -1        18 2.29916E+03 9.99993E+03 3.58900E+03 1.45578E+03 6.78961E-09 1.12251E-07
 -1        19 2.26032E+03 9.59952E+03 3.46345E+03 1.48744E+03-1.21576E-08 1.60639E-07
 -1        20 2.22439E+03 9.09709E+03 3.30858E+03 1.62055E+03-3.50305E-08 1.74176E-07
 -1        21 2.08812E+03 7.99158E+03 2.95224E+03 1.71266E+03-7.05955E-08 1.75890E-07
 -1        22 1.73666E+03 6.17652E+03 2.32764E+03 1.59986E+03-9.42039E-08 9.76746E-08
 -1        23 1.25461E+03 4.06804E+03 1.57426E+03 1.25854E+03-8.46054E-08-2.49421E-08
 -1        24 6.95128E+02 2.16432E+03 8.50040E+02 8.28463E+02-5.49354E-08-9.40050E-08
 -1        25 2.33384E+02 8.11928E+02 3.11798E+02 4.45778E+02-2.12890E-08-1.31502E-07
 -1        26-8.41127E+01 2.74045E+01-1.72722E+01 1.81824E+02 8.16954E-09-1.46622E-07
 -1        27-2.16044E+02-3.27319E+02-1.63078E+02 2.84135E+01 3.15959E-08-1.32858E-07
 -1        28-2.68949E+02-4.67800E+02-2.21153E+02-4.17024E+01 3.74639E-08-1.17018E-07
 -1        29-2.67912E+02-4.76967E+02-2.23627E+02-7.78578E+01 2.44637E-08-9.87859E-08
 -1        30-2.39040E+02-3.57062E+02-1.78960E+02-9.15168E+01 5.81565E-10-7.83725E-08
 -1        31-1.44162E+02-1.40606E+02-8.54556E+01-6.41852E+01-3.18658E-09-1.25311E-07
 -1        32 2.83455E+03 1.72541E+04 5.75658E+03 1.50149E+03 2.51143E-09-2.21855E-08
 -1        33 3.52557E+03 1.60763E+04 5.63687E+03 1.26091E+03 6.12546E-09-1.21556E-08
 -1        34 3.05446E+03 1.39279E+04 4.90768E+03 1.51588E+03 1.30374E-08-2.37892E-08
 -1        35 2.76885E+03 1.21825E+04 4.33947E+03 1.54243E+03 1.98618E-08 5.27936E-09
 -1        36 2.49653E+03 1.08217E+04 3.87865E+03 1.50422E+03 1.83234E-08 5.76697E-08
 -1        37 2.29916E+03 9.99993E+03 3.58900E+03 1.45578E+03 6.78925E-09 1.12250E-07
 -1        38 2.26032E+03 9.59952E+03 3.46345E+03 1.48744E+03-1.21575E-08 1.60639E-07
 -1        39 2.22439E+03 9.09709E+03 3.30858E+03 1.62055E+03-3.50304E-08 1.74176E-07
 -1        40 2.08812E+03 7.99158E+03 2.95224E+03 1.71266E+03-7.05955E-08 1.75890E-07
 -1        41 1.73666E+03 6.17652E+03 2.32764E+03 1.59986E+03-9.42039E-08 9.76746E-08
 -1        42 1.25461E+03 4.06804E+03 1.57426E+03 1.25854E+03-8.46053E-08-2.49445E-08
 -1        43 6.95128E+02 2.16432E+03 8.50040E+02 8.28463E+02-5.49357E-08-9.40008E-08
 -1        44 2.33384E+02 8.11928E+02 3.11798E+02 4.45778E+02-2.12891E-08-1.31503E-07
 -1        45-8.41127E+01 2.74045E+01-1.72722E+01 1.81824E+02 8.16997E-09-1.46623E-07
 -1        46-2.16044E+02-3.27319E+02-1.63078E+02 2.84135E+01 3.15961E-08-1.32858E-07
 -1        47-2.68949E+02-4.67800E+02-2.21153E+02-4.17024E+01 3.74638E-08-1.17017E-07
 -1        48-2.67912E+02-4.76967E+02-2.23627E+02-7.78578E+01 2.44637E-08-9.88000E-08
 -1        49-2.39040E+02-3.57062E+02-1.78960E+02-9.15168E+01 5.82195E-10-7.83575E-08
 -1        50-1.44162E+02-1.40606E+02-8.54556E+01-6.41852E+01-3.18724E-09-1.25327E-07
 -1        51 8.69382E+01 5.15055E+02 1.80218E+02 6.10235E+01 5.10534E-08-9.43332E-08
 -1        52 1.79518E+02 9.20217E+02 3.28855E+02 1.49162E+02 2.41948E-08-8.76312E-08
 -1        53 2.49659E+02 1.16776E+03 4.23530E+02 2.32123E+02 1.92587E-09-9.13827E-08
 -1        54 2.73192E+02 1.25082E+03 4.55202E+02 2.83166E+02 9.62813E-09-1.09686E-07
 -1        55 2.57305E+02 1.16629E+03 4.25185E+02 3.14179E+02 3.02872E-08-1.43513E-07
 -1        56 1.90041E+02 8.05251E+02 2.97340E+02 3.26830E+02 4.30841E-08-1.40454E-07
 -1        57 3.25590E-01-1.46912E+01-4.86419E+00 2.88336E+02 5.50806E-08-1.17557E-07
 -1        58-3.42620E+02-1.40250E+03-5.25829E+02 1.47724E+02 6.75963E-08-5.16747E-08
 -1        59-8.45998E+02-3.26774E+03-1.24490E+03-1.15013E+02 6.20542E-08 3.45961E-08
 -1        60-1.43168E+03-5.22805E+03-2.02558E+03-4.57952E+02 2.85197E-08 1.21816E-07
 -1        61-1.94613E+03-6.76744E+03-2.66090E+03-7.77217E+02-2.19608E-08 1.79201E-07
 -1        62-2.24747E+03-7.60212E+03-3.01376E+03-9.62213E+02-5.86817E-08 1.77051E-07
 -1        63-2.36047E+03-7.95099E+03-3.15652E+03-9.67245E+02-7.00427E-08 1.35868E-07
 -1        64-2.42336E+03-8.33224E+03-3.29460E+03-8.51949E+02-7.22107E-08 1.09456E-07
 -1        65-2.56790E+03-9.14034E+03-3.59429E+03-7.14610E+02-6.17517E-08 5.51791E-08
 -1        66-2.85484E+03-1.04531E+04-4.10097E+03-5.99412E+02-4.07975E-08 1.05664E-08
 -1        67-3.21250E+03-1.21016E+04-4.74168E+03-4.55129E+02-2.34908E-08-9.22472E-09
 -1        68-3.93931E+03-1.41702E+04-5.63892E+03-3.38439E+02-1.41581E-08-1.45164E-08
 -1        69-3.20585E+03-1.52237E+04-5.76431E+03 3.75958E+02-5.23299E-09-1.14935E-08
 -1        70 8.69382E+01 5.15055E+02 1.80218E+02 6.10235E+01 5.10521E-08-9.43276E-08
 -1        71 1.79518E+02 9.20217E+02 3.28855E+02 1.49162E+02 2.41934E-08-8.76271E-08
 -1        72 2.49659E+02 1.16776E+03 4.23530E+02 2.32123E+02 1.92642E-09-9.13846E-08
 -1        73 2.73192E+02 1.25082E+03 4.55202E+02 2.83166E+02 9.62634E-09-1.09686E-07
 -1        74 2.57305E+02 1.16629E+03 4.25185E+02 3.14179E+02 3.02880E-08-1.43513E-07
 -1        75 1.90041E+02 8.05251E+02 2.97340E+02 3.26830E+02 4.30840E-08-1.40454E-07
 -1        76 3.25589E-01-1.46912E+01-4.86419E+00 2.88336E+02 5.50805E-08-1.17550E-07
 -1        77-3.42620E+02-1.40250E+03-5.25829E+02 1.47724E+02 6.75937E-08-5.16810E-08
 -1        78-8.45998E+02-3.26774E+03-1.24490E+03-1.15013E+02 6.20563E-08 3.45892E-08
 -1        79-1.43168E+03-5.22805E+03-2.02558E+03-4.57952E+02 2.85214E-08 1.21816E-07
 -1        80-1.94613E+03-6.76744E+03-2.66090E+03-7.77217E+02-2.19613E-08 1.79201E-07
 -1        81-2.24747E+03-7.60212E+03-3.01376E+03-9.62213E+02-5.86816E-08 1.77051E-07
 -1        82-2.36047E+03-7.95099E+03-3.15652E+03-9.67245E+02-7.00428E-08 1.35868E-07
 -1        83-2.42336E+03-8.33224E+03-3.29460E+03-8.51949E+02-7.22114E-08 1.09452E-07
 -1        84-2.56790E+03-9.14034E+03-3.59429E+03-7.14610E+02-6.17517E-08 5.51822E-08
 -1        85-2.85484E+03-1.04531E+04-4.10097E+03-5.99412E+02-4.07971E-08 1.05659E-08
 -1        86-3.21250E+03-1.21016E+04-4.74168E+03-4.55129E+02-2.34909E-08-9.22452E-09
 -1        87-3.93931E+03-1.41702E+04-5.63892E+03-3.38439E+02-1.41581E-08-1.45164E-08
 -1        88-3.20585E+03-1.52237E+04-5.76431E+03 3.75958E+02-5.23299E-09-1.14935E-08
 -1        89-7.95730E+01 1.42056E+02 3.83911E+01 4.07385E+02-2.14558E-09-1.81076E-08
 -1        90-4.89468E+01 2.89685E+02 1.02980E+02 6.51400E+02-3.87745E-09-1.68450E-08
 -1        91 7.84195E+00 3.50761E+02 1.28478E+02 5.75975E+02-6.53655E-09-1.99690E-08
 -1        92 2.50730E+01 4.19649E+02 1.50004E+02 5.18230E+02-1.33767E-08 5.90226E-09
 -1        93 1.59646E+01 4.99386E+02 1.67970E+02 4.08214E+02-2.37760E-08 5.52978E-08
 -1        94-2.23723E+01 5.56717E+02 1.71598E+02 2.86186E+02-3.85032E-08 1.07648E-07
 -1        95-1.73080E+01 5.73906E+02 1.76539E+02 2.29311E+02-4.37787E-08 1.50752E-07
 -1        96 2.83718E+01 5.14510E+02 1.70154E+02 3.15954E+02-4.63411E-08 1.79755E-07
 -1        97 1.29722E+02 4.08981E+02 1.66349E+02 5.05341E+02-4.88026E-08 1.86434E-07
 -1        98 2.24992E+02 3.09711E+02 1.62711E+02 6.63091E+02-3.05686E-08 1.19273E-07
 -1        99 2.73881E+02 2.78490E+02 1.66175E+02 6.86722E+02-7.63368E-09 8.45761E-09
 -1       100 2.30108E+02 3.04925E+02 1.59963E+02 5.86534E+02 5.94610E-09-7.97719E-08
 -1       101 1.51909E+02 3.60145E+02 1.52889E+02 4.31247E+02 1.62382E-08-1.26534E-07
 -1       102 7.33603E+01 4.00144E+02 1.41520E+02 2.88966E+02 2.76148E-08-1.48648E-07
 -1       103 3.14142E+01 4.14389E+02 1.33421E+02 1.86757E+02 3.65931E-08-1.38692E-07
 -1       104 5.26222E+00 3.91830E+02 1.18945E+02 1.22721E+02 2.86046E-08-1.15661E-07
 -1       105-1.07488E+01 3.51510E+02 1.02107E+02 6.97498E+01 9.95450E-09-9.10904E-08
 -1       106-3.32184E+01 2.98148E+02 7.93857E+01 1.40973E+01 9.51056E-09-7.90602E-08
 -1       107-2.52560E+01 2.19120E+02 5.81162E+01-1.41130E+01 2.39157E-08-1.11870E-07
 -1       108-2.52560E+01 2.19120E+02 5.81162E+01-1.41130E+01 2.39156E-08-1.11884E-07
 -1       109-3.32184E+01 2.98148E+02 7.93857E+01 1.40973E+01 9.51074E-09-7.90649E-08
 -1       110-1.07488E+01 3.51510E+02 1.02107E+02 6.97498E+01 9.95408E-09-9.10801E-08
 -1       111 5.26222E+00 3.91830E+02 1.18945E+02 1.22721E+02 2.86050E-08-1.15663E-07
 -1       112 3.14142E+01 4.14389E+02 1.33421E+02 1.86757E+02 3.65920E-08-1.38692E-07
 -1       113 7.33603E+01 4.00144E+02 1.41520E+02 2.88966E+02 2.76149E-08-1.48648E-07
 -1       114 1.51909E+02 3.60145E+02 1.52889E+02 4.31247E+02 1.62386E-08-1.26530E-07
 -1       115 2.30108E+02 3.04925E+02 1.59963E+02 5.86534E+02 5.94683E-09-7.97792E-08
 -1       116 2.73881E+02 2.78490E+02 1.66175E+02 6.86722E+02-7.63399E-09 8.46310E-09
 -1       117 2.24992E+02 3.09711E+02 1.62711E+02 6.63091E+02-3.05689E-08 1.19273E-07
 -1       118 1.29722E+02 4.08981E+02 1.66349E+02 5.05341E+02-4.88025E-08 1.86434E-07
 -1       119 2.83718E+01 5.14510E+02 1.70154E+02 3.15954E+02-4.63412E-08 1.79755E-07
 -1       120-1.73080E+01 5.73906E+02 1.76539E+02 2.29311E+02-4.37786E-08 1.50752E-07
 -1       121-2.23723E+01 5.56717E+02 1.71598E+02 2.86186E+02-3.85031E-08 1.07650E-07
 -1       122 1.59646E+01 4.99386E+02 1.67970E+02 4.08214E+02-2.37761E-08 5.52966E-08
 -1       123 2.50730E+01 4.19649E+02 1.50004E+02 5.18230E+02-1.33768E-08 5.90284E-09
 -1       124 7.84195E+00 3.50761E+02 1.28478E+02 5.75975E+02-6.53659E-09-1.99689E-08
 -1       125-4.89468E+01 2.89685E+02 1.02980E+02 6.51400E+02-3.87744E-09-1.68451E-08
 -1       126-7.95730E+01 1.42056E+02 3.83911E+01 4.07385E+02-2.14557E-09-1.81076E-08
 -3
    1PSTEP                       227          57           1          
  100CL  157 5.70000E-01         126                     1   57           1
 -4  TOSTRAIN    6    1
 -5  EXX         1    4    1    1
 -5  EYY         1    4    2    2
 -5  EZZ         1    4    3    3
 -5  EXY         1    4    1    2
 -5  EYZ         1    4    2    3
 -5  EZX         1    4    3    1
 -1         1-1.09540E-04 3.63240E-02-1.75264E-27 1.41481E-02-5.13308E-20-7.82787E-17
 -1         2-1.09540E-04 3.63240E-02-1.75264E-27 1.41481E-02-5.13308E-20-7.82787E-17
 -1         3-6.30237E-05-4.30071E-05 5.48036E-25-1.22332E-04-1.26106E-13-5.12599E-13
 -1         4-6.30237E-05-4.30071E-05 5.48045E-25-1.22332E-04-1.26104E-13-5.12605E-13
 -1         5-9.79939E-05 5.88027E-04 6.35252E-25-1.45696E-04 1.02012E-13-5.64000E-13
 -1         6-9.79939E-05 5.88027E-04 6.35417E-25-1.45696E-04 1.01992E-13-5.64083E-13
 -1         7-1.06113E-04-3.33773E-02-5.32929E-28 1.25503E-02 1.91710E-19-5.81427E-17
 -1         8-1.06113E-04-3.33773E-02-5.32926E-28 1.25503E-02 1.91468E-19-5.81553E-17
 -1         9-8.05088E-05 3.39211E-04 5.08042E-25-1.80828E-04-8.47497E-15-5.09259E-13
 -1        10-8.05088E-05 3.39211E-04 5.07999E-25-1.80828E-04-8.47363E-15-5.09234E-13
 -1        11-1.07826E-04 7.59303E-04-1.14240E-27 8.84068E-03 1.49193E-19-5.22657E-17
 -1        12-1.07826E-04 7.59303E-04-1.14240E-27 8.84068E-03 1.49645E-19-5.22421E-17
 -1        13-1.00555E-02 3.54142E-02 9.47031E-27 2.99428E-03 5.59507E-15-7.20198E-14
 -1        14-7.51281E-03 3.23784E-02 3.04557E-27 1.20712E-03 1.67099E-14-4.05154E-14
 -1        15-6.84691E-03 2.84462E-02 1.23916E-26 1.35757E-03 3.37478E-14-8.07746E-14
 -1        16-6.01414E-03 2.50813E-02-1.87328E-27 1.12244E-03 6.41124E-14 9.01321E-15
 -1        17-5.43713E-03 2.24555E-02 5.99115E-26 8.25426E-04 8.32563E-14 1.76218E-13
 -1        18-5.14458E-03 2.08773E-02 2.49878E-25 4.58663E-04 7.87931E-14 3.55189E-13
 -1        19-4.94790E-03 2.01244E-02 5.40618E-25 2.76291E-04 5.39110E-14 5.19015E-13
 -1        20-4.79504E-03 1.92856E-02 6.66405E-25 4.95193E-04 5.08594E-16 5.75681E-13
 -1        21-4.34783E-03 1.72647E-02 7.46893E-25 9.93251E-04-9.91196E-14 6.06205E-13
 -1        22-3.53733E-03 1.37041E-02 3.33611E-25 1.40372E-03-2.21454E-13 3.78886E-13
 -1        23-2.43896E-03 9.30098E-03 9.77104E-26 1.47682E-03-2.82879E-13-1.24155E-14
 -1        24-1.50206E-03 5.19935E-03 2.19362E-25 1.22640E-03-2.45966E-13-2.52087E-13
 -1        25-8.34902E-04 2.18883E-03 3.63021E-25 8.19963E-04-1.71609E-13-3.97055E-13
 -1        26-4.78619E-04 4.03969E-04 4.51724E-25 4.32310E-04-9.12035E-14-4.68620E-13
 -1        27-2.38775E-04-4.67764E-04 3.92743E-25 1.66977E-04-5.83936E-15-4.44053E-13
 -1        28-1.30744E-04-8.27217E-04 3.17825E-25 3.24068E-05 2.59705E-14-3.98722E-13
 -1        29-6.61381E-05-9.02487E-04 2.15709E-25-6.52009E-05-7.72514E-17-3.30929E-13
 -1        30-8.00134E-05-6.95168E-04 1.24385E-25-1.74598E-04-5.91023E-14-2.47917E-13
 -1        31-9.39500E-05-2.76276E-04 3.22953E-25-1.87754E-04-1.07023E-13-3.93245E-13
 -1        32-1.00555E-02 3.54142E-02 9.47031E-27 2.99428E-03 5.59508E-15-7.20198E-14
 -1        33-7.51281E-03 3.23784E-02 3.04557E-27 1.20712E-03 1.67099E-14-4.05154E-14
 -1        34-6.84691E-03 2.84462E-02 1.23916E-26 1.35757E-03 3.37478E-14-8.07748E-14
 -1        35-6.01414E-03 2.50813E-02-1.87353E-27 1.12244E-03 6.41123E-14 9.01214E-15
 -1        36-5.43713E-03 2.24555E-02 5.99127E-26 8.25426E-04 8.32567E-14 1.76219E-13
 -1        37-5.14458E-03 2.08773E-02 2.49878E-25 4.58663E-04 7.87918E-14 3.55189E-13
 -1        38-4.94790E-03 2.01244E-02 5.40613E-25 2.76291E-04 5.39108E-14 5.19012E-13
 -1        39-4.79504E-03 1.92856E-02 6.66405E-25 4.95193E-04 5.08767E-16 5.75681E-13
 -1        40-4.34783E-03 1.72647E-02 7.46893E-25 9.93251E-04-9.91196E-14 6.06205E-13
 -1        41-3.53733E-03 1.37041E-02 3.33611E-25 1.40372E-03-2.21454E-13 3.78886E-13
 -1        42-2.43896E-03 9.30098E-03 9.77130E-26 1.47682E-03-2.82881E-13-1.24230E-14
 -1        43-1.50206E-03 5.19935E-03 2.19349E-25 1.22640E-03-2.45963E-13-2.52074E-13
 -1        44-8.34902E-04 2.18883E-03 3.63021E-25 8.19963E-04-1.71610E-13-3.97057E-13
 -1        45-4.78619E-04 4.03969E-04 4.51727E-25 4.32310E-04-9.12026E-14-4.68622E-13
 -1        46-2.38775E-04-4.67764E-04 3.92743E-25 1.66977E-04-5.83863E-15-4.44053E-13
 -1        47-1.30744E-04-8.27217E-04 3.17821E-25 3.24068E-05 2.59711E-14-3.98718E-13
 -1        48-6.61381E-05-9.02487E-04 2.15765E-25-6.52009E-05-8.82075E-17-3.30973E-13
 -1        49-8.00134E-05-6.95168E-04 1.24324E-25-1.74598E-04-5.90887E-14-2.47870E-13
 -1        50-9.39500E-05-2.76276E-04 3.23025E-25-1.87754E-04-1.07037E-13-3.93294E-13
 -1        51-3.16190E-04 1.09790E-03 2.29880E-25-1.45597E-04 8.80228E-14-3.37225E-13
 -1        52-5.73766E-04 2.00067E-03 1.71897E-25-1.29221E-04 8.23544E-15-2.95302E-13
 -1        53-7.46133E-04 2.58432E-03 1.74995E-25-3.00981E-05-6.51871E-14-2.89719E-13
 -1        54-8.39349E-04 2.81523E-03 2.51646E-25 6.40099E-05-5.58726E-14-3.53359E-13
 -1        55-8.54928E-04 2.70039E-03 4.52150E-25 1.98250E-04-1.83829E-14-4.76290E-13
 -1        56-7.35977E-04 2.02621E-03 4.54591E-25 4.56156E-04 2.35968E-14-4.76943E-13
 -1        57-4.35667E-04 4.15402E-04 3.42754E-25 8.35440E-04 7.95900E-14-4.14648E-13
 -1        58 1.56016E-04-2.42936E-03 1.17304E-25 1.24551E-03 1.72687E-13-2.17078E-13
 -1        59 1.00055E-03-6.37231E-03 6.07122E-26 1.51242E-03 2.24629E-13 6.05399E-14
 -1        60 1.89989E-03-1.06215E-02 2.94103E-25 1.44554E-03 1.83455E-13 3.64594E-13
 -1        61 2.58509E-03-1.40219E-02 6.73274E-25 1.02395E-03 5.64303E-14 5.85776E-13
 -1        62 2.93730E-03-1.58775E-02 7.30083E-25 5.17057E-04-7.46582E-14 6.03808E-13
 -1        63 3.03252E-03-1.65797E-02 4.89532E-25 2.96304E-04-1.47716E-13 4.77134E-13
 -1        64 3.13570E-03-1.72688E-02 3.57922E-25 4.66559E-04-1.78302E-13 3.90579E-13
 -1        65 3.46523E-03-1.88678E-02 1.35578E-25 8.24709E-04-1.77826E-13 2.07178E-13
 -1        66 4.03252E-03-2.15757E-02 3.24863E-26 1.13456E-03-1.31455E-13 5.06071E-14
 -1        67 4.81908E-03-2.50599E-02 1.19121E-26 1.39994E-03-8.16698E-14-2.24376E-14
 -1        68 5.28648E-03-2.92805E-02 8.46793E-27 1.24569E-03-5.10387E-14-4.40771E-14
 -1        69 7.95468E-03-3.25023E-02 2.77589E-27 2.77174E-03-1.89453E-14-3.68437E-14
 -1        70-3.16190E-04 1.09790E-03 2.29846E-25-1.45597E-04 8.80231E-14-3.37206E-13
 -1        71-5.73766E-04 2.00067E-03 1.71883E-25-1.29221E-04 8.23418E-15-2.95288E-13
 -1        72-7.46133E-04 2.58432E-03 1.75003E-25-3.00981E-05-6.51869E-14-2.89725E-13
 -1        73-8.39349E-04 2.81523E-03 2.51644E-25 6.40099E-05-5.58781E-14-3.53357E-13
 -1        74-8.54928E-04 2.70039E-03 4.52149E-25 1.98250E-04-1.83803E-14-4.76290E-13
 -1        75-7.35977E-04 2.02621E-03 4.54591E-25 4.56156E-04 2.35966E-14-4.76943E-13
 -1        76-4.35667E-04 4.15402E-04 3.42725E-25 8.35440E-04 7.95949E-14-4.14628E-13
 -1        77 1.56016E-04-2.42936E-03 1.17318E-25 1.24551E-03 1.72674E-13-2.17095E-13
 -1        78 1.00055E-03-6.37231E-03 6.07098E-26 1.51242E-03 2.24630E-13 6.05164E-14
 -1        79 1.89989E-03-1.06215E-02 2.94103E-25 1.44554E-03 1.83461E-13 3.64593E-13
 -1        80 2.58509E-03-1.40219E-02 6.73275E-25 1.02395E-03 5.64289E-14 5.85777E-13
 -1        81 2.93730E-03-1.58775E-02 7.30083E-25 5.17057E-04-7.46582E-14 6.03808E-13
 -1        82 3.03252E-03-1.65797E-02 4.89533E-25 2.96304E-04-1.47717E-13 4.77135E-13
 -1        83 3.13570E-03-1.72688E-02 3.57909E-25 4.66559E-04-1.78306E-13 3.90568E-13
 -1        84 3.46523E-03-1.88678E-02 1.35587E-25 8.24709E-04-1.77824E-13 2.07188E-13
 -1        85 4.03252E-03-2.15757E-02 3.24848E-26 1.13456E-03-1.31454E-13 5.06054E-14
 -1        86 4.81908E-03-2.50599E-02 1.19121E-26 1.39994E-03-8.16700E-14-2.24369E-14
 -1        87 5.28648E-03-2.92805E-02 8.46792E-27 1.24569E-03-5.10387E-14-4.40771E-14
 -1        88 7.95468E-03-3.25023E-02 2.77588E-27 2.77174E-03-1.89453E-14-3.68437E-14
 -1        89-1.05043E-03 1.09866E-03 6.30172E-27 1.28980E-03-8.74263E-15-5.86265E-14
 -1        90-1.11317E-03 1.44109E-03 5.85502E-27 2.01631E-03-1.59862E-14-5.37323E-14
 -1        91-1.01391E-03 1.48542E-03 6.57290E-27 1.72255E-03-2.71159E-14-6.25634E-14
 -1        92-9.90812E-04 1.57559E-03-4.64012E-27 1.47384E-03-4.06561E-14 2.43926E-14
 -1        93-9.85951E-04 1.66304E-03 6.12776E-26 1.04587E-03-5.06515E-14 1.89079E-13
 -1        94-1.00444E-03 1.70527E-03 2.62755E-25 5.77833E-04-6.65681E-14 3.65759E-13
 -1        95-9.57688E-04 1.68326E-03 5.13880E-25 3.54772E-04-5.14287E-14 5.07887E-13
 -1        96-9.28866E-04 1.63028E-03 7.28452E-25 6.37089E-04-3.18700E-14 6.02761E-13
 -1        97-8.81371E-04 1.57372E-03 7.76846E-25 1.29540E-03-2.48419E-14 6.26185E-13
 -1        98-8.18721E-04 1.50625E-03 2.76707E-25 1.86116E-03-8.12753E-15 4.00290E-13
 -1        99-7.19207E-04 1.43159E-03-5.54540E-26 1.96701E-03-1.75627E-14 3.26663E-14
 -1       100-6.73020E-04 1.36431E-03 1.02558E-25 1.61602E-03-4.44310E-14-2.56091E-13
 -1       101-6.35285E-04 1.29790E-03 3.34006E-25 1.06714E-03-4.98358E-14-4.11609E-13
 -1       102-6.07298E-04 1.22077E-03 4.81271E-25 5.71157E-04-3.15553E-14-4.90464E-13
 -1       103-5.46852E-04 1.12501E-03 4.33982E-25 2.39022E-04 5.26096E-15-4.66265E-13
 -1       104-4.85047E-04 1.00032E-03 2.96875E-25 5.61911E-05-9.40339E-16-3.87305E-13
 -1       105-4.06136E-04 8.48407E-04 1.75284E-25-7.45076E-05-3.97981E-14-2.95184E-13
 -1       106-3.26890E-04 6.70762E-04 1.31318E-25-2.09131E-04-3.13833E-14-2.56940E-13
 -1       107-2.05070E-04 4.56889E-04 2.68105E-25-2.24024E-04-1.10470E-14-3.71662E-13
 -1       108-2.05070E-04 4.56889E-04 2.68171E-25-2.24024E-04-1.10581E-14-3.71706E-13
 -1       109-3.26890E-04 6.70762E-04 1.31334E-25-2.09131E-04-3.13865E-14-2.56955E-13
 -1       110-4.06136E-04 8.48407E-04 1.75242E-25-7.45076E-05-3.97914E-14-2.95152E-13
 -1       111-4.85047E-04 1.00032E-03 2.96885E-25 5.61911E-05-9.40603E-16-3.87312E-13
 -1       112-5.46852E-04 1.12501E-03 4.33983E-25 2.39022E-04 5.25720E-15-4.66266E-13
 -1       113-6.07298E-04 1.22077E-03 4.81271E-25 5.71157E-04-3.15549E-14-4.90464E-13
 -1       114-6.35285E-04 1.29790E-03 3.33988E-25 1.06714E-03-4.98315E-14-4.11597E-13
 -1       115-6.73020E-04 1.36431E-03 1.02581E-25 1.61602E-03-4.44345E-14-2.56115E-13
 -1       116-7.19207E-04 1.43159E-03-5.54586E-26 1.96701E-03-1.75595E-14 3.26839E-14
 -1       117-8.18721E-04 1.50625E-03 2.76708E-25 1.86116E-03-8.12821E-15 4.00290E-13
 -1       118-8.81371E-04 1.57372E-03 7.76844E-25 1.29540E-03-2.48419E-14 6.26184E-13
 -1       119-9.28866E-04 1.63028E-03 7.28452E-25 6.37089E-04-3.18704E-14 6.02761E-13
 -1       120-9.57688E-04 1.68326E-03 5.13879E-25 3.54772E-04-5.14283E-14 5.07886E-13
 -1       121-1.00444E-03 1.70527E-03 2.62762E-25 5.77833E-04-6.65669E-14 3.65764E-13
 -1       122-9.85951E-04 1.66304E-03 6.12745E-26 1.04587E-03-5.06524E-14 1.89076E-13
 -1       123-9.90812E-04 1.57559E-03-4.63946E-27 1.47384E-03-4.06561E-14 2.43945E-14
 -1       124-1.01391E-03 1.48542E-03 6.57284E-27 1.72255E-03-2.71160E-14-6.25631E-14
 -1       125-1.11317E-03 1.44109E-03 5.85504E-27 2.01631E-03-1.59862E-14-5.37323E-14
 -1       126-1.05043E-03 1.09866E-03 6.30174E-27 1.28980E-03-8.74261E-15-5.86266E-14
 -3
    1PSTEP                       228          57           1          
  100CL  157 5.70000E-01         126                     1   57           1
 -4  ERROR       1    1
 -5  STR(%)      1    1    0    0
 -1         1 6.15551E+01
 -1         2 6.15551E+01
 -1         3 5.61199E+01
 -1         4 5.61199E+01
 -1         5 1.69262E+01
 -1         6 1.69262E+01
 -1         7 6.25434E+01
 -1         8 6.25434E+01
 -1         9 5.61199E+01
 -1        10 5.61199E+01
 -1        11 6.25434E+01
 -1        12 6.25434E+01
 -1        13 6.15551E+01
 -1        14 5.91504E+01
 -1        15 5.88545E+01
 -1        16 5.80482E+01
 -1        17 5.70223E+01
 -1        18 5.59240E+01
 -1        19 5.48856E+01
 -1        20 5.54301E+01
 -1        21 5.54301E+01
 -1        22 5.51165E+01
 -1        23 5.16629E+01
 -1        24 4.34199E+01
 -1        25 2.45522E+01
 -1        26 8.34082E+01
 -1        27 1.05727E+02
 -1        28 1.05727E+02
 -1        29 8.89131E+01
 -1        30 8.87596E+01
 -1        31 7.99566E+01
 -1        32 6.15551E+01
 -1        33 5.91504E+01
 -1        34 5.88545E+01
 -1        35 5.80482E+01
 -1        36 5.70223E+01
 -1        37 5.59240E+01
 -1        38 5.48856E+01
 -1        39 5.54301E+01
 -1        40 5.54301E+01
 -1        41 5.51165E+01
 -1        42 5.16629E+01
 -1        43 4.34199E+01
 -1        44 2.45522E+01
 -1        45 8.34082E+01
 -1        46 1.05727E+02
 -1        47 1.05727E+02
 -1        48 8.89131E+01
 -1        49 8.87596E+01
 -1        50 7.99566E+01
 -1        51 3.15190E+01
 -1        52 3.64640E+01
 -1        53 3.64640E+01
 -1        54 3.61333E+01
 -1        55 3.36747E+01
 -1        56 2.67752E+01
 -1        57 6.39282E+01
 -1        58 6.56912E+01
 -1        59 7.13761E+01
 -1        60 7.14727E+01
 -1        61 7.14727E+01
 -1        62 6.86390E+01
 -1        63 6.69126E+01
 -1        64 6.76044E+01
 -1        65 6.76044E+01
 -1        66 6.72051E+01
 -1        67 6.61156E+01
 -1        68 6.50369E+01
 -1        69 6.41612E+01
 -1        70 3.15190E+01
 -1        71 3.64640E+01
 -1        72 3.64640E+01
 -1        73 3.61333E+01
 -1        74 3.36747E+01
 -1        75 2.67752E+01
 -1        76 6.39282E+01
 -1        77 6.56912E+01
 -1        78 7.13761E+01
 -1        79 7.14727E+01
 -1        80 7.14727E+01
 -1        81 6.86390E+01
 -1        82 6.69126E+01
 -1        83 6.76044E+01
 -1        84 6.76044E+01
 -1        85 6.72051E+01
 -1        86 6.61156E+01
 -1        87 6.50369E+01
 -1        88 6.41612E+01
 -1        89 6.41612E+01
 -1        90 6.50369E+01
 -1        91 6.61156E+01
 -1        92 6.72051E+01
 -1        93 6.76044E+01
 -1        94 6.76044E+01
 -1        95 6.69126E+01
 -1        96 6.86390E+01
 -1        97 7.14727E+01
 -1        98 7.14727E+01
 -1        99 7.13761E+01
 -1       100 6.56912E+01
 -1       101 6.39282E+01
 -1       102 8.34082E+01
 -1       103 1.05727E+02
 -1       104 1.05727E+02
 -1       105 8.89131E+01
 -1       106 8.87596E+01
 -1       107 7.99566E+01
 -1       108 7.99566E+01
 -1       109 8.87596E+01
 -1       110 8.89131E+01
 -1       111 1.05727E+02
 -1       112 1.05727E+02
 -1       113 8.34082E+01
 -1       114 6.39282E+01
 -1       115 6.56912E+01
 -1       116 7.13761E+01
 -1       117 7.14727E+01
 -1       118 7.14727E+01
 -1       119 6.86390E+01
 -1       120 6.69126E+01
 -1       121 6.76044E+01
 -1       122 6.76044E+01
 -1       123 6.72051E+01
 -1       124 6.61156E+01
 -1       125 6.50369E+01
 -1       126 6.41612E+01
 -3
    1PSTEP                       229          58           1          
  100CL  158 5.80000E-01         126                     1   58           1
 -4  DISP        4    1
 -5  D1          1    2    1    0
 -5  D2          1    2    2    0
 -5  D3          1    2    3    0
 -5  ALL         1    2    0    0    1ALL
 -1         1 0.00000E+00 0.00000E+00 0.00000E+00
 -1         2 0.00000E+00 0.00000E+00 0.00000E+00
 -1         3 1.97477E-01-8.51260E-03 0.00000E+00
 -1         4 1.97477E-01-8.51260E-03 0.00000E+00
 -1         5 1.94193E-01-3.38929E-02 0.00000E+00
 -1         6 1.94193E-01-3.38929E-02 0.00000E+00
 -1         7 0.00000E+00 0.00000E+00 0.00000E+00
 -1         8 0.00000E+00 0.00000E+00 0.00000E+00
 -1         9 1.95834E-01-2.11964E-02 0.00000E+00
 -1        10 1.95834E-01-2.11964E-02 0.00000E+00
 -1        11 0.00000E+00 0.00000E+00 0.00000E+00
 -1        12 0.00000E+00 0.00000E+00 0.00000E+00
 -1        13 1.46610E-03 1.78210E-03 0.00000E+00
 -1        14 4.33299E-03 3.38726E-03 0.00000E+00
 -1        15 8.76551E-03 4.65475E-03 0.00000E+00
 -1        16 1.44696E-02 5.62871E-03 0.00000E+00
 -1        17 2.12911E-02 6.35450E-03 0.00000E+00
 -1        18 2.91700E-02 6.87605E-03 0.00000E+00
 -1        19 3.81052E-02 7.19414E-03 0.00000E+00
 -1        20 4.81021E-02 7.25742E-03 0.00000E+00
 -1        21 5.90756E-02 6.99439E-03 0.00000E+00
 -1        22 7.08370E-02 6.35903E-03 0.00000E+00
 -1        23 8.31142E-02 5.37569E-03 0.00000E+00
 -1        24 9.56733E-02 4.12982E-03 0.00000E+00
 -1        25 1.08375E-01 2.71939E-03 0.00000E+00
 -1        26 1.21166E-01 1.20128E-03 0.00000E+00
 -1        27 1.33989E-01-3.98208E-04 0.00000E+00
 -1        28 1.46771E-01-2.04594E-03 0.00000E+00
 -1        29 1.59472E-01-3.69023E-03 0.00000E+00
 -1        30 1.72126E-01-5.30267E-03 0.00000E+00
 -1        31 1.84790E-01-6.89940E-03 0.00000E+00
 -1        32 1.46610E-03 1.78210E-03 0.00000E+00
 -1        33 4.33299E-03 3.38726E-03 0.00000E+00
 -1        34 8.76551E-03 4.65475E-03 0.00000E+00
 -1        35 1.44696E-02 5.62871E-03 0.00000E+00
 -1        36 2.12911E-02 6.35450E-03 0.00000E+00
 -1        37 2.91700E-02 6.87605E-03 0.00000E+00
 -1        38 3.81052E-02 7.19414E-03 0.00000E+00
 -1        39 4.81021E-02 7.25742E-03 0.00000E+00
 -1        40 5.90756E-02 6.99439E-03 0.00000E+00
 -1        41 7.08370E-02 6.35903E-03 0.00000E+00
 -1        42 8.31142E-02 5.37569E-03 0.00000E+00
 -1        43 9.56733E-02 4.12982E-03 0.00000E+00
 -1        44 1.08375E-01 2.71939E-03 0.00000E+00
 -1        45 1.21166E-01 1.20128E-03 0.00000E+00
 -1        46 1.33989E-01-3.98208E-04 0.00000E+00
 -1        47 1.46771E-01-2.04594E-03 0.00000E+00
 -1        48 1.59472E-01-3.69023E-03 0.00000E+00
 -1        49 1.72126E-01-5.30267E-03 0.00000E+00
 -1        50 1.84790E-01-6.89940E-03 0.00000E+00
 -1        51 1.81501E-01-3.22590E-02 0.00000E+00
 -1        52 1.68831E-01-3.06450E-02 0.00000E+00
 -1        53 1.56163E-01-2.90657E-02 0.00000E+00
 -1        54 1.43437E-01-2.75018E-02 0.00000E+00
 -1        55 1.30638E-01-2.59072E-02 0.00000E+00
 -1        56 1.17824E-01-2.42557E-02 0.00000E+00
 -1        57 1.05078E-01-2.25548E-02 0.00000E+00
 -1        58 9.24590E-02-2.08102E-02 0.00000E+00
 -1        59 8.00389E-02-1.89976E-02 0.00000E+00
 -1        60 6.79814E-02-1.70916E-02 0.00000E+00
 -1        61 5.65311E-02-1.51131E-02 0.00000E+00
 -1        62 4.59252E-02-1.31361E-02 0.00000E+00
 -1        63 3.63108E-02-1.12481E-02 0.00000E+00
 -1        64 2.77345E-02-9.50718E-03 0.00000E+00
 -1        65 2.01836E-02-7.91683E-03 0.00000E+00
 -1        66 1.36546E-02-6.42785E-03 0.00000E+00
 -1        67 8.21496E-03-4.95881E-03 0.00000E+00
 -1        68 4.00417E-03-3.43121E-03 0.00000E+00
 -1        69 1.31431E-03-1.74907E-03 0.00000E+00
 -1        70 1.81501E-01-3.22590E-02 0.00000E+00
 -1        71 1.68831E-01-3.06450E-02 0.00000E+00
 -1        72 1.56163E-01-2.90657E-02 0.00000E+00
 -1        73 1.43437E-01-2.75018E-02 0.00000E+00
 -1        74 1.30638E-01-2.59072E-02 0.00000E+00
 -1        75 1.17824E-01-2.42557E-02 0.00000E+00
 -1        76 1.05078E-01-2.25548E-02 0.00000E+00
 -1        77 9.24590E-02-2.08102E-02 0.00000E+00
 -1        78 8.00389E-02-1.89976E-02 0.00000E+00
 -1        79 6.79814E-02-1.70916E-02 0.00000E+00
 -1        80 5.65311E-02-1.51131E-02 0.00000E+00
 -1        81 4.59252E-02-1.31361E-02 0.00000E+00
 -1        82 3.63108E-02-1.12481E-02 0.00000E+00
 -1        83 2.77345E-02-9.50718E-03 0.00000E+00
 -1        84 2.01836E-02-7.91683E-03 0.00000E+00
 -1        85 1.36546E-02-6.42785E-03 0.00000E+00
 -1        86 8.21496E-03-4.95881E-03 0.00000E+00
 -1        87 4.00417E-03-3.43121E-03 0.00000E+00
 -1        88 1.31431E-03-1.74907E-03 0.00000E+00
 -1        89 9.35627E-04 2.33374E-05 0.00000E+00
 -1        90 3.85378E-03 3.32358E-06 0.00000E+00
 -1        91 8.20558E-03-1.20459E-04 0.00000E+00
 -1        92 1.38121E-02-3.66940E-04 0.00000E+00
 -1        93 2.05038E-02-7.46479E-04 0.00000E+00
 -1        94 2.82243E-02-1.27671E-03 0.00000E+00
 -1        95 3.69887E-02-1.98409E-03 0.00000E+00
 -1        96 4.68124E-02-2.89487E-03 0.00000E+00
 -1        97 5.76356E-02-4.01843E-03 0.00000E+00
 -1        98 6.92847E-02-5.33344E-03 0.00000E+00
 -1        99 8.14966E-02-6.78858E-03 0.00000E+00
 -1       100 9.40177E-02-8.32626E-03 0.00000E+00
 -1       101 1.06697E-01-9.90918E-03 0.00000E+00
 -1       102 1.19479E-01-1.15222E-02 0.00000E+00
 -1       103 1.32312E-01-1.31517E-02 0.00000E+00
 -1       104 1.45111E-01-1.47752E-02 0.00000E+00
 -1       105 1.57822E-01-1.63785E-02 0.00000E+00
 -1       106 1.70477E-01-1.79717E-02 0.00000E+00
 -1       107 1.83143E-01-1.95755E-02 0.00000E+00
 -1       108 1.83143E-01-1.95755E-02 0.00000E+00
 -1       109 1.70477E-01-1.79717E-02 0.00000E+00
 -1       110 1.57822E-01-1.63785E-02 0.00000E+00
 -1       111 1.45111E-01-1.47752E-02 0.00000E+00
 -1       112 1.32312E-01-1.31517E-02 0.00000E+00
 -1       113 1.19479E-01-1.15222E-02 0.00000E+00
 -1       114 1.06697E-01-9.90918E-03 0.00000E+00
 -1       115 9.40177E-02-8.32626E-03 0.00000E+00
 -1       116 8.14966E-02-6.78858E-03 0.00000E+00
 -1       117 6.92847E-02-5.33344E-03 0.00000E+00
 -1       118 5.76356E-02-4.01843E-03 0.00000E+00
 -1       119 4.68124E-02-2.89487E-03 0.00000E+00
 -1       120 3.69887E-02-1.98409E-03 0.00000E+00
 -1       121 2.82243E-02-1.27671E-03 0.00000E+00
 -1       122 2.05038E-02-7.46479E-04 0.00000E+00
 -1       123 1.38121E-02-3.66940E-04 0.00000E+00
 -1       124 8.20558E-03-1.20459E-04 0.00000E+00
 -1       125 3.85378E-03 3.32358E-06 0.00000E+00
 -1       126 9.35627E-04 2.33374E-05 0.00000E+00
 -3
    1PSTEP                       230          58           1          
  100CL  158 5.80000E-01         126                     1   58           1
 -4  STRESS      6    1
 -5  SXX         1    4    1    1
 -5  SYY         1    4    2    2
 -5  SZZ         1    4    3    3
 -5  SXY         1    4    1    2
 -5  SYZ         1    4    2    3
 -5  SZX         1    4    3    1
 -1         1 8.39630E+03 2.02024E+04 8.17797E+03 5.02163E+03 2.40968E-10 1.75875E-10
 -1         2 8.39630E+03 2.02024E+04 8.17797E+03 5.02163E+03 2.40968E-10 1.75875E-10
 -1         3 2.48667E+01 2.00767E+02 6.76376E+01 3.37134E+01 8.64167E-08 5.59679E-08
 -1         4 2.48667E+01 2.00767E+02 6.76376E+01 3.37134E+01 8.64167E-08 5.59778E-08
 -1         5-7.75488E+00 3.88865E+01 9.34139E+00-8.92963E+00-1.04245E-07-1.47904E-08
 -1         6-7.75488E+00 3.88864E+01 9.34139E+00-8.92963E+00-1.04251E-07-1.47924E-08
 -1         7-7.97313E+03-1.79291E+04-8.13496E+03 3.60929E+03 2.46835E-10-2.10118E-10
 -1         8-7.97313E+03-1.79291E+04-8.13496E+03 3.60929E+03 2.46835E-10-2.10118E-10
 -1         9 2.44638E+01 1.49446E+02 5.21454E+01 1.87760E+01-1.64705E-08 2.12043E-08
 -1        10 2.44638E+01 1.49446E+02 5.21454E+01 1.87760E+01-1.64695E-08 2.11864E-08
 -1        11 2.06455E+02 8.75460E+01 1.48064E+02 2.87456E+03 2.21671E-10-1.48388E-11
 -1        12 2.06455E+02 8.75460E+01 1.48064E+02 2.87456E+03 2.21671E-10-1.48388E-11
 -1        13 2.84868E+03 1.72318E+04 5.75485E+03 1.59320E+03-3.68593E-10 4.27590E-08
 -1        14 3.51060E+03 1.58146E+04 5.56213E+03 1.29165E+03-1.74465E-08 4.44929E-08
 -1        15 3.01838E+03 1.36348E+04 4.81797E+03 1.46756E+03-2.89916E-08 3.82827E-08
 -1        16 2.77520E+03 1.21845E+04 4.34422E+03 1.43933E+03-2.27005E-08 9.52438E-09
 -1        17 2.60580E+03 1.13274E+04 4.05424E+03 1.43782E+03-6.58670E-09 3.90621E-08
 -1        18 2.52007E+03 1.08715E+04 3.89963E+03 1.51980E+03 1.69591E-10 8.63415E-08
 -1        19 2.52095E+03 1.03884E+04 3.76220E+03 1.67492E+03-2.05492E-08 1.64274E-07
 -1        20 2.42430E+03 9.40928E+03 3.45552E+03 1.81187E+03-6.03459E-08 1.96967E-07
 -1        21 2.16558E+03 7.79164E+03 2.91841E+03 1.79139E+03-9.56369E-08 1.76008E-07
 -1        22 1.70404E+03 5.76803E+03 2.20123E+03 1.55022E+03-1.00883E-07 1.07407E-07
 -1        23 1.21060E+03 3.87369E+03 1.50587E+03 1.15466E+03-7.99873E-08 5.14942E-08
 -1        24 7.57073E+02 2.45860E+03 9.56473E+02 7.79518E+02-5.17485E-08-4.08195E-09
 -1        25 4.35070E+02 1.52907E+03 5.85768E+02 5.20863E+02-3.52259E-08-3.98056E-08
 -1        26 1.91905E+02 8.26515E+02 3.04216E+02 3.49723E+02-2.12965E-08-8.45524E-08
 -1        27 3.49909E+01 2.72684E+02 9.19895E+01 1.87677E+02-4.41265E-09-1.47405E-07
 -1        28-9.17930E+01-2.69749E+01-3.56819E+01 4.84103E+01 2.49262E-08-1.83450E-07
 -1        29-1.26659E+02 1.66852E+01-3.30254E+01-1.53372E+01 6.80376E-08-1.93747E-07
 -1        30-8.96898E+01 1.91984E+02 3.06025E+01 5.26688E+00 9.74021E-08-1.31161E-07
 -1        31-1.83171E+01 2.35320E+02 6.50082E+01 3.10389E+01 1.01754E-07-4.45970E-08
 -1        32 2.84868E+03 1.72318E+04 5.75485E+03 1.59320E+03-3.68593E-10 4.27590E-08
 -1        33 3.51060E+03 1.58146E+04 5.56213E+03 1.29165E+03-1.74465E-08 4.44929E-08
 -1        34 3.01838E+03 1.36348E+04 4.81797E+03 1.46756E+03-2.89916E-08 3.82827E-08
 -1        35 2.77520E+03 1.21845E+04 4.34422E+03 1.43933E+03-2.27006E-08 9.52394E-09
 -1        36 2.60580E+03 1.13274E+04 4.05424E+03 1.43782E+03-6.58668E-09 3.90624E-08
 -1        37 2.52007E+03 1.08715E+04 3.89963E+03 1.51980E+03 1.69601E-10 8.63401E-08
 -1        38 2.52095E+03 1.03884E+04 3.76220E+03 1.67492E+03-2.05492E-08 1.64275E-07
 -1        39 2.42430E+03 9.40928E+03 3.45552E+03 1.81187E+03-6.03459E-08 1.96967E-07
 -1        40 2.16558E+03 7.79164E+03 2.91841E+03 1.79139E+03-9.56369E-08 1.76008E-07
 -1        41 1.70404E+03 5.76803E+03 2.20123E+03 1.55022E+03-1.00883E-07 1.07409E-07
 -1        42 1.21060E+03 3.87369E+03 1.50587E+03 1.15466E+03-7.99874E-08 5.14965E-08
 -1        43 7.57073E+02 2.45860E+03 9.56473E+02 7.79518E+02-5.17484E-08-4.08475E-09
 -1        44 4.35070E+02 1.52907E+03 5.85768E+02 5.20863E+02-3.52264E-08-3.98037E-08
 -1        45 1.91905E+02 8.26515E+02 3.04216E+02 3.49723E+02-2.12964E-08-8.45528E-08
 -1        46 3.49909E+01 2.72684E+02 9.19895E+01 1.87677E+02-4.41259E-09-1.47405E-07
 -1        47-9.17930E+01-2.69749E+01-3.56819E+01 4.84103E+01 2.49260E-08-1.83447E-07
 -1        48-1.26659E+02 1.66852E+01-3.30254E+01-1.53372E+01 6.80376E-08-1.93736E-07
 -1        49-8.96898E+01 1.91984E+02 3.06025E+01 5.26688E+00 9.74020E-08-1.31148E-07
 -1        50-1.83171E+01 2.35320E+02 6.50082E+01 3.10389E+01 1.01755E-07-4.46072E-08
 -1        51-1.71081E+01 9.07426E+01 2.20684E+01 6.05107E+00-7.70223E-08-9.70110E-08
 -1        52 1.53309E+01 3.14632E+02 9.88275E+01 2.63813E+01-2.52870E-08-1.73878E-07
 -1        53 7.40144E+01 5.84031E+02 1.96934E+02 9.80392E+01 2.92136E-08-2.06489E-07
 -1        54 1.20644E+02 6.27258E+02 2.23751E+02 1.81087E+02 6.07101E-08-1.86741E-07
 -1        55 7.41108E+01 2.98951E+02 1.11601E+02 1.93214E+02 6.68358E-08-1.22335E-07
 -1        56-6.79829E+01-2.63586E+02-9.96358E+01 1.21751E+02 6.32247E-08-6.59611E-08
 -1        57-2.66504E+02-9.39003E+02-3.62423E+02 2.85423E+01 5.69298E-08-2.20412E-08
 -1        58-5.15773E+02-1.87183E+03-7.19469E+02-6.27756E+01 4.67779E-08 2.68179E-08
 -1        59-8.84229E+02-3.29549E+03-1.26451E+03-2.10987E+02 3.86562E-08 7.25606E-08
 -1        60-1.38858E+03-5.13280E+03-1.98317E+03-4.66335E+02 1.33072E-08 1.36235E-07
 -1        61-1.93860E+03-6.95801E+03-2.71914E+03-7.75285E+02-3.05544E-08 1.84290E-07
 -1        62-2.37748E+03-8.32273E+03-3.28224E+03-1.02036E+03-7.52305E-08 1.91297E-07
 -1        63-2.61851E+03-9.07676E+03-3.59389E+03-1.11827E+03-1.02433E-07 1.49573E-07
 -1        64-2.70221E+03-9.42798E+03-3.72954E+03-1.06279E+03-9.58972E-08 7.34654E-08
 -1        65-2.75279E+03-9.79951E+03-3.86164E+03-9.00973E+02-6.41984E-08 2.07348E-08
 -1        66-2.90479E+03-1.06039E+04-4.16443E+03-6.98495E+02-3.56263E-08 2.15808E-08
 -1        67-3.17314E+03-1.19869E+04-4.69230E+03-4.68369E+02-1.58530E-08 3.10018E-08
 -1        68-3.90769E+03-1.41116E+04-5.61048E+03-3.06690E+02-1.00279E-08 4.22680E-08
 -1        69-3.20559E+03-1.54028E+04-5.82499E+03 4.43784E+02-1.24021E-08 3.79030E-08
 -1        70-1.71081E+01 9.07426E+01 2.20684E+01 6.05107E+00-7.70211E-08-9.70074E-08
 -1        71 1.53309E+01 3.14632E+02 9.88275E+01 2.63813E+01-2.52879E-08-1.73865E-07
 -1        72 7.40144E+01 5.84031E+02 1.96934E+02 9.80392E+01 2.92136E-08-2.06491E-07
 -1        73 1.20644E+02 6.27258E+02 2.23751E+02 1.81087E+02 6.07084E-08-1.86725E-07
 -1        74 7.41108E+01 2.98951E+02 1.11601E+02 1.93214E+02 6.68361E-08-1.22342E-07
 -1        75-6.79829E+01-2.63586E+02-9.96358E+01 1.21751E+02 6.32247E-08-6.59606E-08
 -1        76-2.66504E+02-9.39003E+02-3.62423E+02 2.85423E+01 5.69296E-08-2.20391E-08
 -1        77-5.15773E+02-1.87183E+03-7.19469E+02-6.27756E+01 4.67783E-08 2.68161E-08
 -1        78-8.84229E+02-3.29549E+03-1.26451E+03-2.10987E+02 3.86549E-08 7.25607E-08
 -1        79-1.38858E+03-5.13280E+03-1.98317E+03-4.66335E+02 1.33071E-08 1.36235E-07
 -1        80-1.93860E+03-6.95801E+03-2.71914E+03-7.75285E+02-3.05543E-08 1.84290E-07
 -1        81-2.37748E+03-8.32273E+03-3.28224E+03-1.02036E+03-7.52305E-08 1.91301E-07
 -1        82-2.61851E+03-9.07676E+03-3.59389E+03-1.11827E+03-1.02433E-07 1.49568E-07
 -1        83-2.70221E+03-9.42798E+03-3.72954E+03-1.06279E+03-9.58980E-08 7.34648E-08
 -1        84-2.75279E+03-9.79951E+03-3.86164E+03-9.00973E+02-6.41980E-08 2.07334E-08
 -1        85-2.90479E+03-1.06039E+04-4.16443E+03-6.98495E+02-3.56277E-08 2.15821E-08
 -1        86-3.17314E+03-1.19869E+04-4.69230E+03-4.68369E+02-1.58523E-08 3.10015E-08
 -1        87-3.90769E+03-1.41116E+04-5.61048E+03-3.06690E+02-1.00278E-08 4.22680E-08
 -1        88-3.20559E+03-1.54028E+04-5.82499E+03 4.43784E+02-1.24021E-08 3.79030E-08
 -1        89-6.99203E+01 3.29401E+01 8.73238E+00 4.93855E+02-6.12228E-09 3.74641E-08
 -1        90-4.26725E+01 1.94020E+02 7.63523E+01 6.97404E+02-1.26550E-08 4.71796E-08
 -1        91 3.35415E+00 2.75835E+02 1.05269E+02 5.38797E+02-1.86678E-08 3.38174E-08
 -1        92-5.32652E+00 3.45046E+02 1.20001E+02 3.88136E+02-2.80594E-08 1.54666E-08
 -1        93-2.85614E+01 3.94154E+02 1.25023E+02 2.41004E+02-3.87113E-08 2.20455E-08
 -1        94-4.88091E+01 3.90397E+02 1.15687E+02 1.85549E+02-5.00132E-08 7.99487E-08
 -1        95-1.32211E+00 3.45713E+02 1.14438E+02 2.50794E+02-6.63092E-08 1.59920E-07
 -1        96 8.13618E+01 2.63842E+02 1.11976E+02 4.08171E+02-7.22391E-08 2.04217E-07
 -1        97 1.82514E+02 1.89984E+02 1.17153E+02 5.69877E+02-6.15044E-08 1.87887E-07
 -1        98 2.29755E+02 1.54178E+02 1.18010E+02 6.37311E+02-4.05619E-08 1.26056E-07
 -1        99 2.22224E+02 1.83104E+02 1.22782E+02 5.64888E+02-1.87618E-08 5.75568E-08
 -1       100 1.58473E+02 2.31959E+02 1.17392E+02 4.23558E+02-3.51519E-09 1.05032E-08
 -1       101 1.09234E+02 2.61364E+02 1.11024E+02 3.18334E+02 1.09903E-08-3.46403E-08
 -1       102 8.41774E+01 2.57513E+02 1.02217E+02 2.74367E+02 2.23915E-08-7.76317E-08
 -1       103 7.16121E+01 2.66282E+02 1.01110E+02 2.21313E+02 2.92191E-08-1.38963E-07
 -1       104 1.94333E+01 2.95369E+02 9.42244E+01 1.23091E+02 4.23352E-08-1.91638E-07
 -1       105-2.99984E+01 3.13402E+02 8.48672E+01 3.00352E+01 5.14148E-08-2.06969E-07
 -1       106-3.87147E+01 2.70485E+02 6.94193E+01 5.50602E+00 3.98841E-08-1.60603E-07
 -1       107-8.16760E+00 1.84790E+02 5.29264E+01 2.04571E+01 1.15203E-08-7.52700E-08
 -1       108-8.16760E+00 1.84790E+02 5.29264E+01 2.04571E+01 1.15198E-08-7.52548E-08
 -1       109-3.87147E+01 2.70485E+02 6.94193E+01 5.50602E+00 3.98843E-08-1.60602E-07
 -1       110-2.99984E+01 3.13402E+02 8.48672E+01 3.00352E+01 5.14148E-08-2.06971E-07
 -1       111 1.94333E+01 2.95369E+02 9.42244E+01 1.23091E+02 4.23359E-08-1.91647E-07
 -1       112 7.16121E+01 2.66282E+02 1.01110E+02 2.21313E+02 2.92192E-08-1.38961E-07
 -1       113 8.41774E+01 2.57513E+02 1.02217E+02 2.74367E+02 2.23914E-08-7.76324E-08
 -1       114 1.09234E+02 2.61364E+02 1.11024E+02 3.18334E+02 1.09911E-08-3.46438E-08
 -1       115 1.58473E+02 2.31959E+02 1.17392E+02 4.23558E+02-3.51542E-09 1.05087E-08
 -1       116 2.22224E+02 1.83104E+02 1.22782E+02 5.64888E+02-1.87615E-08 5.75522E-08
 -1       117 2.29755E+02 1.54178E+02 1.18010E+02 6.37311E+02-4.05616E-08 1.26052E-07
 -1       118 1.82514E+02 1.89984E+02 1.17153E+02 5.69877E+02-6.15046E-08 1.87887E-07
 -1       119 8.13618E+01 2.63842E+02 1.11976E+02 4.08171E+02-7.22390E-08 2.04217E-07
 -1       120-1.32211E+00 3.45713E+02 1.14438E+02 2.50794E+02-6.63093E-08 1.59919E-07
 -1       121-4.88091E+01 3.90397E+02 1.15687E+02 1.85549E+02-5.00130E-08 7.99490E-08
 -1       122-2.85614E+01 3.94154E+02 1.25023E+02 2.41004E+02-3.87114E-08 2.20453E-08
 -1       123-5.32652E+00 3.45046E+02 1.20001E+02 3.88136E+02-2.80592E-08 1.54672E-08
 -1       124 3.35415E+00 2.75835E+02 1.05269E+02 5.38797E+02-1.86679E-08 3.38174E-08
 -1       125-4.26725E+01 1.94020E+02 7.63523E+01 6.97404E+02-1.26550E-08 4.71796E-08
 -1       126-6.99203E+01 3.29401E+01 8.73238E+00 4.93855E+02-6.12228E-09 3.74641E-08
 -3
    1PSTEP                       231          58           1          
  100CL  158 5.80000E-01         126                     1   58           1
 -4  TOSTRAIN    6    1
 -5  EXX         1    4    1    1
 -5  EYY         1    4    2    2
 -5  EZZ         1    4    3    3
 -5  EXY         1    4    1    2
 -5  EYZ         1    4    2    3
 -5  EZX         1    4    3    1
 -1         1-1.12316E-04 3.65938E-02-6.46766E-27 1.46608E-02 2.19351E-19 2.30060E-16
 -1         2-1.12316E-04 3.65938E-02-6.46766E-27 1.46608E-02 2.19351E-19 2.30060E-16
 -1         3-1.56012E-04 4.49189E-04 1.45772E-25-4.47830E-05 3.17630E-13 1.04719E-13
 -1         4-1.56012E-04 4.49189E-04 1.45769E-25-4.47830E-05 3.17638E-13 1.04750E-13
 -1         5-3.15449E-05 7.20145E-05 1.76095E-25-6.25089E-05-3.39857E-13 3.95001E-14
 -1         6-3.15449E-05 7.20145E-05 1.76125E-25-6.25089E-05-3.39881E-13 3.94996E-14
 -1         7-1.09629E-04-3.41328E-02-5.66035E-27 1.31429E-02 4.15322E-19-4.18973E-16
 -1         8-1.09629E-04-3.41328E-02-5.66035E-27 1.31429E-02 4.15322E-19-4.18973E-16
 -1         9-9.37783E-05 3.19789E-04-5.67757E-26-4.65189E-05-3.42642E-14 8.02426E-14
 -1        10-9.37783E-05 3.19789E-04-5.67753E-26-4.65189E-05-3.42758E-14 8.01854E-14
 -1        11-1.10973E-04 5.30912E-04-5.07371E-27 9.35612E-03 3.40927E-19-9.14167E-17
 -1        12-1.10973E-04 5.30912E-04-5.07371E-27 9.35612E-03 3.40927E-19-9.14167E-17
 -1        13-1.00346E-02 3.53836E-02 3.51659E-26 3.25160E-03 3.34395E-15 1.38223E-13
 -1        14-7.32411E-03 3.18542E-02 4.73150E-26 1.33570E-03-4.48812E-14 1.47318E-13
 -1        15-6.63249E-03 2.78304E-02 4.54843E-26 1.29298E-03-7.88403E-14 1.32489E-13
 -1        16-5.91933E-03 2.50059E-02 8.43029E-27 8.28983E-04-6.71233E-14 3.95130E-14
 -1        17-5.57834E-03 2.33743E-02 2.31070E-26 4.49222E-04-2.79132E-15 1.28280E-13
 -1        18-5.47976E-03 2.25878E-02 1.33533E-25 2.68177E-04 4.53173E-14 2.75669E-13
 -1        19-5.26861E-03 2.17668E-02 5.58155E-25 4.13763E-04 3.20373E-14 5.35083E-13
 -1        20-4.87598E-03 2.00158E-02 8.92900E-25 8.27027E-04-5.97445E-14 6.64602E-13
 -1        21-4.14969E-03 1.69173E-02 8.33921E-25 1.26191E-03-1.72767E-13 6.25378E-13
 -1        22-3.23371E-03 1.28442E-02 4.28484E-25 1.42952E-03-2.32942E-13 4.16147E-13
 -1        23-2.23949E-03 8.80036E-03 1.63178E-25 1.23283E-03-2.08926E-13 2.25956E-13
 -1        24-1.53554E-03 5.69502E-03 3.74689E-26 8.68779E-04-1.64954E-13 2.93738E-14
 -1        25-1.09434E-03 3.63845E-03 4.48825E-26 6.00907E-04-1.42815E-13-9.60254E-14
 -1        26-7.92914E-04 2.11308E-03 1.42110E-25 4.78658E-04-1.36547E-13-2.48014E-13
 -1        27-4.36704E-04 8.35744E-04 4.44249E-25 3.38861E-04-1.35971E-13-4.59571E-13
 -1        28-2.46990E-04 9.23355E-05 7.16792E-25 8.48407E-05-7.34856E-14-5.97373E-13
 -1        29-2.50337E-04 1.07212E-04 8.79175E-25-1.57635E-04 5.40379E-14-6.65383E-13
 -1        30-3.40915E-04 4.73560E-04 5.28500E-25-2.09326E-04 1.98062E-13-4.92643E-13
 -1        31-2.67511E-04 5.49298E-04 1.97313E-25-1.14091E-04 2.82944E-13-2.24026E-13
 -1        32-1.00346E-02 3.53836E-02 3.51659E-26 3.25160E-03 3.34395E-15 1.38223E-13
 -1        33-7.32411E-03 3.18542E-02 4.73150E-26 1.33570E-03-4.48812E-14 1.47318E-13
 -1        34-6.63249E-03 2.78304E-02 4.54843E-26 1.29298E-03-7.88404E-14 1.32489E-13
 -1        35-5.91933E-03 2.50059E-02 8.43000E-27 8.28983E-04-6.71235E-14 3.95116E-14
 -1        36-5.57834E-03 2.33743E-02 2.31073E-26 4.49222E-04-2.79113E-15 1.28281E-13
 -1        37-5.47976E-03 2.25878E-02 1.33527E-25 2.68177E-04 4.53166E-14 2.75664E-13
 -1        38-5.26861E-03 2.17668E-02 5.58160E-25 4.13763E-04 3.20378E-14 5.35086E-13
 -1        39-4.87598E-03 2.00158E-02 8.92900E-25 8.27027E-04-5.97445E-14 6.64602E-13
 -1        40-4.14969E-03 1.69173E-02 8.33921E-25 1.26191E-03-1.72767E-13 6.25378E-13
 -1        41-3.23371E-03 1.28442E-02 4.28494E-25 1.42952E-03-2.32941E-13 4.16153E-13
 -1        42-2.23949E-03 8.80036E-03 1.63182E-25 1.23283E-03-2.08924E-13 2.25963E-13
 -1        43-1.53554E-03 5.69502E-03 3.74665E-26 8.68779E-04-1.64956E-13 2.93649E-14
 -1        44-1.09434E-03 3.63845E-03 4.48793E-26 6.00907E-04-1.42815E-13-9.60192E-14
 -1        45-7.92914E-04 2.11308E-03 1.42111E-25 4.78658E-04-1.36547E-13-2.48016E-13
 -1        46-4.36704E-04 8.35744E-04 4.44249E-25 3.38861E-04-1.35971E-13-4.59571E-13
 -1        47-2.46990E-04 9.23355E-05 7.16761E-25 8.48407E-05-7.34833E-14-5.97361E-13
 -1        48-2.50337E-04 1.07212E-04 8.79080E-25-1.57635E-04 5.40475E-14-6.65347E-13
 -1        49-3.40915E-04 4.73560E-04 5.28425E-25-2.09326E-04 1.98073E-13-4.92599E-13
 -1        50-2.67511E-04 5.49298E-04 1.97342E-25-1.14091E-04 2.82938E-13-2.24059E-13
 -1        51-1.14515E-04 2.10164E-04 2.66709E-25-6.87923E-05-3.22032E-13-2.41522E-13
 -1        52-2.51066E-04 6.79594E-04 6.15558E-25-1.63444E-04-2.22576E-13-5.25894E-13
 -1        53-4.49665E-04 1.30379E-03 9.09524E-25-1.29161E-04-7.84019E-14-6.73239E-13
 -1        54-5.19149E-04 1.48960E-03 8.05056E-25 1.06390E-04 3.61728E-14-6.37169E-13
 -1        55-3.84942E-04 8.68987E-04 3.92346E-25 3.65206E-04 1.08435E-13-4.39995E-13
 -1        56-1.34606E-04-2.96867E-04 1.61393E-25 5.01120E-04 1.44165E-13-2.59871E-13
 -1        57 1.23935E-04-1.69271E-03 6.34156E-26 6.18233E-04 1.61260E-13-1.16366E-13
 -1        58 4.80292E-04-3.59078E-03 4.40153E-26 8.94848E-04 1.69767E-13 4.62066E-14
 -1        59 1.07781E-03-6.53452E-03 1.19146E-25 1.26958E-03 1.80920E-13 1.97923E-13
 -1        60 1.91359E-03-1.04523E-02 3.69701E-25 1.46114E-03 1.48011E-13 4.20772E-13
 -1        61 2.75243E-03-1.44345E-02 7.22024E-25 1.28646E-03 3.63174E-14 6.07745E-13
 -1        62 3.36159E-03-1.74394E-02 8.86564E-25 8.53846E-04-1.15379E-13 6.60968E-13
 -1        63 3.66482E-03-1.90649E-02 6.84972E-25 4.41882E-04-2.44133E-13 5.41385E-13
 -1        64 3.76294E-03-1.97375E-02 2.97059E-25 2.83192E-04-2.76078E-13 2.87872E-13
 -1        65 3.86089E-03-2.03940E-02 9.33614E-26 4.53173E-04-2.02711E-13 9.70588E-14
 -1        66 4.15604E-03-2.19667E-02 3.66386E-26 8.38677E-04-1.09779E-13 8.41093E-14
 -1        67 4.81082E-03-2.48431E-02 2.50610E-26 1.32765E-03-4.30503E-14 1.05871E-13
 -1        68 5.29124E-03-2.91639E-02 3.97725E-26 1.36396E-03-2.41902E-14 1.40176E-13
 -1        69 8.12868E-03-3.29279E-02 3.11142E-26 3.05646E-03-3.80061E-14 1.25251E-13
 -1        70-1.14515E-04 2.10164E-04 2.66697E-25-6.87923E-05-3.22025E-13-2.41512E-13
 -1        71-2.51066E-04 6.79594E-04 6.15459E-25-1.63444E-04-2.22568E-13-5.25850E-13
 -1        72-4.49665E-04 1.30379E-03 9.09536E-25-1.29161E-04-7.84033E-14-6.73244E-13
 -1        73-5.19149E-04 1.48960E-03 8.04942E-25 1.06390E-04 3.61800E-14-6.37119E-13
 -1        74-3.84942E-04 8.68987E-04 3.92397E-25 3.65206E-04 1.08430E-13-4.40018E-13
 -1        75-1.34606E-04-2.96867E-04 1.61392E-25 5.01120E-04 1.44166E-13-2.59870E-13
 -1        76 1.23935E-04-1.69271E-03 6.34132E-26 6.18233E-04 1.61261E-13-1.16360E-13
 -1        77 4.80292E-04-3.59078E-03 4.40147E-26 8.94848E-04 1.69767E-13 4.62008E-14
 -1        78 1.07781E-03-6.53452E-03 1.19145E-25 1.26958E-03 1.80916E-13 1.97924E-13
 -1        79 1.91359E-03-1.04523E-02 3.69701E-25 1.46114E-03 1.48011E-13 4.20772E-13
 -1        80 2.75243E-03-1.44345E-02 7.22024E-25 1.28646E-03 3.63178E-14 6.07745E-13
 -1        81 3.36159E-03-1.74394E-02 8.86590E-25 8.53846E-04-1.15376E-13 6.60979E-13
 -1        82 3.66482E-03-1.90649E-02 6.84945E-25 4.41882E-04-2.44136E-13 5.41371E-13
 -1        83 3.76294E-03-1.97375E-02 2.97064E-25 2.83192E-04-2.76081E-13 2.87870E-13
 -1        84 3.86089E-03-2.03940E-02 9.33600E-26 4.53173E-04-2.02710E-13 9.70541E-14
 -1        85 4.15604E-03-2.19667E-02 3.66419E-26 8.38677E-04-1.09783E-13 8.41142E-14
 -1        86 4.81082E-03-2.48431E-02 2.50601E-26 1.32765E-03-4.30483E-14 1.05870E-13
 -1        87 5.29124E-03-2.91639E-02 3.97726E-26 1.36396E-03-2.41901E-14 1.40176E-13
 -1        88 8.12868E-03-3.29279E-02 3.11142E-26 3.05646E-03-3.80061E-14 1.25251E-13
 -1        89-9.52949E-04 8.71409E-04 2.76975E-26 1.58311E-03-1.58366E-14 1.22512E-13
 -1        90-1.01643E-03 1.23068E-03 5.01535E-26 2.18678E-03-3.05890E-14 1.56032E-13
 -1        91-9.10832E-04 1.28408E-03 3.05644E-26 1.62757E-03-4.96355E-14 1.15490E-13
 -1        92-8.81643E-04 1.33537E-03 2.05822E-26 1.08429E-03-8.41249E-14 6.10702E-14
 -1        93-8.58723E-04 1.34343E-03 3.18776E-26 5.55348E-04-1.13938E-13 8.90785E-14
 -1        94-8.58412E-04 1.30688E-03 1.61438E-25 3.38946E-04-1.17500E-13 2.83178E-13
 -1        95-8.01894E-04 1.24865E-03 6.13311E-25 5.53417E-04-1.15693E-13 5.50951E-13
 -1        96-7.57195E-04 1.20104E-03 9.90383E-25 1.09423E-03-9.42633E-14 6.98146E-13
 -1        97-6.98631E-04 1.17692E-03 8.17104E-25 1.66036E-03-5.98372E-14 6.40173E-13
 -1        98-6.60061E-04 1.15486E-03 3.43134E-25 1.89337E-03-3.20885E-14 4.29455E-13
 -1        99-5.80840E-04 1.10550E-03 5.14803E-26 1.64264E-03-1.36070E-14 1.96395E-13
 -1       100-5.27624E-04 1.03373E-03-1.49815E-26 1.14421E-03-2.61332E-15 3.59182E-14
 -1       101-4.85204E-04 9.65607E-04 1.27397E-26 7.79274E-04 6.04812E-15-1.17990E-13
 -1       102-4.63760E-04 9.06670E-04 1.21356E-25 6.35705E-04 6.09601E-15-2.62588E-13
 -1       103-4.10823E-04 8.49099E-04 4.09616E-25 4.68349E-04-2.34095E-14-4.60976E-13
 -1       104-3.83070E-04 7.91474E-04 8.08118E-25 1.27002E-04-2.55290E-14-6.37435E-13
 -1       105-3.50001E-04 7.17835E-04 9.56563E-25-1.88649E-04-9.12396E-15-6.93153E-13
 -1       106-2.95991E-04 5.96890E-04 5.46477E-25-2.30426E-04-6.92588E-15-5.37849E-13
 -1       107-1.91013E-04 4.20422E-04 6.02565E-26-9.57688E-05-2.58142E-14-2.46145E-13
 -1       108-1.91013E-04 4.20422E-04 6.02217E-26-9.57688E-05-2.58031E-14-2.46097E-13
 -1       109-2.95991E-04 5.96890E-04 5.46464E-25-2.30426E-04-6.92496E-15-5.37847E-13
 -1       110-3.50001E-04 7.17835E-04 9.56575E-25-1.88649E-04-9.12514E-15-6.93157E-13
 -1       111-3.83070E-04 7.91474E-04 8.08196E-25 1.27002E-04-2.55349E-14-6.37466E-13
 -1       112-4.10823E-04 8.49099E-04 4.09606E-25 4.68349E-04-2.34082E-14-4.60972E-13
 -1       113-4.63760E-04 9.06670E-04 1.21359E-25 6.35705E-04 6.09501E-15-2.62590E-13
 -1       114-4.85204E-04 9.65607E-04 1.27452E-26 7.79274E-04 6.04802E-15-1.18002E-13
 -1       115-5.27624E-04 1.03373E-03-1.49770E-26 1.14421E-03-2.60959E-15 3.59358E-14
 -1       116-5.80840E-04 1.10550E-03 5.14725E-26 1.64264E-03-1.36098E-14 1.96381E-13
 -1       117-6.60061E-04 1.15486E-03 3.43115E-25 1.89337E-03-3.20901E-14 4.29445E-13
 -1       118-6.98631E-04 1.17692E-03 8.17103E-25 1.66036E-03-5.98380E-14 6.40174E-13
 -1       119-7.57195E-04 1.20104E-03 9.90378E-25 1.09423E-03-9.42636E-14 6.98144E-13
 -1       120-8.01894E-04 1.24865E-03 6.13308E-25 5.53417E-04-1.15693E-13 5.50950E-13
 -1       121-8.58412E-04 1.30688E-03 1.61439E-25 3.38946E-04-1.17499E-13 2.83179E-13
 -1       122-8.58723E-04 1.34343E-03 3.18773E-26 5.55348E-04-1.13938E-13 8.90780E-14
 -1       123-8.81643E-04 1.33537E-03 2.05822E-26 1.08429E-03-8.41239E-14 6.10720E-14
 -1       124-9.10832E-04 1.28408E-03 3.05646E-26 1.62757E-03-4.96357E-14 1.15490E-13
 -1       125-1.01643E-03 1.23068E-03 5.01534E-26 2.18678E-03-3.05891E-14 1.56032E-13
 -1       126-9.52949E-04 8.71409E-04 2.76976E-26 1.58311E-03-1.58366E-14 1.22512E-13
 -3
    1PSTEP                       232          58           1          
  100CL  158 5.80000E-01         126                     1   58           1
 -4  ERROR       1    1
 -5  STR(%)      1    1    0    0
 -1         1 6.22624E+01
 -1         2 6.22624E+01
 -1         3 1.63758E+01
 -1         4 1.63758E+01
 -1         5 4.85856E+01
 -1         6 4.85856E+01
 -1         7 6.23841E+01
 -1         8 6.23841E+01
 -1         9 4.85856E+01
 -1        10 4.85856E+01
 -1        11 6.23841E+01
 -1        12 6.23841E+01
 -1        13 6.22624E+01
 -1        14 5.97738E+01
 -1        15 5.93456E+01
 -1        16 5.84116E+01
 -1        17 5.74040E+01
 -1        18 5.67997E+01
 -1        19 5.73182E+01
 -1        20 5.76045E+01
 -1        21 5.76045E+01
 -1        22 5.66139E+01
 -1        23 5.33792E+01
 -1        24 4.91604E+01
 -1        25 4.41358E+01
 -1        26 3.54537E+01
 -1        27 4.41955E+01
 -1        28 7.87547E+01
 -1        29 7.87547E+01
 -1        30 3.29063E+01
 -1        31 1.63758E+01
 -1        32 6.22624E+01
 -1        33 5.97738E+01
 -1        34 5.93456E+01
 -1        35 5.84116E+01
 -1        36 5.74040E+01
 -1        37 5.67997E+01
 -1        38 5.73182E+01
 -1        39 5.76045E+01
 -1        40 5.76045E+01
 -1        41 5.66139E+01
 -1        42 5.33792E+01
 -1        43 4.91604E+01
 -1        44 4.41358E+01
 -1        45 3.54537E+01
 -1        46 4.41955E+01
 -1        47 7.87547E+01
 -1        48 7.87547E+01
 -1        49 3.29063E+01
 -1        50 1.63758E+01
 -1        51 4.85856E+01
 -1        52 2.06594E+01
 -1        53 2.52619E+01
 -1        54 2.52619E+01
 -1        55 3.19895E+01
 -1        56 8.93696E+01
 -1        57 8.93696E+01
 -1        58 7.75097E+01
 -1        59 7.18656E+01
 -1        60 6.97236E+01
 -1        61 6.89422E+01
 -1        62 6.70743E+01
 -1        63 6.51065E+01
 -1        64 6.42710E+01
 -1        65 6.50120E+01
 -1        66 6.52212E+01
 -1        67 6.52212E+01
 -1        68 6.46689E+01
 -1        69 6.37631E+01
 -1        70 4.85856E+01
 -1        71 2.06594E+01
 -1        72 2.52619E+01
 -1        73 2.52619E+01
 -1        74 3.19895E+01
 -1        75 8.93696E+01
 -1        76 8.93696E+01
 -1        77 7.75097E+01
 -1        78 7.18656E+01
 -1        79 6.97236E+01
 -1        80 6.89422E+01
 -1        81 6.70743E+01
 -1        82 6.51065E+01
 -1        83 6.42710E+01
 -1        84 6.50120E+01
 -1        85 6.52212E+01
 -1        86 6.52212E+01
 -1        87 6.46689E+01
 -1        88 6.37631E+01
 -1        89 6.37631E+01
 -1        90 6.46689E+01
 -1        91 6.52212E+01
 -1        92 6.52212E+01
 -1        93 6.50120E+01
 -1        94 6.42710E+01
 -1        95 6.51065E+01
 -1        96 6.70743E+01
 -1        97 6.89422E+01
 -1        98 6.97236E+01
 -1        99 7.18656E+01
 -1       100 7.75097E+01
 -1       101 8.93696E+01
 -1       102 8.93696E+01
 -1       103 4.41955E+01
 -1       104 7.87547E+01
 -1       105 7.87547E+01
 -1       106 3.29063E+01
 -1       107 4.85856E+01
 -1       108 4.85856E+01
 -1       109 3.29063E+01
 -1       110 7.87547E+01
 -1       111 7.87547E+01
 -1       112 4.41955E+01
 -1       113 8.93696E+01
 -1       114 8.93696E+01
 -1       115 7.75097E+01
 -1       116 7.18656E+01
 -1       117 6.97236E+01
 -1       118 6.89422E+01
 -1       119 6.70743E+01
 -1       120 6.51065E+01
 -1       121 6.42710E+01
 -1       122 6.50120E+01
 -1       123 6.52212E+01
 -1       124 6.52212E+01
 -1       125 6.46689E+01
 -1       126 6.37631E+01
 -3
    1PSTEP                       233          59           1          
  100CL  159 5.90000E-01         126                     1   59           1
 -4  DISP        4    1
 -5  D1          1    2    1    0
 -5  D2          1    2    2    0
 -5  D3          1    2    3    0
 -5  ALL         1    2    0    0    1ALL
 -1         1 0.00000E+00 0.00000E+00 0.00000E+00
 -1         2 0.00000E+00 0.00000E+00 0.00000E+00
 -1         3 2.03999E-01-9.65261E-03 0.00000E+00
 -1         4 2.03999E-01-9.65261E-03 0.00000E+00
 -1         5 2.00304E-01-3.65550E-02 0.00000E+00
 -1         6 2.00304E-01-3.65550E-02 0.00000E+00
 -1         7 0.00000E+00 0.00000E+00 0.00000E+00
 -1         8 0.00000E+00 0.00000E+00 0.00000E+00
 -1         9 2.02149E-01-2.30978E-02 0.00000E+00
 -1        10 2.02149E-01-2.30978E-02 0.00000E+00
 -1        11 0.00000E+00 0.00000E+00 0.00000E+00
 -1        12 0.00000E+00 0.00000E+00 0.00000E+00
 -1        13 1.52323E-03 1.78535E-03 0.00000E+00
 -1        14 4.41350E-03 3.36123E-03 0.00000E+00
 -1        15 8.81166E-03 4.60061E-03 0.00000E+00
 -1        16 1.44558E-02 5.58337E-03 0.00000E+00
 -1        17 2.12681E-02 6.36178E-03 0.00000E+00
 -1        18 2.92644E-02 6.94881E-03 0.00000E+00
 -1        19 3.84671E-02 7.28973E-03 0.00000E+00
 -1        20 4.88160E-02 7.29403E-03 0.00000E+00
 -1        21 6.01094E-02 6.90982E-03 0.00000E+00
 -1        22 7.20930E-02 6.15915E-03 0.00000E+00
 -1        23 8.45442E-02 5.11750E-03 0.00000E+00
 -1        24 9.73346E-02 3.85960E-03 0.00000E+00
 -1        25 1.10381E-01 2.43733E-03 0.00000E+00
 -1        26 1.23615E-01 8.79492E-04 0.00000E+00
 -1        27 1.36953E-01-7.85309E-04 0.00000E+00
 -1        28 1.50330E-01-2.52005E-03 0.00000E+00
 -1        29 1.63710E-01-4.28103E-03 0.00000E+00
 -1        30 1.77108E-01-6.04875E-03 0.00000E+00
 -1        31 1.90543E-01-7.83470E-03 0.00000E+00
 -1        32 1.52323E-03 1.78535E-03 0.00000E+00
 -1        33 4.41350E-03 3.36123E-03 0.00000E+00
 -1        34 8.81166E-03 4.60061E-03 0.00000E+00
 -1        35 1.44558E-02 5.58337E-03 0.00000E+00
 -1        36 2.12681E-02 6.36178E-03 0.00000E+00
 -1        37 2.92644E-02 6.94881E-03 0.00000E+00
 -1        38 3.84671E-02 7.28973E-03 0.00000E+00
 -1        39 4.88160E-02 7.29403E-03 0.00000E+00
 -1        40 6.01094E-02 6.90982E-03 0.00000E+00
 -1        41 7.20930E-02 6.15915E-03 0.00000E+00
 -1        42 8.45442E-02 5.11750E-03 0.00000E+00
 -1        43 9.73346E-02 3.85960E-03 0.00000E+00
 -1        44 1.10381E-01 2.43733E-03 0.00000E+00
 -1        45 1.23615E-01 8.79492E-04 0.00000E+00
 -1        46 1.36953E-01-7.85309E-04 0.00000E+00
 -1        47 1.50330E-01-2.52005E-03 0.00000E+00
 -1        48 1.63710E-01-4.28103E-03 0.00000E+00
 -1        49 1.77108E-01-6.04875E-03 0.00000E+00
 -1        50 1.90543E-01-7.83470E-03 0.00000E+00
 -1        51 1.86848E-01-3.47056E-02 0.00000E+00
 -1        52 1.73422E-01-3.28562E-02 0.00000E+00
 -1        53 1.60038E-01-3.10228E-02 0.00000E+00
 -1        54 1.46671E-01-2.92011E-02 0.00000E+00
 -1        55 1.33319E-01-2.73637E-02 0.00000E+00
 -1        56 1.20033E-01-2.54903E-02 0.00000E+00
 -1        57 1.06893E-01-2.35829E-02 0.00000E+00
 -1        58 9.39792E-02-2.16556E-02 0.00000E+00
 -1        59 8.13643E-02-1.97135E-02 0.00000E+00
 -1        60 6.91408E-02-1.77451E-02 0.00000E+00
 -1        61 5.74586E-02-1.57351E-02 0.00000E+00
 -1        62 4.65315E-02-1.36946E-02 0.00000E+00
 -1        63 3.65884E-02-1.16808E-02 0.00000E+00
 -1        64 2.77853E-02-9.77774E-03 0.00000E+00
 -1        65 2.01541E-02-8.04328E-03 0.00000E+00
 -1        66 1.36532E-02-6.46619E-03 0.00000E+00
 -1        67 8.27591E-03-4.96981E-03 0.00000E+00
 -1        68 4.09520E-03-3.45154E-03 0.00000E+00
 -1        69 1.37967E-03-1.77652E-03 0.00000E+00
 -1        70 1.86848E-01-3.47056E-02 0.00000E+00
 -1        71 1.73422E-01-3.28562E-02 0.00000E+00
 -1        72 1.60038E-01-3.10228E-02 0.00000E+00
 -1        73 1.46671E-01-2.92011E-02 0.00000E+00
 -1        74 1.33319E-01-2.73637E-02 0.00000E+00
 -1        75 1.20033E-01-2.54903E-02 0.00000E+00
 -1        76 1.06893E-01-2.35829E-02 0.00000E+00
 -1        77 9.39792E-02-2.16556E-02 0.00000E+00
 -1        78 8.13643E-02-1.97135E-02 0.00000E+00
 -1        79 6.91408E-02-1.77451E-02 0.00000E+00
 -1        80 5.74586E-02-1.57351E-02 0.00000E+00
 -1        81 4.65315E-02-1.36946E-02 0.00000E+00
 -1        82 3.65884E-02-1.16808E-02 0.00000E+00
 -1        83 2.77853E-02-9.77774E-03 0.00000E+00
 -1        84 2.01541E-02-8.04328E-03 0.00000E+00
 -1        85 1.36532E-02-6.46619E-03 0.00000E+00
 -1        86 8.27591E-03-4.96981E-03 0.00000E+00
 -1        87 4.09520E-03-3.45154E-03 0.00000E+00
 -1        88 1.37967E-03-1.77652E-03 0.00000E+00
 -1        89 9.96439E-04 1.26222E-05 0.00000E+00
 -1        90 3.94539E-03-2.05766E-05 0.00000E+00
 -1        91 8.26031E-03-1.54062E-04 0.00000E+00
 -1        92 1.37952E-02-4.08289E-04 0.00000E+00
 -1        93 2.04578E-02-8.03119E-04 0.00000E+00
 -1        94 2.82743E-02-1.37045E-03 0.00000E+00
 -1        95 3.72945E-02-2.14742E-03 0.00000E+00
 -1        96 4.74733E-02-3.15409E-03 0.00000E+00
 -1        97 5.86260E-02-4.37365E-03 0.00000E+00
 -1        98 7.04979E-02-5.76192E-03 0.00000E+00
 -1        99 8.28672E-02-7.27415E-03 0.00000E+00
 -1       100 9.55917E-02-8.87979E-03 0.00000E+00
 -1       101 1.08589E-01-1.05593E-02 0.00000E+00
 -1       102 1.21791E-01-1.22956E-02 0.00000E+00
 -1       103 1.35119E-01-1.40686E-02 0.00000E+00
 -1       104 1.48492E-01-1.58572E-02 0.00000E+00
 -1       105 1.61866E-01-1.76486E-02 0.00000E+00
 -1       106 1.75256E-01-1.94480E-02 0.00000E+00
 -1       107 1.88690E-01-2.12659E-02 0.00000E+00
 -1       108 1.88690E-01-2.12659E-02 0.00000E+00
 -1       109 1.75256E-01-1.94480E-02 0.00000E+00
 -1       110 1.61866E-01-1.76486E-02 0.00000E+00
 -1       111 1.48492E-01-1.58572E-02 0.00000E+00
 -1       112 1.35119E-01-1.40686E-02 0.00000E+00
 -1       113 1.21791E-01-1.22956E-02 0.00000E+00
 -1       114 1.08589E-01-1.05593E-02 0.00000E+00
 -1       115 9.55917E-02-8.87979E-03 0.00000E+00
 -1       116 8.28672E-02-7.27415E-03 0.00000E+00
 -1       117 7.04979E-02-5.76192E-03 0.00000E+00
 -1       118 5.86260E-02-4.37365E-03 0.00000E+00
 -1       119 4.74733E-02-3.15409E-03 0.00000E+00
 -1       120 3.72945E-02-2.14742E-03 0.00000E+00
 -1       121 2.82743E-02-1.37045E-03 0.00000E+00
 -1       122 2.04578E-02-8.03119E-04 0.00000E+00
 -1       123 1.37952E-02-4.08289E-04 0.00000E+00
 -1       124 8.26031E-03-1.54062E-04 0.00000E+00
 -1       125 3.94539E-03-2.05766E-05 0.00000E+00
 -1       126 9.96439E-04 1.26222E-05 0.00000E+00
 -3
    1PSTEP                       234          59           1          
  100CL  159 5.90000E-01         126                     1   59           1
 -4  STRESS      6    1
 -5  SXX         1    4    1    1
 -5  SYY         1    4    2    2
 -5  SZZ         1    4    3    3
 -5  SXY         1    4    1    2
 -5  SYZ         1    4    2    3
 -5  SZX         1    4    3    1
 -1         1 8.43978E+03 2.02561E+04 8.20005E+03 5.22138E+03 1.46851E-10 1.05074E-10
 -1         2 8.43978E+03 2.02561E+04 8.20005E+03 5.22138E+03 1.46851E-10 1.05074E-10
 -1         3 4.95727E+01 2.22338E+02 8.15075E+01 5.92228E+01 8.99243E-08 1.76221E-07
 -1         4 4.95727E+01 2.22338E+02 8.15075E+01 5.92228E+01 8.99235E-08 1.76221E-07
 -1         5-3.30012E+01-5.12795E+01-2.52787E+01-9.04304E+00-1.75089E-07 1.06639E-07
 -1         6-3.30012E+01-5.12795E+01-2.52787E+01-9.04304E+00-1.75089E-07 1.06634E-07
 -1         7-8.07587E+03-1.81804E+04-8.25783E+03 3.77994E+03 2.77535E-10-2.44024E-10
 -1         8-8.07587E+03-1.81804E+04-8.25783E+03 3.77994E+03 2.77535E-10-2.44024E-10
 -1         9 2.61178E+01 1.08353E+02 4.03270E+01 3.66210E+01-3.65571E-08 1.41157E-07
 -1        10 2.61178E+01 1.08353E+02 4.03270E+01 3.66210E+01-3.65555E-08 1.41157E-07
 -1        11 1.76359E+02-1.97306E+01 1.04073E+02 3.06034E+03 2.22932E-10-3.34077E-11
 -1        12 1.76359E+02-1.97306E+01 1.04073E+02 3.06034E+03 2.22932E-10-3.34077E-11
 -1        13 2.84585E+03 1.71063E+04 5.72050E+03 1.67927E+03-2.83859E-10 2.59347E-08
 -1        14 3.48393E+03 1.55209E+04 5.47607E+03 1.27068E+03-1.65735E-08 5.61303E-08
 -1        15 3.00105E+03 1.35123E+04 4.78129E+03 1.37275E+03-3.58104E-08 3.71899E-08
 -1        16 2.83646E+03 1.24915E+04 4.44952E+03 1.35440E+03-3.84075E-08 1.66631E-08
 -1        17 2.76872E+03 1.20318E+04 4.29975E+03 1.45247E+03-2.57990E-08 4.17208E-09
 -1        18 2.74146E+03 1.16300E+04 4.17675E+03 1.66676E+03-1.57529E-08 2.17158E-08
 -1        19 2.71647E+03 1.07500E+04 3.92049E+03 1.88021E+03-2.46396E-08 6.25784E-08
 -1        20 2.50703E+03 9.18056E+03 3.41522E+03 1.93226E+03-4.01947E-08 7.44587E-08
 -1        21 2.11871E+03 7.25329E+03 2.75210E+03 1.75206E+03-3.41196E-08 6.19006E-08
 -1        22 1.62806E+03 5.44854E+03 2.08819E+03 1.43146E+03-2.14883E-08 8.65706E-08
 -1        23 1.23726E+03 4.07481E+03 1.57368E+03 1.10470E+03-2.42940E-08 9.72386E-08
 -1        24 9.17898E+02 3.05932E+03 1.18155E+03 8.59517E+02-3.44876E-08 9.49050E-08
 -1        25 6.65570E+02 2.24273E+03 8.65866E+02 6.74400E+02-4.32566E-08 5.41460E-08
 -1        26 4.23155E+02 1.51031E+03 5.76758E+02 5.05288E+02-4.98282E-08-5.76658E-09
 -1        27 2.55216E+02 9.34634E+02 3.55602E+02 3.32616E+02-3.76465E-08-8.06862E-08
 -1        28 1.20197E+02 5.92961E+02 2.13413E+02 1.98716E+02 2.85638E-09-1.47073E-07
 -1        29 5.79363E+01 4.97591E+02 1.66310E+02 1.29441E+02 5.93414E-08-1.59982E-07
 -1        30 3.90254E+01 4.58224E+02 1.48870E+02 1.13276E+02 1.09067E-07-1.12031E-07
 -1        31 4.26063E+01 3.22045E+02 1.09228E+02 8.48897E+01 1.16567E-07 3.30849E-08
 -1        32 2.84585E+03 1.71063E+04 5.72050E+03 1.67927E+03-2.83855E-10 2.59347E-08
 -1        33 3.48393E+03 1.55209E+04 5.47607E+03 1.27068E+03-1.65735E-08 5.61303E-08
 -1        34 3.00105E+03 1.35123E+04 4.78129E+03 1.37275E+03-3.58104E-08 3.71896E-08
 -1        35 2.83646E+03 1.24915E+04 4.44952E+03 1.35440E+03-3.84074E-08 1.66633E-08
 -1        36 2.76872E+03 1.20318E+04 4.29975E+03 1.45247E+03-2.57990E-08 4.17117E-09
 -1        37 2.74146E+03 1.16300E+04 4.17675E+03 1.66676E+03-1.57526E-08 2.17131E-08
 -1        38 2.71647E+03 1.07500E+04 3.92049E+03 1.88021E+03-2.46401E-08 6.25800E-08
 -1        39 2.50703E+03 9.18056E+03 3.41522E+03 1.93226E+03-4.01947E-08 7.44587E-08
 -1        40 2.11871E+03 7.25329E+03 2.75210E+03 1.75206E+03-3.41195E-08 6.19006E-08
 -1        41 1.62806E+03 5.44854E+03 2.08819E+03 1.43146E+03-2.14884E-08 8.65706E-08
 -1        42 1.23726E+03 4.07481E+03 1.57368E+03 1.10470E+03-2.42939E-08 9.72381E-08
 -1        43 9.17898E+02 3.05932E+03 1.18155E+03 8.59517E+02-3.44877E-08 9.49068E-08
 -1        44 6.65570E+02 2.24273E+03 8.65866E+02 6.74400E+02-4.32566E-08 5.41460E-08
 -1        45 4.23155E+02 1.51031E+03 5.76758E+02 5.05288E+02-4.98283E-08-5.76658E-09
 -1        46 2.55216E+02 9.34634E+02 3.55602E+02 3.32616E+02-3.76465E-08-8.06862E-08
 -1        47 1.20197E+02 5.92961E+02 2.13413E+02 1.98716E+02 2.85638E-09-1.47073E-07
 -1        48 5.79363E+01 4.97591E+02 1.66310E+02 1.29441E+02 5.93420E-08-1.60002E-07
 -1        49 3.90254E+01 4.58224E+02 1.48870E+02 1.13276E+02 1.09067E-07-1.12011E-07
 -1        50 4.26063E+01 3.22045E+02 1.09228E+02 8.48897E+01 1.16567E-07 3.30803E-08
 -1        51-5.68454E+01-1.02896E+02-4.79245E+01-3.54444E+00-1.16805E-07-4.36321E-08
 -1        52-7.66919E+01-1.18123E+02-5.84494E+01-1.50260E+01-4.15588E-08-1.41090E-07
 -1        53-8.72161E+01-8.54519E+01-5.17874E+01 4.37163E+00 3.15520E-08-1.73658E-07
 -1        54-9.58172E+01-1.77047E+02-8.18602E+01 3.78223E+01 7.38833E-08-1.30645E-07
 -1        55-1.70463E+02-5.41958E+02-2.13975E+02 2.58589E+01 7.45553E-08-4.47897E-08
 -1        56-3.25678E+02-1.13656E+03-4.39872E+02-5.23518E+01 5.23315E-08 2.82097E-08
 -1        57-5.33196E+02-1.84398E+03-7.16393E+02-1.67196E+02 2.23531E-08 7.24368E-08
 -1        58-7.64452E+02-2.64504E+03-1.02960E+03-2.85164E+02-5.25166E-09 9.42795E-08
 -1        59-1.04271E+03-3.67071E+03-1.42725E+03-4.01298E+02-2.79484E-08 8.68940E-08
 -1        60-1.40840E+03-5.06915E+03-1.96914E+03-5.46862E+02-3.23332E-08 6.84001E-08
 -1        61-1.87412E+03-6.80646E+03-2.65206E+03-7.50311E+02-2.82708E-08 6.50417E-08
 -1        62-2.37283E+03-8.56110E+03-3.35737E+03-9.87402E+02-3.72142E-08 7.19912E-08
 -1        63-2.77357E+03-9.87982E+03-3.89947E+03-1.17215E+03-4.82778E-08 5.79344E-08
 -1        64-2.97326E+03-1.05330E+04-4.16842E+03-1.21344E+03-4.28769E-08 2.38741E-08
 -1        65-3.01297E+03-1.07645E+04-4.25235E+03-1.08579E+03-2.66115E-08 1.38876E-08
 -1        66-3.06112E+03-1.11390E+04-4.38515E+03-8.45585E+02-9.39620E-09 2.25000E-08
 -1        67-3.20871E+03-1.20914E+04-4.73692E+03-5.39317E+02-1.00558E-08 5.03869E-08
 -1        68-3.88478E+03-1.40366E+04-5.57856E+03-3.01292E+02-1.58948E-08 6.09488E-08
 -1        69-3.18312E+03-1.54660E+04-5.84007E+03 5.22653E+02-1.49879E-08 4.19646E-08
 -1        70-5.68454E+01-1.02896E+02-4.79245E+01-3.54444E+00-1.16805E-07-4.36222E-08
 -1        71-7.66919E+01-1.18123E+02-5.84494E+01-1.50260E+01-4.15557E-08-1.41106E-07
 -1        72-8.72161E+01-8.54519E+01-5.17874E+01 4.37163E+00 3.15519E-08-1.73653E-07
 -1        73-9.58172E+01-1.77047E+02-8.18602E+01 3.78223E+01 7.38831E-08-1.30632E-07
 -1        74-1.70463E+02-5.41958E+02-2.13975E+02 2.58589E+01 7.45552E-08-4.47931E-08
 -1        75-3.25678E+02-1.13656E+03-4.39872E+02-5.23518E+01 5.23315E-08 2.82100E-08
 -1        76-5.33196E+02-1.84398E+03-7.16393E+02-1.67196E+02 2.23531E-08 7.24361E-08
 -1        77-7.64452E+02-2.64504E+03-1.02960E+03-2.85164E+02-5.25548E-09 9.42902E-08
 -1        78-1.04271E+03-3.67071E+03-1.42725E+03-4.01298E+02-2.79474E-08 8.68772E-08
 -1        79-1.40840E+03-5.06915E+03-1.96914E+03-5.46862E+02-3.23316E-08 6.84002E-08
 -1        80-1.87412E+03-6.80646E+03-2.65206E+03-7.50311E+02-2.82713E-08 6.50413E-08
 -1        81-2.37283E+03-8.56110E+03-3.35737E+03-9.87402E+02-3.72142E-08 7.19910E-08
 -1        82-2.77357E+03-9.87982E+03-3.89947E+03-1.17215E+03-4.82777E-08 5.79320E-08
 -1        83-2.97326E+03-1.05330E+04-4.16842E+03-1.21344E+03-4.28778E-08 2.38731E-08
 -1        84-3.01297E+03-1.07645E+04-4.25235E+03-1.08579E+03-2.66110E-08 1.38880E-08
 -1        85-3.06112E+03-1.11390E+04-4.38515E+03-8.45585E+02-9.39609E-09 2.25001E-08
 -1        86-3.20871E+03-1.20914E+04-4.73692E+03-5.39317E+02-1.00562E-08 5.03868E-08
 -1        87-3.88478E+03-1.40366E+04-5.57856E+03-3.01292E+02-1.58948E-08 6.09488E-08
 -1        88-3.18312E+03-1.54660E+04-5.84007E+03 5.22653E+02-1.49879E-08 4.19646E-08
 -1        89-6.33684E+01-6.51112E+01-1.80683E+01 5.85521E+02-8.96334E-09 3.73390E-08
 -1        90-5.09858E+01 9.14386E+01 4.38880E+01 6.93408E+02-1.80367E-08 5.55683E-08
 -1        91-2.94048E+01 1.66264E+02 6.38365E+01 4.33422E+02-2.12239E-08 5.08227E-08
 -1        92-5.64365E+01 2.10322E+02 6.61044E+01 2.36464E+02-2.21814E-08 1.58473E-08
 -1        93-7.40527E+01 2.16076E+02 5.99970E+01 1.25654E+02-2.27630E-08 8.34651E-09
 -1        94-6.03410E+01 1.57017E+02 4.37261E+01 1.78233E+02-2.69944E-08 2.21137E-08
 -1        95 3.72658E+01 7.24847E+01 4.48487E+01 3.49443E+02-3.65646E-08 6.00905E-08
 -1        96 1.37337E+02 2.80867E+00 5.09748E+01 5.15355E+02-3.85496E-08 7.50067E-08
 -1        97 1.90190E+02-6.34623E-01 6.28687E+01 5.71189E+02-3.29194E-08 6.30556E-08
 -1        98 1.68514E+02 4.42802E+01 6.73656E+01 5.15182E+02-3.06163E-08 7.32315E-08
 -1        99 1.40826E+02 1.08498E+02 7.67082E+01 4.11524E+02-2.70617E-08 1.00865E-07
 -1       100 1.07557E+02 1.45146E+02 7.67020E+01 3.32654E+02-1.83999E-08 9.59309E-08
 -1       101 9.31756E+01 1.59104E+02 7.59846E+01 2.93887E+02-1.08557E-08 7.00827E-08
 -1       102 7.49652E+01 1.58574E+02 7.00687E+01 2.66300E+02-1.16659E-09 1.46873E-08
 -1       103 6.16143E+01 1.75124E+02 7.09517E+01 2.10534E+02 1.73554E-08-6.38756E-08
 -1       104 2.02197E+01 2.00044E+02 6.60017E+01 1.31144E+02 3.90640E-08-1.46827E-07
 -1       105-1.22112E+01 2.11147E+02 5.96153E+01 6.73934E+01 5.12870E-08-1.80011E-07
 -1       106-1.33342E+01 1.75787E+02 4.86742E+01 5.30333E+01 3.47789E-08-1.37856E-07
 -1       107 6.68646E+00 1.21971E+02 3.85711E+01 5.18294E+01 2.57432E-10-1.14989E-08
 -1       108 6.68646E+00 1.21971E+02 3.85711E+01 5.18294E+01 2.58913E-10-1.14969E-08
 -1       109-1.33342E+01 1.75787E+02 4.86742E+01 5.30333E+01 3.47775E-08-1.37860E-07
 -1       110-1.22112E+01 2.11147E+02 5.96153E+01 6.73934E+01 5.12869E-08-1.80013E-07
 -1       111 2.02197E+01 2.00044E+02 6.60017E+01 1.31144E+02 3.90643E-08-1.46827E-07
 -1       112 6.16143E+01 1.75124E+02 7.09517E+01 2.10534E+02 1.73555E-08-6.38756E-08
 -1       113 7.49652E+01 1.58574E+02 7.00687E+01 2.66300E+02-1.16658E-09 1.46867E-08
 -1       114 9.31756E+01 1.59104E+02 7.59846E+01 2.93887E+02-1.08556E-08 7.00840E-08
 -1       115 1.07557E+02 1.45146E+02 7.67020E+01 3.32654E+02-1.83994E-08 9.59260E-08
 -1       116 1.40826E+02 1.08498E+02 7.67082E+01 4.11524E+02-2.70623E-08 1.00869E-07
 -1       117 1.68514E+02 4.42802E+01 6.73656E+01 5.15182E+02-3.06163E-08 7.32313E-08
 -1       118 1.90190E+02-6.34623E-01 6.28687E+01 5.71189E+02-3.29194E-08 6.30565E-08
 -1       119 1.37337E+02 2.80867E+00 5.09748E+01 5.15355E+02-3.85495E-08 7.50065E-08
 -1       120 3.72658E+01 7.24847E+01 4.48487E+01 3.49443E+02-3.65646E-08 6.00905E-08
 -1       121-6.03410E+01 1.57017E+02 4.37261E+01 1.78233E+02-2.69941E-08 2.21144E-08
 -1       122-7.40527E+01 2.16076E+02 5.99970E+01 1.25654E+02-2.27630E-08 8.34820E-09
 -1       123-5.64365E+01 2.10322E+02 6.61044E+01 2.36464E+02-2.21815E-08 1.58467E-08
 -1       124-2.94048E+01 1.66264E+02 6.38365E+01 4.33422E+02-2.12238E-08 5.08232E-08
 -1       125-5.09858E+01 9.14386E+01 4.38880E+01 6.93408E+02-1.80368E-08 5.55683E-08
 -1       126-6.33684E+01-6.51112E+01-1.80683E+01 5.85521E+02-8.96333E-09 3.73390E-08
 -3
    1PSTEP                       235          59           1          
  100CL  159 5.90000E-01         126                     1   59           1
 -4  TOSTRAIN    6    1
 -5  EXX         1    4    1    1
 -5  EYY         1    4    2    2
 -5  EZZ         1    4    3    3
 -5  EXY         1    4    1    2
 -5  EYZ         1    4    2    3
 -5  EZX         1    4    3    1
 -1         1-1.13832E-04 3.66937E-02-2.26977E-27 1.52321E-02 4.72056E-19 1.36216E-16
 -1         2-1.13832E-04 3.66937E-02-2.26977E-27 1.52321E-02 4.72056E-19 1.36216E-16
 -1         3-1.62906E-04 5.16216E-04 6.91031E-25 1.91341E-05 4.35223E-13 4.72998E-13
 -1         4-1.62906E-04 5.16216E-04 6.91031E-25 1.91341E-05 4.35220E-13 4.72999E-13
 -1         5-1.41661E-05-9.53843E-05 7.25079E-25-9.74081E-06-4.54820E-13 4.86970E-13
 -1         6-1.41661E-05-9.53844E-05 7.25080E-25-9.74081E-06-4.54824E-13 4.86952E-13
 -1         7-1.11733E-04-3.46293E-02-7.09446E-27 1.37965E-02 6.87788E-19-4.96756E-16
 -1         8-1.11733E-04-3.46293E-02-7.09446E-27 1.37965E-02 6.87788E-19-4.96756E-16
 -1         9-8.85360E-05 2.63305E-04 2.96459E-25 3.25079E-05 9.00361E-15 4.73813E-13
 -1        10-8.85360E-05 2.63305E-04 2.96459E-25 3.25079E-05 9.00912E-15 4.73814E-13
 -1        11-1.12782E-04 3.38230E-04-5.14650E-27 9.96422E-03 3.85906E-19-1.49413E-16
 -1        12-1.12782E-04 3.38230E-04-5.14650E-27 9.96422E-03 3.85906E-19-1.49413E-16
 -1        13-9.95169E-03 3.51457E-02 1.05032E-26 3.51171E-03 1.74688E-15 8.37334E-14
 -1        14-7.10541E-03 3.12488E-02 6.93540E-26 1.33075E-03-3.97279E-14 1.84668E-13
 -1        15-6.50184E-03 2.75337E-02 5.12230E-26 1.05426E-03-1.00615E-13 1.30919E-13
 -1        16-5.99313E-03 2.55456E-02 3.22785E-26 4.87292E-04-1.13559E-13 6.86225E-14
 -1        17-5.85320E-03 2.47377E-02 1.18569E-26 2.16094E-04-7.84748E-14 2.54021E-14
 -1        18-5.80820E-03 2.41441E-02 1.07012E-26 3.27949E-04-3.75879E-14 7.78436E-14
 -1        19-5.40470E-03 2.26032E-02 9.14172E-26 7.67611E-04-3.89552E-14 2.14121E-13
 -1        20-4.68873E-03 1.96498E-02 1.50112E-25 1.22141E-03-7.49515E-14 2.63338E-13
 -1        21-3.78470E-03 1.58180E-02 1.03896E-25 1.37808E-03-6.11357E-14 2.20671E-13
 -1        22-2.98274E-03 1.20944E-02 1.66219E-25 1.20200E-03-5.02369E-16 2.89425E-13
 -1        23-2.27225E-03 9.12768E-03 2.12391E-25 9.07720E-04 1.98313E-15 3.25314E-13
 -1        24-1.79425E-03 6.93487E-03 2.12054E-25 6.99900E-04-2.93910E-14 3.26605E-13
 -1        25-1.41275E-03 5.17617E-03 8.77570E-26 5.99127E-04-8.93243E-14 2.06490E-13
 -1        26-1.09268E-03 3.59728E-03 2.62864E-26 5.10155E-04-1.60399E-13 2.47861E-14
 -1        27-7.25566E-04 2.26871E-03 1.34545E-25 3.60073E-04-1.87106E-13-2.20128E-13
 -1        28-5.26137E-04 1.45171E-03 4.37108E-25 1.57930E-04-1.18390E-13-4.63120E-13
 -1        29-4.67137E-04 1.18827E-03 6.01903E-25-7.75723E-06 4.66951E-14-5.52636E-13
 -1        30-4.49665E-04 1.09512E-03 4.50967E-25-3.65331E-05 2.43540E-13-4.45837E-13
 -1        31-2.93938E-04 7.67508E-04 1.80843E-25 1.08376E-06 3.93420E-13 1.78233E-15
 -1        32-9.95169E-03 3.51457E-02 1.05032E-26 3.51171E-03 1.74689E-15 8.37334E-14
 -1        33-7.10541E-03 3.12488E-02 6.93540E-26 1.33075E-03-3.97279E-14 1.84668E-13
 -1        34-6.50184E-03 2.75337E-02 5.12225E-26 1.05426E-03-1.00615E-13 1.30918E-13
 -1        35-5.99313E-03 2.55456E-02 3.22787E-26 4.87292E-04-1.13559E-13 6.86232E-14
 -1        36-5.85320E-03 2.47377E-02 1.18565E-26 2.16094E-04-7.84753E-14 2.53992E-14
 -1        37-5.80820E-03 2.41441E-02 1.06970E-26 3.27949E-04-3.75883E-14 7.78348E-14
 -1        38-5.40470E-03 2.26032E-02 9.14205E-26 7.67611E-04-3.89557E-14 2.14127E-13
 -1        39-4.68873E-03 1.96498E-02 1.50112E-25 1.22141E-03-7.49516E-14 2.63338E-13
 -1        40-3.78470E-03 1.58180E-02 1.03896E-25 1.37808E-03-6.11356E-14 2.20671E-13
 -1        41-2.98274E-03 1.20944E-02 1.66219E-25 1.20200E-03-5.02735E-16 2.89426E-13
 -1        42-2.27225E-03 9.12768E-03 2.12389E-25 9.07720E-04 1.98309E-15 3.25312E-13
 -1        43-1.79425E-03 6.93487E-03 2.12061E-25 6.99900E-04-2.93895E-14 3.26611E-13
 -1        44-1.41275E-03 5.17617E-03 8.77569E-26 5.99127E-04-8.93242E-14 2.06490E-13
 -1        45-1.09268E-03 3.59728E-03 2.62864E-26 5.10155E-04-1.60399E-13 2.47861E-14
 -1        46-7.25566E-04 2.26871E-03 1.34545E-25 3.60073E-04-1.87106E-13-2.20128E-13
 -1        47-5.26137E-04 1.45171E-03 4.37108E-25 1.57930E-04-1.18390E-13-4.63120E-13
 -1        48-4.67137E-04 1.18827E-03 6.02032E-25-7.75723E-06 4.66793E-14-5.52700E-13
 -1        49-4.49665E-04 1.09512E-03 4.50864E-25-3.65331E-05 2.43558E-13-4.45774E-13
 -1        50-2.93938E-04 7.67508E-04 1.80848E-25 1.08376E-06 3.93415E-13 1.76826E-15
 -1        51-3.39299E-05-1.73740E-04 2.05142E-25 2.88709E-05-4.03859E-13-3.45247E-14
 -1        52-4.39413E-05-2.09348E-04 4.00365E-25-7.01299E-06-2.53163E-13-4.05599E-13
 -1        53-1.22143E-04-1.02287E-04 6.41178E-25 1.07087E-05-5.21843E-14-5.71385E-13
 -1        54-1.27586E-04-2.27107E-04 4.52874E-25 1.73497E-04 1.18130E-13-4.73468E-13
 -1        55 1.21251E-05-9.38705E-04 1.24478E-25 3.82599E-04 1.95140E-13-2.04991E-13
 -1        56 2.71596E-04-2.17506E-03 4.93018E-26 5.26804E-04 1.88795E-13 4.34002E-14
 -1        57 5.74129E-04-3.67163E-03 1.10798E-25 6.06187E-04 1.32089E-13 2.08442E-13
 -1        58 9.11260E-04-5.35858E-03 1.84740E-25 7.11805E-04 6.21625E-14 3.00919E-13
 -1        59 1.33369E-03-7.49045E-03 1.73942E-25 9.29308E-04-1.80365E-14 2.96676E-13
 -1        60 1.93580E-03-1.04146E-02 1.20719E-25 1.21942E-03-4.96355E-14 2.41639E-13
 -1        61 2.72191E-03-1.41159E-02 1.06391E-25 1.39425E-03-4.24910E-14 2.27445E-13
 -1        62 3.53154E-03-1.79242E-02 1.39029E-25 1.25309E-03-7.09702E-14 2.55186E-13
 -1        63 4.11522E-03-2.08045E-02 1.20033E-25 8.07788E-04-1.22014E-13 2.15645E-13
 -1        64 4.35816E-03-2.21840E-02 5.05999E-26 3.52896E-04-1.28491E-13 1.00284E-13
 -1        65 4.38261E-03-2.25628E-02 1.91060E-26 2.27325E-04-8.17079E-14 5.73717E-14
 -1        66 4.45409E-03-2.31937E-02 1.00800E-26 5.05345E-04-2.22804E-14 7.66010E-14
 -1        67 4.89180E-03-2.51105E-02 5.38617E-26 1.09917E-03-1.74456E-14 1.66944E-13
 -1        68 5.27668E-03-2.90140E-02 8.34964E-26 1.37037E-03-3.98794E-14 2.02338E-13
 -1        69 8.23229E-03-3.30924E-02 3.84014E-26 3.35893E-03-4.64996E-14 1.38824E-13
 -1        70-3.39299E-05-1.73740E-04 2.05143E-25 2.88709E-05-4.03853E-13-3.44926E-14
 -1        71-4.39413E-05-2.09348E-04 4.00466E-25-7.01299E-06-2.53168E-13-4.05653E-13
 -1        72-1.22143E-04-1.02287E-04 6.41142E-25 1.07087E-05-5.21797E-14-5.71367E-13
 -1        73-1.27586E-04-2.27107E-04 4.52811E-25 1.73497E-04 1.18141E-13-4.73427E-13
 -1        74 1.21251E-05-9.38705E-04 1.24495E-25 3.82599E-04 1.95137E-13-2.05002E-13
 -1        75 2.71596E-04-2.17506E-03 4.93026E-26 5.26804E-04 1.88795E-13 4.34011E-14
 -1        76 5.74129E-04-3.67163E-03 1.10797E-25 6.06187E-04 1.32089E-13 2.08440E-13
 -1        77 9.11260E-04-5.35858E-03 1.84783E-25 7.11805E-04 6.21592E-14 3.00955E-13
 -1        78 1.33369E-03-7.49045E-03 1.73877E-25 9.29308E-04-1.80470E-14 2.96623E-13
 -1        79 1.93580E-03-1.04146E-02 1.20718E-25 1.21942E-03-4.96301E-14 2.41639E-13
 -1        80 2.72191E-03-1.41159E-02 1.06390E-25 1.39425E-03-4.24928E-14 2.27444E-13
 -1        81 3.53154E-03-1.79242E-02 1.39029E-25 1.25309E-03-7.09703E-14 2.55186E-13
 -1        82 4.11522E-03-2.08045E-02 1.20028E-25 8.07788E-04-1.22015E-13 2.15637E-13
 -1        83 4.35816E-03-2.21840E-02 5.06016E-26 3.52896E-04-1.28494E-13 1.00281E-13
 -1        84 4.38261E-03-2.25628E-02 1.91057E-26 2.27325E-04-8.17062E-14 5.73729E-14
 -1        85 4.45409E-03-2.31937E-02 1.00800E-26 5.05345E-04-2.22800E-14 7.66014E-14
 -1        86 4.89180E-03-2.51105E-02 5.38619E-26 1.09917E-03-1.74470E-14 1.66944E-13
 -1        87 5.27668E-03-2.90140E-02 8.34963E-26 1.37037E-03-3.98793E-14 2.02338E-13
 -1        88 8.23229E-03-3.30924E-02 3.84014E-26 3.35893E-03-4.64996E-14 1.38824E-13
 -1        89-8.59698E-04 6.62325E-04 2.76043E-26 1.89282E-03-2.50844E-14 1.22382E-13
 -1        90-9.14363E-04 9.90078E-04 7.19389E-26 2.19655E-03-4.62411E-14 1.84478E-13
 -1        91-8.05020E-04 9.98590E-04 6.15483E-26 1.31844E-03-5.27773E-14 1.71214E-13
 -1        92-7.69517E-04 9.84490E-04 1.29202E-26 6.41060E-04-6.52674E-14 5.99267E-14
 -1        93-7.35291E-04 9.28494E-04 1.19262E-26 2.56962E-04-6.92482E-14 3.75268E-14
 -1        94-7.25018E-04 8.51064E-04 2.18935E-26 4.29935E-04-7.44544E-14 8.56228E-14
 -1        95-6.44742E-04 7.83146E-04 1.01275E-25 1.03072E-03-7.96253E-14 2.14553E-13
 -1        96-5.78595E-04 7.57050E-04 1.50295E-25 1.61372E-03-7.12660E-14 2.64982E-13
 -1        97-5.31397E-04 7.76428E-04 1.06911E-25 1.79885E-03-5.77285E-14 2.24120E-13
 -1        98-5.23472E-04 7.99877E-04 1.31593E-25 1.57327E-03-3.96857E-14 2.55128E-13
 -1        99-4.69281E-04 7.93248E-04 2.28974E-25 1.19513E-03-3.78579E-15 3.39500E-13
 -1       100-4.41495E-04 7.69355E-04 1.99746E-25 9.08244E-04 2.17273E-14 3.16764E-13
 -1       101-4.19310E-04 7.46290E-04 9.54662E-26 7.70326E-04 2.51740E-14 2.29119E-13
 -1       102-4.10541E-04 7.13237E-04-2.25826E-26 6.74626E-04 8.90366E-15 4.70397E-14
 -1       103-3.56720E-04 6.63920E-04 5.62108E-26 4.92055E-04-8.24942E-16-2.15166E-13
 -1       104-3.26861E-04 6.12863E-04 4.69079E-25 2.14805E-04-4.99879E-15-4.93852E-13
 -1       105-2.94640E-04 5.53001E-04 7.35345E-25 5.81346E-07 4.11645E-15-6.08404E-13
 -1       106-2.46803E-04 4.57742E-04 3.74190E-25-1.11511E-05-1.12274E-14-4.61997E-13
 -1       107-1.63934E-04 3.31081E-04-1.23279E-25 4.71028E-05-9.22260E-15-3.62187E-14
 -1       108-1.63934E-04 3.31081E-04-1.23292E-25 4.71028E-05-9.21625E-15-3.62139E-14
 -1       109-2.46803E-04 4.57742E-04 3.74193E-25-1.11511E-05-1.12352E-14-4.62007E-13
 -1       110-2.94640E-04 5.53001E-04 7.35355E-25 5.81346E-07 4.11478E-15-6.08408E-13
 -1       111-3.26861E-04 6.12863E-04 4.69079E-25 2.14805E-04-4.99772E-15-4.93853E-13
 -1       112-3.56720E-04 6.63920E-04 5.62109E-26 4.92055E-04-8.24600E-16-2.15166E-13
 -1       113-4.10541E-04 7.13237E-04-2.25841E-26 6.74626E-04 8.90321E-15 4.70378E-14
 -1       114-4.19310E-04 7.46290E-04 9.54688E-26 7.70326E-04 2.51756E-14 2.29123E-13
 -1       115-4.41495E-04 7.69355E-04 1.99725E-25 9.08244E-04 2.17249E-14 3.16748E-13
 -1       116-4.69281E-04 7.93248E-04 2.28995E-25 1.19513E-03-3.78346E-15 3.39516E-13
 -1       117-5.23472E-04 7.99877E-04 1.31592E-25 1.57327E-03-3.96857E-14 2.55127E-13
 -1       118-5.31397E-04 7.76428E-04 1.06914E-25 1.79885E-03-5.77278E-14 2.24122E-13
 -1       119-5.78595E-04 7.57050E-04 1.50294E-25 1.61372E-03-7.12659E-14 2.64981E-13
 -1       120-6.44742E-04 7.83146E-04 1.01275E-25 1.03072E-03-7.96254E-14 2.14553E-13
 -1       121-7.25018E-04 8.51064E-04 2.18941E-26 4.29935E-04-7.44532E-14 8.56249E-14
 -1       122-7.35291E-04 9.28494E-04 1.19270E-26 2.56962E-04-6.92476E-14 3.75323E-14
 -1       123-7.69517E-04 9.84490E-04 1.29197E-26 6.41060E-04-6.52679E-14 5.99246E-14
 -1       124-8.05020E-04 9.98590E-04 6.15493E-26 1.31844E-03-5.27769E-14 1.71216E-13
 -1       125-9.14363E-04 9.90078E-04 7.19389E-26 2.19655E-03-4.62414E-14 1.84478E-13
 -1       126-8.59698E-04 6.62325E-04 2.76043E-26 1.89282E-03-2.50844E-14 1.22382E-13
 -3
    1PSTEP                       236          59           1          
  100CL  159 5.90000E-01         126                     1   59           1
 -4  ERROR       1    1
 -5  STR(%)      1    1    0    0
 -1         1 6.29628E+01
 -1         2 6.29628E+01
 -1         3 2.60535E+01
 -1         4 2.60535E+01
 -1         5 8.19544E+01
 -1         6 8.19544E+01
 -1         7 6.24135E+01
 -1         8 6.24135E+01
 -1         9 8.19544E+01
 -1        10 8.19544E+01
 -1        11 6.29628E+01
 -1        12 6.29628E+01
 -1        13 6.29628E+01
 -1        14 6.03637E+01
 -1        15 5.98833E+01
 -1        16 5.89443E+01
 -1        17 5.81737E+01
 -1        18 5.88770E+01
 -1        19 5.96803E+01
 -1        20 5.96803E+01
 -1        21 5.94989E+01
 -1        22 5.84194E+01
 -1        23 5.66969E+01
 -1        24 5.50963E+01
 -1        25 5.29573E+01
 -1        26 4.95183E+01
 -1        27 4.20717E+01
 -1        28 3.26887E+01
 -1        29 3.10769E+01
 -1        30 3.51850E+01
 -1        31 3.51850E+01
 -1        32 6.29628E+01
 -1        33 6.03637E+01
 -1        34 5.98833E+01
 -1        35 5.89443E+01
 -1        36 5.81737E+01
 -1        37 5.88770E+01
 -1        38 5.96803E+01
 -1        39 5.96803E+01
 -1        40 5.94989E+01
 -1        41 5.84194E+01
 -1        42 5.66969E+01
 -1        43 5.50963E+01
 -1        44 5.29573E+01
 -1        45 4.95183E+01
 -1        46 4.20717E+01
 -1        47 3.26887E+01
 -1        48 3.10769E+01
 -1        49 3.51850E+01
 -1        50 3.51850E+01
 -1        51 9.69449E+01
 -1        52 9.69449E+01
 -1        53 8.90373E+01
 -1        54 8.51133E+01
 -1        55 8.51133E+01
 -1        56 7.63065E+01
 -1        57 7.63065E+01
 -1        58 7.45049E+01
 -1        59 7.15269E+01
 -1        60 6.89109E+01
 -1        61 6.68306E+01
 -1        62 6.53733E+01
 -1        63 6.39730E+01
 -1        64 6.25199E+01
 -1        65 6.23638E+01
 -1        66 6.34014E+01
 -1        67 6.38089E+01
 -1        68 6.38089E+01
 -1        69 6.33465E+01
 -1        70 9.69449E+01
 -1        71 9.69449E+01
 -1        72 8.90373E+01
 -1        73 8.51133E+01
 -1        74 8.51133E+01
 -1        75 7.63065E+01
 -1        76 7.63065E+01
 -1        77 7.45049E+01
 -1        78 7.15269E+01
 -1        79 6.89109E+01
 -1        80 6.68306E+01
 -1        81 6.53733E+01
 -1        82 6.39730E+01
 -1        83 6.25199E+01
 -1        84 6.23638E+01
 -1        85 6.34014E+01
 -1        86 6.38089E+01
 -1        87 6.38089E+01
 -1        88 6.33465E+01
 -1        89 6.33465E+01
 -1        90 6.38089E+01
 -1        91 6.38089E+01
 -1        92 6.34014E+01
 -1        93 6.23638E+01
 -1        94 6.25199E+01
 -1        95 6.39730E+01
 -1        96 6.53733E+01
 -1        97 6.68306E+01
 -1        98 6.89109E+01
 -1        99 7.15269E+01
 -1       100 7.45049E+01
 -1       101 7.63065E+01
 -1       102 7.63065E+01
 -1       103 8.51133E+01
 -1       104 8.51133E+01
 -1       105 8.90373E+01
 -1       106 9.69449E+01
 -1       107 9.69449E+01
 -1       108 9.69449E+01
 -1       109 9.69449E+01
 -1       110 8.90373E+01
 -1       111 8.51133E+01
 -1       112 8.51133E+01
 -1       113 7.63065E+01
 -1       114 7.63065E+01
 -1       115 7.45049E+01
 -1       116 7.15269E+01
 -1       117 6.89109E+01
 -1       118 6.68306E+01
 -1       119 6.53733E+01
 -1       120 6.39730E+01
 -1       121 6.25199E+01
 -1       122 6.23638E+01
 -1       123 6.34014E+01
 -1       124 6.38089E+01
 -1       125 6.38089E+01
 -1       126 6.33465E+01
 -3
    1PSTEP                       237          60           1          
  100CL  160 6.00000E-01         126                     1   60           1
 -4  DISP        4    1
 -5  D1          1    2    1    0
 -5  D2          1    2    2    0
 -5  D3          1    2    3    0
 -5  ALL         1    2    0    0    1ALL
 -1         1 0.00000E+00 0.00000E+00 0.00000E+00
 -1         2 0.00000E+00 0.00000E+00 0.00000E+00
 -1         3 2.10470E-01-1.08948E-02 0.00000E+00
 -1         4 2.10470E-01-1.08948E-02 0.00000E+00
 -1         5 2.06373E-01-3.92023E-02 0.00000E+00
 -1         6 2.06373E-01-3.92023E-02 0.00000E+00
 -1         7 0.00000E+00 0.00000E+00 0.00000E+00
 -1         8 0.00000E+00 0.00000E+00 0.00000E+00
 -1         9 2.08422E-01-2.50430E-02 0.00000E+00
 -1        10 2.08422E-01-2.50430E-02 0.00000E+00
 -1        11 0.00000E+00 0.00000E+00 0.00000E+00
 -1        12 0.00000E+00 0.00000E+00 0.00000E+00
 -1        13 1.52666E-03 1.76363E-03 0.00000E+00
 -1        14 4.38894E-03 3.31502E-03 0.00000E+00
 -1        15 8.73012E-03 4.55704E-03 0.00000E+00
 -1        16 1.43584E-02 5.58452E-03 0.00000E+00
 -1        17 2.12783E-02 6.42139E-03 0.00000E+00
 -1        18 2.95183E-02 7.02828E-03 0.00000E+00
 -1        19 3.90292E-02 7.32154E-03 0.00000E+00
 -1        20 4.96606E-02 7.22808E-03 0.00000E+00
 -1        21 6.11642E-02 6.74201E-03 0.00000E+00
 -1        22 7.33050E-02 5.92650E-03 0.00000E+00
 -1        23 8.59334E-02 4.86407E-03 0.00000E+00
 -1        24 9.89910E-02 3.59855E-03 0.00000E+00
 -1        25 1.12404E-01 2.14691E-03 0.00000E+00
 -1        26 1.26070E-01 5.35455E-04 0.00000E+00
 -1        27 1.39900E-01-1.18930E-03 0.00000E+00
 -1        28 1.53870E-01-2.99663E-03 0.00000E+00
 -1        29 1.67964E-01-4.88260E-03 0.00000E+00
 -1        30 1.82134E-01-6.84621E-03 0.00000E+00
 -1        31 1.96312E-01-8.86124E-03 0.00000E+00
 -1        32 1.52666E-03 1.76363E-03 0.00000E+00
 -1        33 4.38894E-03 3.31502E-03 0.00000E+00
 -1        34 8.73012E-03 4.55704E-03 0.00000E+00
 -1        35 1.43584E-02 5.58452E-03 0.00000E+00
 -1        36 2.12783E-02 6.42139E-03 0.00000E+00
 -1        37 2.95183E-02 7.02828E-03 0.00000E+00
 -1        38 3.90292E-02 7.32154E-03 0.00000E+00
 -1        39 4.96606E-02 7.22808E-03 0.00000E+00
 -1        40 6.11642E-02 6.74201E-03 0.00000E+00
 -1        41 7.33050E-02 5.92650E-03 0.00000E+00
 -1        42 8.59334E-02 4.86407E-03 0.00000E+00
 -1        43 9.89910E-02 3.59855E-03 0.00000E+00
 -1        44 1.12404E-01 2.14691E-03 0.00000E+00
 -1        45 1.26070E-01 5.35455E-04 0.00000E+00
 -1        46 1.39900E-01-1.18930E-03 0.00000E+00
 -1        47 1.53870E-01-2.99663E-03 0.00000E+00
 -1        48 1.67964E-01-4.88260E-03 0.00000E+00
 -1        49 1.82134E-01-6.84621E-03 0.00000E+00
 -1        50 1.96312E-01-8.86124E-03 0.00000E+00
 -1        51 1.92210E-01-3.71590E-02 0.00000E+00
 -1        52 1.78039E-01-3.51025E-02 0.00000E+00
 -1        53 1.63901E-01-3.30164E-02 0.00000E+00
 -1        54 1.49865E-01-3.09132E-02 0.00000E+00
 -1        55 1.35975E-01-2.88162E-02 0.00000E+00
 -1        56 1.22245E-01-2.67270E-02 0.00000E+00
 -1        57 1.08716E-01-2.46294E-02 0.00000E+00
 -1        58 9.54830E-02-2.25236E-02 0.00000E+00
 -1        59 8.26459E-02-2.04322E-02 0.00000E+00
 -1        60 7.02710E-02-1.83683E-02 0.00000E+00
 -1        61 5.84331E-02-1.63129E-02 0.00000E+00
 -1        62 4.72886E-02-1.42420E-02 0.00000E+00
 -1        63 3.70659E-02-1.21715E-02 0.00000E+00
 -1        64 2.79761E-02-1.01630E-02 0.00000E+00
 -1        65 2.01368E-02-8.28702E-03 0.00000E+00
 -1        66 1.35600E-02-6.57627E-03 0.00000E+00
 -1        67 8.21246E-03-4.99644E-03 0.00000E+00
 -1        68 4.08813E-03-3.45165E-03 0.00000E+00
 -1        69 1.39584E-03-1.77886E-03 0.00000E+00
 -1        70 1.92210E-01-3.71590E-02 0.00000E+00
 -1        71 1.78039E-01-3.51025E-02 0.00000E+00
 -1        72 1.63901E-01-3.30164E-02 0.00000E+00
 -1        73 1.49865E-01-3.09132E-02 0.00000E+00
 -1        74 1.35975E-01-2.88162E-02 0.00000E+00
 -1        75 1.22245E-01-2.67270E-02 0.00000E+00
 -1        76 1.08716E-01-2.46294E-02 0.00000E+00
 -1        77 9.54830E-02-2.25236E-02 0.00000E+00
 -1        78 8.26459E-02-2.04322E-02 0.00000E+00
 -1        79 7.02710E-02-1.83683E-02 0.00000E+00
 -1        80 5.84331E-02-1.63129E-02 0.00000E+00
 -1        81 4.72886E-02-1.42420E-02 0.00000E+00
 -1        82 3.70659E-02-1.21715E-02 0.00000E+00
 -1        83 2.79761E-02-1.01630E-02 0.00000E+00
 -1        84 2.01368E-02-8.28702E-03 0.00000E+00
 -1        85 1.35600E-02-6.57627E-03 0.00000E+00
 -1        86 8.21246E-03-4.99644E-03 0.00000E+00
 -1        87 4.08813E-03-3.45165E-03 0.00000E+00
 -1        88 1.39584E-03-1.77886E-03 0.00000E+00
 -1        89 1.00971E-03 2.08499E-06 0.00000E+00
 -1        90 3.93058E-03-4.36270E-05 0.00000E+00
 -1        91 8.17951E-03-1.88669E-04 0.00000E+00
 -1        92 1.36815E-02-4.60684E-04 0.00000E+00
 -1        93 2.04337E-02-8.91299E-04 0.00000E+00
 -1        94 2.84845E-02-1.51913E-03 0.00000E+00
 -1        95 3.78143E-02-2.37486E-03 0.00000E+00
 -1        96 4.82816E-02-3.46143E-03 0.00000E+00
 -1        97 5.96464E-02-4.74756E-03 0.00000E+00
 -1        98 7.16659E-02-6.18915E-03 0.00000E+00
 -1        99 8.41898E-02-7.75722E-03 0.00000E+00
 -1       100 9.71550E-02-9.44014E-03 0.00000E+00
 -1       101 1.10497E-01-1.12236E-02 0.00000E+00
 -1       102 1.24110E-01-1.30817E-02 0.00000E+00
 -1       103 1.37901E-01-1.49913E-02 0.00000E+00
 -1       104 1.51838E-01-1.69453E-02 0.00000E+00
 -1       105 1.65912E-01-1.89425E-02 0.00000E+00
 -1       106 1.80076E-01-2.09701E-02 0.00000E+00
 -1       107 1.94259E-01-2.30069E-02 0.00000E+00
 -1       108 1.94259E-01-2.30069E-02 0.00000E+00
 -1       109 1.80076E-01-2.09701E-02 0.00000E+00
 -1       110 1.65912E-01-1.89425E-02 0.00000E+00
 -1       111 1.51838E-01-1.69453E-02 0.00000E+00
 -1       112 1.37901E-01-1.49913E-02 0.00000E+00
 -1       113 1.24110E-01-1.30817E-02 0.00000E+00
 -1       114 1.10497E-01-1.12236E-02 0.00000E+00
 -1       115 9.71550E-02-9.44014E-03 0.00000E+00
 -1       116 8.41898E-02-7.75722E-03 0.00000E+00
 -1       117 7.16659E-02-6.18915E-03 0.00000E+00
 -1       118 5.96464E-02-4.74756E-03 0.00000E+00
 -1       119 4.82816E-02-3.46143E-03 0.00000E+00
 -1       120 3.78143E-02-2.37486E-03 0.00000E+00
 -1       121 2.84845E-02-1.51913E-03 0.00000E+00
 -1       122 2.04337E-02-8.91299E-04 0.00000E+00
 -1       123 1.36815E-02-4.60684E-04 0.00000E+00
 -1       124 8.17951E-03-1.88669E-04 0.00000E+00
 -1       125 3.93058E-03-4.36270E-05 0.00000E+00
 -1       126 1.00971E-03 2.08499E-06 0.00000E+00
 -3
    1PSTEP                       238          60           1          
  100CL  160 6.00000E-01         126                     1   60           1
 -4  STRESS      6    1
 -5  SXX         1    4    1    1
 -5  SYY         1    4    2    2
 -5  SZZ         1    4    3    3
 -5  SXY         1    4    1    2
 -5  SYZ         1    4    2    3
 -5  SZX         1    4    3    1
 -1         1 8.34586E+03 2.00015E+04 8.10372E+03 5.22759E+03-8.42726E-11-3.64356E-11
 -1         2 8.34586E+03 2.00015E+04 8.10372E+03 5.22759E+03-8.42726E-11-3.64356E-11
 -1         3 2.43013E+01 9.39249E+01 3.54515E+01 4.26722E+01 2.31529E-08 1.09857E-07
 -1         4 2.43013E+01 9.39249E+01 3.54515E+01 4.26722E+01 2.31531E-08 1.09865E-07
 -1         5 7.18708E+00 3.17778E+01 1.16887E+01 1.65678E+01-6.41159E-08 9.20797E-08
 -1         6 7.18708E+00 3.17778E+01 1.16887E+01 1.65678E+01-6.41162E-08 9.20795E-08
 -1         7-8.07943E+03-1.81960E+04-8.26690E+03 3.82325E+03-2.61135E-11-5.34557E-11
 -1         8-8.07943E+03-1.81960E+04-8.26690E+03 3.82325E+03-2.61135E-11-5.34518E-11
 -1         9 3.41109E+01 9.08049E+01 3.74594E+01 3.92754E+01-2.34071E-08 9.09711E-08
 -1        10 3.41109E+01 9.08049E+01 3.74594E+01 3.92754E+01-2.34071E-08 9.09576E-08
 -1        11 1.32917E+02-1.27463E+02 5.66996E+01 3.09987E+03-6.64776E-11-1.27291E-11
 -1        12 1.32917E+02-1.27463E+02 5.66996E+01 3.09987E+03-6.64775E-11-1.27364E-11
 -1        13 2.83218E+03 1.68678E+04 5.65311E+03 1.66911E+03 4.85608E-09-1.52695E-08
 -1        14 3.49207E+03 1.53988E+04 5.44771E+03 1.19991E+03 3.76798E-09 1.36903E-08
 -1        15 3.07566E+03 1.37566E+04 4.87302E+03 1.29085E+03-2.69018E-09 1.12537E-08
 -1        16 2.99882E+03 1.31051E+04 4.66860E+03 1.36367E+03-1.18471E-08 1.39150E-08
 -1        17 2.97542E+03 1.26854E+04 4.54226E+03 1.59255E+03-2.01713E-08-4.04780E-09
 -1        18 2.91653E+03 1.19311E+04 4.31197E+03 1.85676E+03-2.22129E-08-3.80227E-08
 -1        19 2.79569E+03 1.05689E+04 3.89326E+03 1.99529E+03-1.83673E-10-8.08243E-08
 -1        20 2.48171E+03 8.72568E+03 3.27997E+03 1.91836E+03 4.30301E-08-1.05405E-07
 -1        21 2.05944E+03 6.90295E+03 2.63589E+03 1.65596E+03 6.67935E-08-5.04672E-08
 -1        22 1.63396E+03 5.49077E+03 2.10360E+03 1.35595E+03 5.63911E-08 1.93741E-08
 -1        23 1.35519E+03 4.51469E+03 1.73757E+03 1.13146E+03 2.86960E-08 6.56430E-08
 -1        24 1.11795E+03 3.67327E+03 1.42121E+03 9.82008E+02-1.26569E-08 1.12255E-07
 -1        25 8.87266E+02 2.85694E+03 1.11309E+03 8.20267E+02-4.37164E-08 1.04662E-07
 -1        26 6.45899E+02 2.16897E+03 8.38538E+02 6.38461E+02-5.10798E-08 6.62571E-08
 -1        27 4.97676E+02 1.71563E+03 6.60272E+02 4.90468E+02-3.72811E-08 2.77699E-08
 -1        28 3.87317E+02 1.34056E+03 5.15944E+02 4.06968E+02-1.22981E-08-1.38220E-08
 -1        29 2.80156E+02 9.05448E+02 3.54409E+02 3.25203E+02 1.18479E-08-2.11858E-08
 -1        30 1.36366E+02 4.55577E+02 1.77166E+02 2.08710E+02 2.40544E-08 1.75491E-08
 -1        31 3.86298E+01 1.72109E+02 6.31429E+01 9.11430E+01 3.10454E-08 4.97920E-08
 -1        32 2.83218E+03 1.68678E+04 5.65311E+03 1.66911E+03 4.85608E-09-1.52695E-08
 -1        33 3.49207E+03 1.53988E+04 5.44771E+03 1.19991E+03 3.76798E-09 1.36903E-08
 -1        34 3.07566E+03 1.37566E+04 4.87302E+03 1.29085E+03-2.69017E-09 1.12534E-08
 -1        35 2.99882E+03 1.31051E+04 4.66860E+03 1.36367E+03-1.18471E-08 1.39155E-08
 -1        36 2.97542E+03 1.26854E+04 4.54226E+03 1.59255E+03-2.01714E-08-4.04809E-09
 -1        37 2.91653E+03 1.19311E+04 4.31197E+03 1.85676E+03-2.22124E-08-3.80202E-08
 -1        38 2.79569E+03 1.05689E+04 3.89326E+03 1.99529E+03-1.83826E-10-8.08264E-08
 -1        39 2.48171E+03 8.72568E+03 3.27997E+03 1.91836E+03 4.30301E-08-1.05405E-07
 -1        40 2.05944E+03 6.90295E+03 2.63589E+03 1.65596E+03 6.67936E-08-5.04677E-08
 -1        41 1.63396E+03 5.49077E+03 2.10360E+03 1.35595E+03 5.63912E-08 1.93742E-08
 -1        42 1.35519E+03 4.51469E+03 1.73757E+03 1.13146E+03 2.86961E-08 6.56453E-08
 -1        43 1.11795E+03 3.67327E+03 1.42121E+03 9.82008E+02-1.26572E-08 1.12252E-07
 -1        44 8.87266E+02 2.85694E+03 1.11309E+03 8.20267E+02-4.37162E-08 1.04665E-07
 -1        45 6.45899E+02 2.16897E+03 8.38538E+02 6.38461E+02-5.10798E-08 6.62532E-08
 -1        46 4.97676E+02 1.71563E+03 6.60272E+02 4.90468E+02-3.72809E-08 2.77699E-08
 -1        47 3.87317E+02 1.34056E+03 5.15944E+02 4.06968E+02-1.22986E-08-1.38220E-08
 -1        48 2.80156E+02 9.05448E+02 3.54409E+02 3.25203E+02 1.18476E-08-2.11902E-08
 -1        49 1.36366E+02 4.55577E+02 1.77166E+02 2.08710E+02 2.40542E-08 1.75507E-08
 -1        50 3.86298E+01 1.72109E+02 6.31429E+01 9.11430E+01 3.10449E-08 4.98045E-08
 -1        51-1.91513E+01-5.29579E+01-2.16404E+01 4.39757E+01-4.56152E-08 3.63200E-08
 -1        52-6.59302E+01-3.01756E+02-1.10406E+02 3.64314E+01-1.86455E-08 6.35219E-09
 -1        53-1.80808E+02-6.92210E+02-2.62378E+02-3.38110E+01 5.45028E-09-9.69982E-10
 -1        54-3.19720E+02-1.05768E+03-4.14293E+02-1.24422E+02 2.69978E-08 6.83490E-09
 -1        55-4.40289E+02-1.39877E+03-5.53538E+02-1.85972E+02 3.25261E-08 4.18827E-08
 -1        56-5.66349E+02-1.88602E+03-7.39091E+02-2.37205E+02 1.23169E-08 8.63445E-08
 -1        57-7.55665E+02-2.59998E+03-1.01345E+03-3.34956E+02-1.90045E-08 1.12288E-07
 -1        58-9.91704E+02-3.41625E+03-1.33438E+03-4.80864E+02-4.88818E-08 1.07164E-07
 -1        59-1.23505E+03-4.25588E+03-1.66587E+03-6.11813E+02-6.37802E-08 5.93573E-08
 -1        60-1.50117E+03-5.28196E+03-2.06343E+03-7.01136E+02-6.01301E-08-1.58042E-08
 -1        61-1.85374E+03-6.70814E+03-2.61515E+03-8.05641E+02-3.15054E-08-7.90286E-08
 -1        62-2.30722E+03-8.45135E+03-3.30300E+03-9.73338E+02 1.27374E-08-1.11447E-07
 -1        63-2.76935E+03-1.01012E+04-3.97010E+03-1.15431E+03 4.39593E-08-8.58410E-08
 -1        64-3.10080E+03-1.12399E+04-4.43702E+03-1.24894E+03 4.45149E-08-2.80426E-08
 -1        65-3.23285E+03-1.17718E+04-4.64754E+03-1.19516E+03 2.98847E-08 1.16789E-08
 -1        66-3.26795E+03-1.20393E+04-4.74200E+03-9.93880E+02 1.19816E-08 1.45545E-08
 -1        67-3.32069E+03-1.25848E+04-4.93250E+03-6.59825E+02-2.10275E-09 1.91948E-08
 -1        68-3.89737E+03-1.41499E+04-5.61968E+03-3.51876E+02-1.38837E-08 1.44570E-08
 -1        69-3.15757E+03-1.54557E+04-5.82946E+03 5.36779E+02-1.13171E-08-6.31461E-09
 -1        70-1.91513E+01-5.29579E+01-2.16404E+01 4.39757E+01-4.56150E-08 3.63205E-08
 -1        71-6.59302E+01-3.01756E+02-1.10406E+02 3.64314E+01-1.86453E-08 6.35534E-09
 -1        72-1.80808E+02-6.92210E+02-2.62378E+02-3.38110E+01 5.44975E-09-9.73266E-10
 -1        73-3.19720E+02-1.05768E+03-4.14293E+02-1.24422E+02 2.69987E-08 6.83421E-09
 -1        74-4.40289E+02-1.39877E+03-5.53538E+02-1.85972E+02 3.25243E-08 4.18862E-08
 -1        75-5.66349E+02-1.88602E+03-7.39091E+02-2.37205E+02 1.23170E-08 8.63445E-08
 -1        76-7.55665E+02-2.59998E+03-1.01345E+03-3.34956E+02-1.90048E-08 1.12288E-07
 -1        77-9.91704E+02-3.41625E+03-1.33438E+03-4.80864E+02-4.88805E-08 1.07166E-07
 -1        78-1.23505E+03-4.25588E+03-1.66587E+03-6.11813E+02-6.37788E-08 5.93495E-08
 -1        79-1.50117E+03-5.28196E+03-2.06343E+03-7.01136E+02-6.01302E-08-1.58046E-08
 -1        80-1.85374E+03-6.70814E+03-2.61515E+03-8.05641E+02-3.15052E-08-7.90269E-08
 -1        81-2.30722E+03-8.45135E+03-3.30300E+03-9.73338E+02 1.27365E-08-1.11447E-07
 -1        82-2.76935E+03-1.01012E+04-3.97010E+03-1.15431E+03 4.39595E-08-8.58416E-08
 -1        83-3.10080E+03-1.12399E+04-4.43702E+03-1.24894E+03 4.45157E-08-2.80387E-08
 -1        84-3.23285E+03-1.17718E+04-4.64754E+03-1.19516E+03 2.98842E-08 1.16741E-08
 -1        85-3.26795E+03-1.20393E+04-4.74200E+03-9.93880E+02 1.19824E-08 1.45557E-08
 -1        86-3.32069E+03-1.25848E+04-4.93250E+03-6.59825E+02-2.10280E-09 1.91954E-08
 -1        87-3.89737E+03-1.41499E+04-5.61968E+03-3.51876E+02-1.38837E-08 1.44570E-08
 -1        88-3.15757E+03-1.54557E+04-5.82946E+03 5.36779E+02-1.13171E-08-6.31463E-09
 -1        89-5.99446E+01-1.65799E+02-4.65129E+01 5.90397E+02-1.37643E-09-1.12665E-08
 -1        90-6.15048E+01-3.36162E+01 4.64555E+00 6.14959E+02-4.25993E-09 1.50200E-08
 -1        91-5.26726E+01 1.22147E+01 1.25530E+01 2.99281E+02-4.78628E-09 1.60300E-08
 -1        92-7.57398E+01 1.25494E+01 2.81679E+00 1.39266E+02-4.98836E-10 1.88113E-08
 -1        93-6.75247E+01-2.12740E+01-7.81712E+00 1.37770E+02 3.23620E-09 4.53953E-09
 -1        94-2.01248E+01-9.18648E+01-1.78569E+01 2.75468E+02 6.60243E-09-3.52808E-08
 -1        95 8.93355E+01-1.48877E+02-5.39408E+00 4.40555E+02 2.13240E-08-8.85542E-08
 -1        96 1.58080E+02-1.65041E+02 7.12460E+00 5.25372E+02 2.96719E-08-1.17092E-07
 -1        97 1.61371E+02-1.12393E+02 2.11599E+01 4.82248E+02 1.74607E-08-7.21702E-08
 -1        98 1.10044E+02-3.41329E+01 2.70012E+01 3.72019E+02 2.45008E-09 5.39955E-09
 -1        99 9.33742E+01 3.08493E+01 3.98420E+01 2.95708E+02-1.67718E-08 6.68091E-08
 -1       100 9.40565E+01 5.50358E+01 4.61884E+01 2.87546E+02-3.54283E-08 1.14894E-07
 -1       101 9.61409E+01 7.76317E+01 5.30070E+01 2.81183E+02-3.29081E-08 1.14131E-07
 -1       102 6.50148E+01 1.10016E+02 5.30241E+01 2.32842E+02-1.68193E-08 7.75490E-08
 -1       103 4.67357E+01 1.38216E+02 5.57509E+01 1.75390E+02 2.49242E-09 3.55485E-08
 -1       104 4.85045E+01 1.23183E+02 5.15647E+01 1.61898E+02 1.52820E-08-4.46252E-09
 -1       105 6.65071E+01 8.84778E+01 4.64642E+01 1.70508E+02 8.36511E-09-1.39296E-08
 -1       106 5.37339E+01 6.82722E+01 3.65564E+01 1.46678E+02 3.35020E-09 5.41216E-09
 -1       107 2.84059E+01 7.30474E+01 3.04052E+01 8.33463E+01-4.80504E-09 4.70713E-08
 -1       108 2.84059E+01 7.30474E+01 3.04052E+01 8.33463E+01-4.80375E-09 4.70692E-08
 -1       109 5.37339E+01 6.82722E+01 3.65564E+01 1.46678E+02 3.35027E-09 5.41206E-09
 -1       110 6.65071E+01 8.84778E+01 4.64642E+01 1.70508E+02 8.36592E-09-1.39288E-08
 -1       111 4.85045E+01 1.23183E+02 5.15647E+01 1.61898E+02 1.52820E-08-4.46283E-09
 -1       112 4.67357E+01 1.38216E+02 5.57509E+01 1.75390E+02 2.49232E-09 3.55480E-08
 -1       113 6.50148E+01 1.10016E+02 5.30241E+01 2.32842E+02-1.68194E-08 7.75496E-08
 -1       114 9.61409E+01 7.76317E+01 5.30070E+01 2.81183E+02-3.29079E-08 1.14130E-07
 -1       115 9.40565E+01 5.50358E+01 4.61884E+01 2.87546E+02-3.54278E-08 1.14899E-07
 -1       116 9.33742E+01 3.08493E+01 3.98420E+01 2.95708E+02-1.67725E-08 6.68073E-08
 -1       117 1.10044E+02-3.41329E+01 2.70012E+01 3.72019E+02 2.45002E-09 5.39915E-09
 -1       118 1.61371E+02-1.12393E+02 2.11599E+01 4.82248E+02 1.74602E-08-7.21696E-08
 -1       119 1.58080E+02-1.65041E+02 7.12460E+00 5.25372E+02 2.96722E-08-1.17092E-07
 -1       120 8.93355E+01-1.48877E+02-5.39408E+00 4.40555E+02 2.13240E-08-8.85545E-08
 -1       121-2.01248E+01-9.18648E+01-1.78569E+01 2.75468E+02 6.60206E-09-3.52815E-08
 -1       122-6.75247E+01-2.12740E+01-7.81712E+00 1.37770E+02 3.23624E-09 4.54068E-09
 -1       123-7.57398E+01 1.25494E+01 2.81679E+00 1.39266E+02-4.99029E-10 1.88100E-08
 -1       124-5.26726E+01 1.22147E+01 1.25530E+01 2.99281E+02-4.78637E-09 1.60305E-08
 -1       125-6.15048E+01-3.36162E+01 4.64555E+00 6.14959E+02-4.25991E-09 1.50199E-08
 -1       126-5.99446E+01-1.65799E+02-4.65129E+01 5.90397E+02-1.37643E-09-1.12664E-08
 -3
    1PSTEP                       239          60           1          
  100CL  160 6.00000E-01         126                     1   60           1
 -4  TOSTRAIN    6    1
 -5  EXX         1    4    1    1
 -5  EYY         1    4    2    2
 -5  EZZ         1    4    3    3
 -5  EXY         1    4    1    2
 -5  EYZ         1    4    2    3
 -5  EZX         1    4    3    1
 -1         1-1.12175E-04 3.62475E-02-8.78556E-28 1.52664E-02-1.82628E-19 4.04269E-18
 -1         2-1.12175E-04 3.62475E-02-8.78556E-28 1.52664E-02-1.82628E-19 4.04269E-18
 -1         3-9.34163E-05 2.47061E-04 2.44640E-25 5.50143E-05 1.73153E-13 3.21136E-13
 -1         4-9.34163E-05 2.47061E-04 2.44667E-25 5.50143E-05 1.73160E-13 3.21158E-13
 -1         5-3.74728E-05 8.81228E-05 2.48095E-25 2.34926E-05-1.15084E-13 3.46030E-13
 -1         6-3.74728E-05 8.81228E-05 2.48095E-25 2.34926E-05-1.15085E-13 3.46030E-13
 -1         7-1.10833E-04-3.46646E-02-5.72538E-28 1.39582E-02 3.87656E-19-2.08088E-16
 -1         8-1.10833E-04-3.46646E-02-5.72539E-28 1.39582E-02 3.87931E-19-2.08075E-16
 -1         9-6.54446E-05 2.27793E-04 1.71216E-25 5.71209E-05 1.07345E-14 3.05092E-13
 -1        10-6.54446E-05 2.27793E-04 1.71167E-25 5.71209E-05 1.07220E-14 3.05050E-13
 -1        11-1.11504E-04 1.34066E-04-3.95531E-28 1.00969E-02 2.27170E-19-3.14685E-17
 -1        12-1.11504E-04 1.34066E-04-3.95529E-28 1.00969E-02 2.26657E-19-3.14921E-17
 -1        13-9.76342E-03 3.46547E-02 3.34533E-27 3.51830E-03 1.34375E-14-4.99912E-14
 -1        14-6.94342E-03 3.09574E-02 2.44542E-27 1.16239E-03 1.45814E-14 4.32706E-14
 -1        15-6.50776E-03 2.79459E-02 2.58303E-27 7.64270E-04-4.99535E-15 3.70180E-14
 -1        16-6.19378E-03 2.67191E-02 5.67325E-27 3.12362E-04-3.17276E-14 4.93225E-14
 -1        17-6.10816E-03 2.60689E-02 3.42463E-27 3.36270E-04-6.46640E-14-3.34575E-15
 -1        18-5.89847E-03 2.48334E-02 3.05747E-26 6.76006E-04-8.94230E-14-1.08715E-13
 -1        19-5.23893E-03 2.23158E-02 1.28241E-25 1.10643E-03-5.01679E-14-2.56339E-13
 -1        20-4.37474E-03 1.87368E-02 2.64106E-25 1.34683E-03 6.16356E-14-3.63546E-13
 -1        21-3.51004E-03 1.50295E-02 1.21208E-25 1.23342E-03 1.70082E-13-2.09493E-13
 -1        22-2.89859E-03 1.20760E-02 4.72172E-26 9.04597E-04 1.90082E-13 1.61789E-14
 -1        23-2.41157E-03 9.98333E-03 8.79230E-26 6.76181E-04 1.42331E-13 1.82307E-13
 -1        24-2.04746E-03 8.23465E-03 2.59947E-25 6.48487E-04 5.50129E-14 3.62405E-13
 -1        25-1.66178E-03 6.50317E-03 2.67758E-25 6.21809E-04-4.53871E-14 3.65527E-13
 -1        26-1.35232E-03 4.99626E-03 1.37907E-25 4.61815E-04-1.00350E-13 2.52408E-13
 -1        27-1.07639E-03 3.94397E-03 3.27202E-26 2.96364E-04-9.10481E-14 1.20229E-13
 -1        28-8.88622E-04 3.12835E-03-7.31678E-28 2.83732E-04-5.07218E-14-3.19406E-14
 -1        29-6.52863E-04 2.19071E-03 8.70435E-27 3.39195E-04 1.75239E-14-7.69112E-14
 -1        30-4.18033E-04 1.18641E-03 1.20910E-26 2.87792E-04 9.09675E-14 3.25703E-14
 -1        31-2.05846E-04 4.79576E-04 5.99169E-26 1.30782E-04 1.42481E-13 1.26632E-13
 -1        32-9.76342E-03 3.46547E-02 3.34533E-27 3.51830E-03 1.34375E-14-4.99912E-14
 -1        33-6.94342E-03 3.09574E-02 2.44542E-27 1.16239E-03 1.45814E-14 4.32706E-14
 -1        34-6.50776E-03 2.79459E-02 2.58283E-27 7.64270E-04-4.99543E-15 3.70171E-14
 -1        35-6.19378E-03 2.67191E-02 5.67360E-27 3.12362E-04-3.17274E-14 4.93242E-14
 -1        36-6.10816E-03 2.60689E-02 3.42465E-27 3.36270E-04-6.46643E-14-3.34667E-15
 -1        37-5.89847E-03 2.48334E-02 3.05689E-26 6.76006E-04-8.94200E-14-1.08707E-13
 -1        38-5.23893E-03 2.23158E-02 1.28246E-25 1.10643E-03-5.01696E-14-2.56346E-13
 -1        39-4.37474E-03 1.87368E-02 2.64107E-25 1.34683E-03 6.16352E-14-3.63547E-13
 -1        40-3.51004E-03 1.50295E-02 1.21209E-25 1.23342E-03 1.70082E-13-2.09494E-13
 -1        41-2.89859E-03 1.20760E-02 4.72170E-26 9.04597E-04 1.90082E-13 1.61792E-14
 -1        42-2.41157E-03 9.98333E-03 8.79311E-26 6.76181E-04 1.42333E-13 1.82314E-13
 -1        43-2.04746E-03 8.23465E-03 2.59935E-25 6.48487E-04 5.50096E-14 3.62396E-13
 -1        44-1.66178E-03 6.50317E-03 2.67768E-25 6.21809E-04-4.53841E-14 3.65536E-13
 -1        45-1.35232E-03 4.99626E-03 1.37894E-25 4.61815E-04-1.00353E-13 2.52395E-13
 -1        46-1.07639E-03 3.94397E-03 3.27203E-26 2.96364E-04-9.10474E-14 1.20229E-13
 -1        47-8.88622E-04 3.12835E-03-7.31796E-28 2.83732E-04-5.07234E-14-3.19401E-14
 -1        48-6.52863E-04 2.19071E-03 8.70566E-27 3.39195E-04 1.75189E-14-7.69245E-14
 -1        49-4.18033E-04 1.18641E-03 1.20855E-26 2.87792E-04 9.09683E-14 3.25755E-14
 -1        50-2.05846E-04 4.79576E-04 5.99380E-26 1.30782E-04 1.42491E-13 1.26672E-13
 -1        51-7.84316E-05-1.53424E-05 5.68674E-26 1.49903E-04-1.08776E-13 1.55229E-13
 -1        52 1.86960E-05-4.96903E-04 2.81961E-27 3.07726E-04-5.23243E-14 3.69682E-14
 -1        53 1.91485E-04-1.32752E-03-1.81166E-27 3.57332E-04 1.61369E-14-8.03180E-15
 -1        54 3.34894E-04-2.12800E-03 1.26150E-26 3.03269E-04 9.07274E-14-3.23557E-15
 -1        55 4.48527E-04-2.84326E-03 5.01577E-26 3.17574E-04 1.39770E-13 1.01593E-13
 -1        56 6.42659E-04-3.83808E-03 1.50617E-25 4.73624E-04 1.15660E-13 2.59201E-13
 -1        57 9.60418E-04-5.33798E-03 2.68968E-25 6.22116E-04 3.85185E-14 3.68548E-13
 -1        58 1.34777E-03-7.10575E-03 2.87059E-25 6.48624E-04-6.29745E-14 3.78339E-13
 -1        59 1.72295E-03-8.90373E-03 1.40240E-25 6.84438E-04-1.53605E-13 2.39703E-13
 -1        60 2.14575E-03-1.10283E-02 5.13359E-26 9.12113E-04-2.05079E-13-1.94894E-15
 -1        61 2.75988E-03-1.39962E-02 1.32530E-25 1.24228E-03-1.61920E-13-2.26519E-13
 -1        62 3.55387E-03-1.77138E-02 2.56163E-25 1.37289E-03-3.81677E-14-3.63722E-13
 -1        63 4.29976E-03-2.12841E-02 1.87512E-25 1.14695E-03 8.84781E-14-3.02776E-13
 -1        64 4.77621E-03-2.37308E-02 4.74644E-26 7.03375E-04 1.31189E-13-1.15312E-13
 -1        65 4.96524E-03-2.48062E-02 1.74238E-26 3.47899E-04 1.05151E-13 2.32529E-14
 -1        66 4.99648E-03-2.52347E-02 6.31211E-27 3.33351E-04 4.58992E-14 4.23990E-14
 -1        67 5.22016E-03-2.62587E-02 7.10755E-27 8.14970E-04-9.26239E-16 6.30128E-14
 -1        68 5.40070E-03-2.93087E-02 7.61643E-27 1.20676E-03-4.36746E-14 5.03050E-14
 -1        69 8.28631E-03-3.31001E-02 2.39698E-27 3.40362E-03-3.91848E-14-1.91040E-14
 -1        70-7.84316E-05-1.53424E-05 5.68688E-26 1.49903E-04-1.08775E-13 1.55230E-13
 -1        71 1.86960E-05-4.96903E-04 2.82054E-27 3.07726E-04-5.23209E-14 3.69778E-14
 -1        72 1.91485E-04-1.32752E-03-1.81164E-27 3.57332E-04 1.61322E-14-8.04156E-15
 -1        73 3.34894E-04-2.12800E-03 1.26145E-26 3.03269E-04 9.07297E-14-3.23857E-15
 -1        74 4.48527E-04-2.84326E-03 5.01605E-26 3.17574E-04 1.39767E-13 1.01605E-13
 -1        75 6.42659E-04-3.83808E-03 1.50617E-25 4.73624E-04 1.15661E-13 2.59201E-13
 -1        76 9.60418E-04-5.33798E-03 2.68969E-25 6.22116E-04 3.85174E-14 3.68548E-13
 -1        77 1.34777E-03-7.10575E-03 2.87063E-25 6.48624E-04-6.29690E-14 3.78344E-13
 -1        78 1.72295E-03-8.90373E-03 1.40214E-25 6.84438E-04-1.53607E-13 2.39677E-13
 -1        79 2.14575E-03-1.10283E-02 5.13375E-26 9.12113E-04-2.05080E-13-1.94997E-15
 -1        80 2.75988E-03-1.39962E-02 1.32525E-25 1.24228E-03-1.61918E-13-2.26514E-13
 -1        81 3.55387E-03-1.77138E-02 2.56162E-25 1.37289E-03-3.81705E-14-3.63721E-13
 -1        82 4.29976E-03-2.12841E-02 1.87513E-25 1.14695E-03 8.84785E-14-3.02778E-13
 -1        83 4.77621E-03-2.37308E-02 4.74625E-26 7.03375E-04 1.31194E-13-1.15300E-13
 -1        84 4.96524E-03-2.48062E-02 1.74229E-26 3.47899E-04 1.05147E-13 2.32377E-14
 -1        85 4.99648E-03-2.52347E-02 6.31318E-27 3.33351E-04 4.59025E-14 4.24025E-14
 -1        86 5.22016E-03-2.62587E-02 7.10799E-27 8.14970E-04-9.26229E-16 6.30148E-14
 -1        87 5.40070E-03-2.93087E-02 7.61643E-27 1.20676E-03-4.36746E-14 5.03050E-14
 -1        88 8.28631E-03-3.31001E-02 2.39699E-27 3.40362E-03-3.91848E-14-1.91041E-14
 -1        89-7.38554E-04 4.19479E-04 9.44912E-28 1.92237E-03-5.66218E-15-3.64817E-14
 -1        90-7.71358E-04 6.76891E-04 3.67068E-27 1.97228E-03-1.05162E-14 4.97057E-14
 -1        91-6.43798E-04 6.10171E-04 5.88140E-27 9.33801E-04-1.05344E-14 5.33623E-14
 -1        92-5.98649E-04 5.29792E-04 6.58379E-27 4.04795E-04 5.65888E-15 6.09113E-14
 -1        93-5.71458E-04 4.60464E-04-4.99225E-27 4.06701E-04 1.23988E-14 1.30154E-14
 -1        94-5.61131E-04 4.13880E-04 1.48910E-26 8.81368E-04 1.36274E-15-1.16690E-13
 -1        95-4.69582E-04 3.89290E-04 1.67268E-25 1.46961E-03 1.19721E-14-2.95888E-13
 -1        96-4.10433E-04 4.00949E-04 3.03165E-25 1.76831E-03 1.26249E-14-3.92553E-13
 -1        97-3.75080E-04 4.40944E-04 9.28840E-26 1.59838E-03 1.24532E-15-2.41384E-13
 -1        98-3.76417E-04 4.77283E-04-3.05776E-26 1.17526E-03 1.21002E-14 1.50719E-14
 -1        99-3.44314E-04 5.06258E-04 8.10567E-26 8.86441E-04 2.25966E-15 2.23883E-13
 -1       100-3.49845E-04 5.42970E-04 3.00297E-25 8.37606E-04-1.35601E-14 3.90627E-13
 -1       101-3.50679E-04 5.76167E-04 2.95287E-25 7.97000E-04-3.69084E-15 3.86113E-13
 -1       102-3.54831E-04 5.82322E-04 1.22757E-25 6.04879E-04 1.61152E-14 2.57429E-13
 -1       103-3.13931E-04 5.54210E-04 1.54562E-26 4.03402E-04 3.96694E-14 1.08786E-13
 -1       104-2.76864E-04 4.99557E-04 2.89839E-28 3.78570E-04 4.36061E-14-2.78355E-14
 -1       105-2.30689E-04 4.31692E-04 4.56106E-27 4.46618E-04 1.33392E-14-5.11157E-14
 -1       106-1.99668E-04 3.57999E-04-4.59468E-27 3.87379E-04 1.54121E-14 1.37854E-14
 -1       107-1.42139E-04 2.73900E-04 3.49145E-26 1.87942E-04 2.83111E-14 1.51148E-13
 -1       108-1.42139E-04 2.73900E-04 3.49148E-26 1.87942E-04 2.83132E-14 1.51141E-13
 -1       109-1.99668E-04 3.57999E-04-4.59344E-27 3.87379E-04 1.54122E-14 1.37850E-14
 -1       110-2.30689E-04 4.31692E-04 4.56119E-27 4.46618E-04 1.33424E-14-5.11141E-14
 -1       111-2.76864E-04 4.99557E-04 2.89661E-28 3.78570E-04 4.36059E-14-2.78365E-14
 -1       112-3.13931E-04 5.54210E-04 1.54558E-26 4.03402E-04 3.96687E-14 1.08784E-13
 -1       113-3.54831E-04 5.82322E-04 1.22759E-25 6.04879E-04 1.61151E-14 2.57430E-13
 -1       114-3.50679E-04 5.76167E-04 2.95284E-25 7.97000E-04-3.69066E-15 3.86111E-13
 -1       115-3.49845E-04 5.42970E-04 3.00317E-25 8.37606E-04-1.35547E-14 3.90642E-13
 -1       116-3.44314E-04 5.06258E-04 8.10498E-26 8.86441E-04 2.25609E-15 2.23878E-13
 -1       117-3.76417E-04 4.77283E-04-3.05779E-26 1.17526E-03 1.20997E-14 1.50707E-14
 -1       118-3.75080E-04 4.40944E-04 9.28825E-26 1.59838E-03 1.24413E-15-2.41382E-13
 -1       119-4.10433E-04 4.00949E-04 3.03163E-25 1.76831E-03 1.26262E-14-3.92551E-13
 -1       120-4.69582E-04 3.89290E-04 1.67270E-25 1.46961E-03 1.19720E-14-2.95889E-13
 -1       121-5.61131E-04 4.13880E-04 1.48923E-26 8.81368E-04 1.36110E-15-1.16692E-13
 -1       122-5.71458E-04 4.60464E-04-4.99212E-27 4.06701E-04 1.23995E-14 1.30191E-14
 -1       123-5.98649E-04 5.29792E-04 6.58288E-27 4.04795E-04 5.65774E-15 6.09072E-14
 -1       124-6.43798E-04 6.10171E-04 5.88175E-27 9.33801E-04-1.05345E-14 5.33639E-14
 -1       125-7.71358E-04 6.76891E-04 3.67068E-27 1.97228E-03-1.05161E-14 4.97057E-14
 -1       126-7.38554E-04 4.19479E-04 9.44902E-28 1.92237E-03-5.66218E-15-3.64816E-14
 -3
    1PSTEP                       240          60           1          
  100CL  160 6.00000E-01         126                     1   60           1
 -4  ERROR       1    1
 -5  STR(%)      1    1    0    0
 -1         1 6.34495E+01
 -1         2 6.34495E+01
 -1         3 4.99124E+00
 -1         4 4.99124E+00
 -1         5 2.86137E+01
 -1         6 2.86137E+01
 -1         7 6.21710E+01
 -1         8 6.21710E+01
 -1         9 2.86137E+01
 -1        10 2.86137E+01
 -1        11 6.34495E+01
 -1        12 6.34495E+01
 -1        13 6.34495E+01
 -1        14 6.09810E+01
 -1        15 6.04838E+01
 -1        16 5.96968E+01
 -1        17 6.01098E+01
 -1        18 6.08450E+01
 -1        19 6.12872E+01
 -1        20 6.12872E+01
 -1        21 6.09620E+01
 -1        22 6.03563E+01
 -1        23 5.92939E+01
 -1        24 5.83762E+01
 -1        25 5.69703E+01
 -1        26 5.50697E+01
 -1        27 5.27025E+01
 -1        28 5.11765E+01
 -1        29 4.88871E+01
 -1        30 4.05965E+01
 -1        31 2.31768E+01
 -1        32 6.34495E+01
 -1        33 6.09810E+01
 -1        34 6.04838E+01
 -1        35 5.96968E+01
 -1        36 6.01098E+01
 -1        37 6.08450E+01
 -1        38 6.12872E+01
 -1        39 6.12872E+01
 -1        40 6.09620E+01
 -1        41 6.03563E+01
 -1        42 5.92939E+01
 -1        43 5.83762E+01
 -1        44 5.69703E+01
 -1        45 5.50697E+01
 -1        46 5.27025E+01
 -1        47 5.11765E+01
 -1        48 4.88871E+01
 -1        49 4.05965E+01
 -1        50 2.31768E+01
 -1        51 5.80077E+01
 -1        52 6.66172E+01
 -1        53 7.87805E+01
 -1        54 7.91833E+01
 -1        55 7.91833E+01
 -1        56 7.64154E+01
 -1        57 7.19922E+01
 -1        58 6.89735E+01
 -1        59 6.68433E+01
 -1        60 6.56773E+01
 -1        61 6.48525E+01
 -1        62 6.38228E+01
 -1        63 6.29111E+01
 -1        64 6.18471E+01
 -1        65 6.07981E+01
 -1        66 6.12253E+01
 -1        67 6.24026E+01
 -1        68 6.26585E+01
 -1        69 6.26585E+01
 -1        70 5.80077E+01
 -1        71 6.66172E+01
 -1        72 7.87805E+01
 -1        73 7.91833E+01
 -1        74 7.91833E+01
 -1        75 7.64154E+01
 -1        76 7.19922E+01
 -1        77 6.89735E+01
 -1        78 6.68433E+01
 -1        79 6.56773E+01
 -1        80 6.48525E+01
 -1        81 6.38228E+01
 -1        82 6.29111E+01
 -1        83 6.18471E+01
 -1        84 6.07981E+01
 -1        85 6.12253E+01
 -1        86 6.24026E+01
 -1        87 6.26585E+01
 -1        88 6.26585E+01
 -1        89 6.34495E+01
 -1        90 6.26585E+01
 -1        91 6.24026E+01
 -1        92 6.12253E+01
 -1        93 6.07981E+01
 -1        94 6.18471E+01
 -1        95 6.29111E+01
 -1        96 6.38228E+01
 -1        97 6.48525E+01
 -1        98 6.56773E+01
 -1        99 6.68433E+01
 -1       100 6.89735E+01
 -1       101 7.19922E+01
 -1       102 7.64154E+01
 -1       103 7.91833E+01
 -1       104 7.91833E+01
 -1       105 7.87805E+01
 -1       106 6.66172E+01
 -1       107 5.80077E+01
 -1       108 5.80077E+01
 -1       109 6.66172E+01
 -1       110 7.87805E+01
 -1       111 7.91833E+01
 -1       112 7.91833E+01
 -1       113 7.64154E+01
 -1       114 7.19922E+01
 -1       115 6.89735E+01
 -1       116 6.68433E+01
 -1       117 6.56773E+01
 -1       118 6.48525E+01
 -1       119 6.38228E+01
 -1       120 6.29111E+01
 -1       121 6.18471E+01
 -1       122 6.07981E+01
 -1       123 6.12253E+01
 -1       124 6.24026E+01
 -1       125 6.26585E+01
 -1       126 6.34495E+01
 -3
    1PSTEP                       241          61           1          
  100CL  161 6.10000E-01         126                     1   61           1
 -4  DISP        4    1
 -5  D1          1    2    1    0
 -5  D2          1    2    2    0
 -5  D3          1    2    3    0
 -5  ALL         1    2    0    0    1ALL
 -1         1 0.00000E+00 0.00000E+00 0.00000E+00
 -1         2 0.00000E+00 0.00000E+00 0.00000E+00
 -1         3 2.16933E-01-1.21610E-02 0.00000E+00
 -1         4 2.16933E-01-1.21610E-02 0.00000E+00
 -1         5 2.12402E-01-4.18942E-02 0.00000E+00
 -1         6 2.12402E-01-4.18942E-02 0.00000E+00
 -1         7 0.00000E+00 0.00000E+00 0.00000E+00
 -1         8 0.00000E+00 0.00000E+00 0.00000E+00
 -1         9 2.14668E-01-2.70233E-02 0.00000E+00
 -1        10 2.14668E-01-2.70233E-02 0.00000E+00
 -1        11 0.00000E+00 0.00000E+00 0.00000E+00
 -1        12 0.00000E+00 0.00000E+00 0.00000E+00
 -1        13 1.42752E-03 1.70949E-03 0.00000E+00
 -1        14 4.20291E-03 3.26282E-03 0.00000E+00
 -1        15 8.52062E-03 4.55620E-03 0.00000E+00
 -1        16 1.42525E-02 5.64885E-03 0.00000E+00
 -1        17 2.14118E-02 6.51399E-03 0.00000E+00
 -1        18 2.99612E-02 7.07705E-03 0.00000E+00
 -1        19 3.97452E-02 7.27011E-03 0.00000E+00
 -1        20 5.05534E-02 7.07791E-03 0.00000E+00
 -1        21 6.21779E-02 6.53965E-03 0.00000E+00
 -1        22 7.44744E-02 5.70975E-03 0.00000E+00
 -1        23 8.73359E-02 4.63314E-03 0.00000E+00
 -1        24 1.00686E-01 3.33587E-03 0.00000E+00
 -1        25 1.14438E-01 1.84491E-03 0.00000E+00
 -1        26 1.28516E-01 1.93368E-04 0.00000E+00
 -1        27 1.42863E-01-1.58736E-03 0.00000E+00
 -1        28 1.57460E-01-3.49206E-03 0.00000E+00
 -1        29 1.72256E-01-5.52804E-03 0.00000E+00
 -1        30 1.87155E-01-7.68363E-03 0.00000E+00
 -1        31 2.02058E-01-9.91099E-03 0.00000E+00
 -1        32 1.42752E-03 1.70949E-03 0.00000E+00
 -1        33 4.20291E-03 3.26282E-03 0.00000E+00
 -1        34 8.52062E-03 4.55620E-03 0.00000E+00
 -1        35 1.42525E-02 5.64885E-03 0.00000E+00
 -1        36 2.14118E-02 6.51399E-03 0.00000E+00
 -1        37 2.99612E-02 7.07705E-03 0.00000E+00
 -1        38 3.97452E-02 7.27011E-03 0.00000E+00
 -1        39 5.05534E-02 7.07791E-03 0.00000E+00
 -1        40 6.21779E-02 6.53965E-03 0.00000E+00
 -1        41 7.44744E-02 5.70975E-03 0.00000E+00
 -1        42 8.73359E-02 4.63314E-03 0.00000E+00
 -1        43 1.00686E-01 3.33587E-03 0.00000E+00
 -1        44 1.14438E-01 1.84491E-03 0.00000E+00
 -1        45 1.28516E-01 1.93368E-04 0.00000E+00
 -1        46 1.42863E-01-1.58736E-03 0.00000E+00
 -1        47 1.57460E-01-3.49206E-03 0.00000E+00
 -1        48 1.72256E-01-5.52804E-03 0.00000E+00
 -1        49 1.87155E-01-7.68363E-03 0.00000E+00
 -1        50 2.02058E-01-9.91099E-03 0.00000E+00
 -1        51 1.97523E-01-3.96344E-02 0.00000E+00
 -1        52 1.82631E-01-3.73526E-02 0.00000E+00
 -1        53 1.67782E-01-3.50219E-02 0.00000E+00
 -1        54 1.53086E-01-3.26554E-02 0.00000E+00
 -1        55 1.38626E-01-3.02930E-02 0.00000E+00
 -1        56 1.24439E-01-2.79626E-02 0.00000E+00
 -1        57 1.10551E-01-2.56668E-02 0.00000E+00
 -1        58 9.70179E-02-2.34010E-02 0.00000E+00
 -1        59 8.39218E-02-2.11702E-02 0.00000E+00
 -1        60 7.13472E-02-1.89850E-02 0.00000E+00
 -1        61 5.93774E-02-1.68477E-02 0.00000E+00
 -1        62 4.81145E-02-1.47473E-02 0.00000E+00
 -1        63 3.77062E-02-1.26709E-02 0.00000E+00
 -1        64 2.83446E-02-1.06270E-02 0.00000E+00
 -1        65 2.02164E-02-8.65680E-03 0.00000E+00
 -1        66 1.34320E-02-6.81006E-03 0.00000E+00
 -1        67 8.00873E-03-5.09660E-03 0.00000E+00
 -1        68 3.92105E-03-3.45910E-03 0.00000E+00
 -1        69 1.31582E-03-1.75366E-03 0.00000E+00
 -1        70 1.97523E-01-3.96344E-02 0.00000E+00
 -1        71 1.82631E-01-3.73526E-02 0.00000E+00
 -1        72 1.67782E-01-3.50219E-02 0.00000E+00
 -1        73 1.53086E-01-3.26554E-02 0.00000E+00
 -1        74 1.38626E-01-3.02930E-02 0.00000E+00
 -1        75 1.24439E-01-2.79626E-02 0.00000E+00
 -1        76 1.10551E-01-2.56668E-02 0.00000E+00
 -1        77 9.70179E-02-2.34010E-02 0.00000E+00
 -1        78 8.39218E-02-2.11702E-02 0.00000E+00
 -1        79 7.13472E-02-1.89850E-02 0.00000E+00
 -1        80 5.93774E-02-1.68477E-02 0.00000E+00
 -1        81 4.81145E-02-1.47473E-02 0.00000E+00
 -1        82 3.77062E-02-1.26709E-02 0.00000E+00
 -1        83 2.83446E-02-1.06270E-02 0.00000E+00
 -1        84 2.02164E-02-8.65680E-03 0.00000E+00
 -1        85 1.34320E-02-6.81006E-03 0.00000E+00
 -1        86 8.00873E-03-5.09660E-03 0.00000E+00
 -1        87 3.92105E-03-3.45910E-03 0.00000E+00
 -1        88 1.31582E-03-1.75366E-03 0.00000E+00
 -1        89 9.26099E-04-1.22843E-05 0.00000E+00
 -1        90 3.74382E-03-7.34356E-05 0.00000E+00
 -1        91 7.95375E-03-2.37217E-04 0.00000E+00
 -1        92 1.35439E-02-5.41352E-04 0.00000E+00
 -1        93 2.05284E-02-1.02565E-03 0.00000E+00
 -1        94 2.88922E-02-1.72522E-03 0.00000E+00
 -1        95 3.85028E-02-2.65184E-03 0.00000E+00
 -1        96 4.91483E-02-3.79094E-03 0.00000E+00
 -1        97 6.06227E-02-5.11572E-03 0.00000E+00
 -1        98 7.27785E-02-6.60325E-03 0.00000E+00
 -1        99 8.55175E-02-8.23813E-03 0.00000E+00
 -1       100 9.87586E-02-1.00064E-02 0.00000E+00
 -1       101 1.12417E-01-1.18889E-02 0.00000E+00
 -1       102 1.26411E-01-1.38649E-02 0.00000E+00
 -1       103 1.40689E-01-1.59229E-02 0.00000E+00
 -1       104 1.55228E-01-1.80599E-02 0.00000E+00
 -1       105 1.69990E-01-2.02656E-02 0.00000E+00
 -1       106 1.84880E-01-2.25130E-02 0.00000E+00
 -1       107 1.99788E-01-2.47700E-02 0.00000E+00
 -1       108 1.99788E-01-2.47700E-02 0.00000E+00
 -1       109 1.84880E-01-2.25130E-02 0.00000E+00
 -1       110 1.69990E-01-2.02656E-02 0.00000E+00
 -1       111 1.55228E-01-1.80599E-02 0.00000E+00
 -1       112 1.40689E-01-1.59229E-02 0.00000E+00
 -1       113 1.26411E-01-1.38649E-02 0.00000E+00
 -1       114 1.12417E-01-1.18889E-02 0.00000E+00
 -1       115 9.87586E-02-1.00064E-02 0.00000E+00
 -1       116 8.55175E-02-8.23813E-03 0.00000E+00
 -1       117 7.27785E-02-6.60325E-03 0.00000E+00
 -1       118 6.06227E-02-5.11572E-03 0.00000E+00
 -1       119 4.91483E-02-3.79094E-03 0.00000E+00
 -1       120 3.85028E-02-2.65184E-03 0.00000E+00
 -1       121 2.88922E-02-1.72522E-03 0.00000E+00
 -1       122 2.05284E-02-1.02565E-03 0.00000E+00
 -1       123 1.35439E-02-5.41352E-04 0.00000E+00
 -1       124 7.95375E-03-2.37217E-04 0.00000E+00
 -1       125 3.74382E-03-7.34356E-05 0.00000E+00
 -1       126 9.26099E-04-1.22843E-05 0.00000E+00
 -3
    1PSTEP                       242          61           1          
  100CL  161 6.10000E-01         126                     1   61           1
 -4  STRESS      6    1
 -5  SXX         1    4    1    1
 -5  SYY         1    4    2    2
 -5  SZZ         1    4    3    3
 -5  SXY         1    4    1    2
 -5  SYZ         1    4    2    3
 -5  SZX         1    4    3    1
 -1         1 8.05680E+03 1.93361E+04 7.84922E+03 4.86935E+03-8.62017E-11-5.74479E-11
 -1         2 8.05680E+03 1.93361E+04 7.84922E+03 4.86935E+03-8.62017E-11-5.74479E-11
 -1         3 2.47271E+01 9.37379E+01 3.55196E+01 5.22282E+01-6.56515E-08-7.02677E-08
 -1         4 2.47271E+01 9.37379E+01 3.55196E+01 5.22282E+01-6.56498E-08-7.02677E-08
 -1         5 3.76734E+00 2.54671E+01 8.76771E+00 2.78716E+01 1.12582E-07-1.79504E-08
 -1         6 3.76734E+00 2.54671E+01 8.76771E+00 2.78716E+01 1.12582E-07-1.79783E-08
 -1         7-7.99396E+03-1.79644E+04-8.15671E+03 3.61270E+03-1.79258E-10 2.01748E-10
 -1         8-7.99396E+03-1.79644E+04-8.15671E+03 3.61270E+03-1.79258E-10 2.01748E-10
 -1         9 3.03200E+01 7.99289E+01 3.30581E+01 4.97894E+01 2.31158E-08-4.25848E-08
 -1        10 3.03200E+01 7.99289E+01 3.30581E+01 4.97894E+01 2.31122E-08-4.25806E-08
 -1        11 4.11581E+01-2.88025E+02-1.70681E+01 2.84086E+03-1.31851E-10 3.35254E-11
 -1        12 4.11581E+01-2.88025E+02-1.70681E+01 2.84086E+03-1.31851E-10 3.35254E-11
 -1        13 2.82559E+03 1.65906E+04 5.57872E+03 1.48207E+03 8.01010E-10-1.56573E-08
 -1        14 3.56259E+03 1.56656E+04 5.54353E+03 1.09630E+03 1.89167E-08-3.40687E-08
 -1        15 3.24427E+03 1.44237E+04 5.10756E+03 1.29655E+03 2.96220E-08-7.39595E-09
 -1        16 3.20369E+03 1.37994E+04 4.92081E+03 1.49779E+03 1.87983E-08-7.88126E-10
 -1        17 3.14511E+03 1.29977E+04 4.67839E+03 1.78278E+03-1.83884E-09-2.26465E-08
 -1        18 2.97975E+03 1.16952E+04 4.26516E+03 1.97312E+03-2.52932E-09-1.02142E-07
 -1        19 2.74193E+03 1.00345E+04 3.72877E+03 1.96236E+03 3.39845E-08-1.76149E-07
 -1        20 2.39515E+03 8.35295E+03 3.15052E+03 1.79820E+03 7.82630E-08-1.85282E-07
 -1        21 2.04840E+03 6.94556E+03 2.64601E+03 1.58179E+03 9.65366E-08-1.39619E-07
 -1        22 1.72420E+03 5.83699E+03 2.23075E+03 1.38873E+03 8.39759E-08-6.25108E-08
 -1        23 1.50406E+03 4.94914E+03 1.90828E+03 1.22239E+03 5.60600E-08 5.90493E-09
 -1        24 1.28899E+03 4.15358E+03 1.61283E+03 1.07635E+03 2.60828E-08 5.40465E-08
 -1        25 1.08777E+03 3.47760E+03 1.35541E+03 9.30520E+02 5.19836E-09 8.28376E-08
 -1        26 8.94378E+02 2.94881E+03 1.14262E+03 8.01501E+02-1.29358E-09 1.04415E-07
 -1        27 7.82696E+02 2.51501E+03 9.81529E+02 7.01848E+02-5.93936E-09 1.23280E-07
 -1        28 6.43302E+02 1.96133E+03 7.76216E+02 6.18044E+02-1.98251E-08 1.53677E-07
 -1        29 4.50716E+02 1.25340E+03 5.08739E+02 4.80868E+02-4.75721E-08 1.68971E-07
 -1        30 2.22494E+02 5.85735E+02 2.41742E+02 2.88738E+02-7.44498E-08 1.21826E-07
 -1        31 6.84492E+01 1.99304E+02 8.02087E+01 1.17148E+02-8.63277E-08 4.39189E-08
 -1        32 2.82559E+03 1.65906E+04 5.57872E+03 1.48207E+03 8.01010E-10-1.56573E-08
 -1        33 3.56259E+03 1.56656E+04 5.54353E+03 1.09630E+03 1.89167E-08-3.40687E-08
 -1        34 3.24427E+03 1.44237E+04 5.10756E+03 1.29655E+03 2.96220E-08-7.39590E-09
 -1        35 3.20369E+03 1.37994E+04 4.92081E+03 1.49779E+03 1.87984E-08-7.88491E-10
 -1        36 3.14511E+03 1.29977E+04 4.67839E+03 1.78278E+03-1.83890E-09-2.26459E-08
 -1        37 2.97975E+03 1.16952E+04 4.26516E+03 1.97312E+03-2.52937E-09-1.02143E-07
 -1        38 2.74193E+03 1.00345E+04 3.72877E+03 1.96236E+03 3.39845E-08-1.76149E-07
 -1        39 2.39515E+03 8.35295E+03 3.15052E+03 1.79820E+03 7.82630E-08-1.85282E-07
 -1        40 2.04840E+03 6.94556E+03 2.64601E+03 1.58179E+03 9.65364E-08-1.39621E-07
 -1        41 1.72420E+03 5.83699E+03 2.23075E+03 1.38873E+03 8.39759E-08-6.25120E-08
 -1        42 1.50406E+03 4.94914E+03 1.90828E+03 1.22239E+03 5.60600E-08 5.90674E-09
 -1        43 1.28899E+03 4.15358E+03 1.61283E+03 1.07635E+03 2.60830E-08 5.40472E-08
 -1        44 1.08777E+03 3.47760E+03 1.35541E+03 9.30520E+02 5.19837E-09 8.28394E-08
 -1        45 8.94378E+02 2.94881E+03 1.14262E+03 8.01501E+02-1.29359E-09 1.04415E-07
 -1        46 7.82696E+02 2.51501E+03 9.81529E+02 7.01848E+02-5.93922E-09 1.23284E-07
 -1        47 6.43302E+02 1.96133E+03 7.76216E+02 6.18044E+02-1.98256E-08 1.53679E-07
 -1        48 4.50716E+02 1.25340E+03 5.08739E+02 4.80868E+02-4.75715E-08 1.68981E-07
 -1        49 2.22494E+02 5.85735E+02 2.41742E+02 2.88738E+02-7.44495E-08 1.21815E-07
 -1        50 6.84492E+01 1.99304E+02 8.02087E+01 1.17148E+02-8.63278E-08 4.39376E-08
 -1        51-1.93986E+01-9.39083E+01-3.40155E+01 5.64975E+01 7.41111E-08 7.60708E-08
 -1        52-1.00648E+02-4.90331E+02-1.77576E+02 3.88105E+01 1.92260E-08 1.59723E-07
 -1        53-2.88834E+02-1.14044E+03-4.30154E+02-7.98294E+01-2.05350E-08 1.64023E-07
 -1        54-5.13002E+02-1.78078E+03-6.91442E+02-2.49548E+02-4.42671E-08 1.33768E-07
 -1        55-7.03751E+02-2.28173E+03-9.01027E+02-3.85554E+02-5.01225E-08 1.05090E-07
 -1        56-8.52885E+02-2.74372E+03-1.08670E+03-4.68309E+02-4.36182E-08 8.57070E-08
 -1        57-1.00416E+03-3.31454E+03-1.30697E+03-5.43919E+02-4.51557E-08 7.25206E-08
 -1        58-1.19451E+03-4.02831E+03-1.58385E+03-6.45541E+02-4.97062E-08 3.27364E-08
 -1        59-1.42037E+03-4.84227E+03-1.90351E+03-7.60217E+02-4.39833E-08-2.09491E-08
 -1        60-1.66536E+03-5.75879E+03-2.26216E+03-8.62837E+02-2.37147E-08-8.00791E-08
 -1        61-1.94340E+03-6.86902E+03-2.69335E+03-9.50273E+02 6.46881E-09-1.49302E-07
 -1        62-2.28894E+03-8.26292E+03-3.23768E+03-1.03862E+03 5.26518E-08-1.91931E-07
 -1        63-2.69231E+03-9.86323E+03-3.87029E+03-1.13685E+03 8.84323E-08-1.58117E-07
 -1        64-3.08133E+03-1.13710E+04-4.47430E+03-1.21707E+03 8.95067E-08-9.49994E-08
 -1        65-3.35459E+03-1.24467E+04-4.90616E+03-1.21887E+03 6.09684E-08-2.52404E-08
 -1        66-3.49825E+03-1.30541E+04-5.14581E+03-1.08873E+03 2.87406E-08-8.21715E-09
 -1        67-3.55176E+03-1.35421E+04-5.31840E+03-7.92588E+02 1.27959E-08-2.37244E-08
 -1        68-4.02151E+03-1.47095E+04-5.84381E+03-4.78278E+02 1.65018E-08-5.07752E-08
 -1        69-3.17981E+03-1.55030E+04-5.85237E+03 4.14812E+02 1.68247E-08-2.65177E-08
 -1        70-1.93986E+01-9.39083E+01-3.40155E+01 5.64975E+01 7.41076E-08 7.60727E-08
 -1        71-1.00648E+02-4.90331E+02-1.77576E+02 3.88105E+01 1.92269E-08 1.59727E-07
 -1        72-2.88834E+02-1.14044E+03-4.30154E+02-7.98294E+01-2.05352E-08 1.64021E-07
 -1        73-5.13002E+02-1.78078E+03-6.91442E+02-2.49548E+02-4.42703E-08 1.33764E-07
 -1        74-7.03751E+02-2.28173E+03-9.01027E+02-3.85554E+02-5.01218E-08 1.05105E-07
 -1        75-8.52885E+02-2.74372E+03-1.08670E+03-4.68309E+02-4.36182E-08 8.57025E-08
 -1        76-1.00416E+03-3.31454E+03-1.30697E+03-5.43919E+02-4.51558E-08 7.25295E-08
 -1        77-1.19451E+03-4.02831E+03-1.58385E+03-6.45541E+02-4.97056E-08 3.27293E-08
 -1        78-1.42037E+03-4.84227E+03-1.90351E+03-7.60217E+02-4.39852E-08-2.09462E-08
 -1        79-1.66536E+03-5.75879E+03-2.26216E+03-8.62837E+02-2.37162E-08-8.00792E-08
 -1        80-1.94340E+03-6.86902E+03-2.69335E+03-9.50273E+02 6.46884E-09-1.49302E-07
 -1        81-2.28894E+03-8.26292E+03-3.23768E+03-1.03862E+03 5.26518E-08-1.91931E-07
 -1        82-2.69231E+03-9.86323E+03-3.87029E+03-1.13685E+03 8.84322E-08-1.58116E-07
 -1        83-3.08133E+03-1.13710E+04-4.47430E+03-1.21707E+03 8.95060E-08-9.50006E-08
 -1        84-3.35459E+03-1.24467E+04-4.90616E+03-1.21887E+03 6.09670E-08-2.52395E-08
 -1        85-3.49825E+03-1.30541E+04-5.14581E+03-1.08873E+03 2.87412E-08-8.21716E-09
 -1        86-3.55176E+03-1.35421E+04-5.31840E+03-7.92588E+02 1.27962E-08-2.37244E-08
 -1        87-4.02151E+03-1.47095E+04-5.84381E+03-4.78278E+02 1.65018E-08-5.07752E-08
 -1        88-3.17981E+03-1.55030E+04-5.85237E+03 4.14812E+02 1.68247E-08-2.65177E-08
 -1        89-7.60993E+01-3.13014E+02-9.47850E+01 4.22575E+02 7.42830E-09-2.26232E-08
 -1        90-9.26909E+01-2.20660E+02-5.89990E+01 4.58400E+02 1.70423E-08-4.42079E-08
 -1        91-7.56925E+01-1.95908E+02-5.45625E+01 2.11098E+02 2.24944E-08-1.39036E-08
 -1        92-7.39899E+01-2.16953E+02-6.38182E+01 1.57461E+02 2.31600E-08 9.11438E-10
 -1        93-2.87293E+01-2.55639E+02-6.56155E+01 2.44279E+02 2.94779E-08-2.10872E-08
 -1        94 2.95951E+01-2.94144E+02-6.31673E+01 3.79125E+02 5.04995E-08-9.20966E-08
 -1        95 9.90324E+01-2.83039E+02-4.23233E+01 4.43730E+02 6.57767E-08-1.74319E-07
 -1        96 1.12672E+02-2.34600E+02-2.69706E+01 4.16488E+02 6.84727E-08-1.94846E-07
 -1        97 9.89347E+01-1.62394E+02-1.21955E+01 3.46137E+02 5.45251E-08-1.44639E-07
 -1        98 6.91300E+01-1.04936E+02-6.02267E+00 2.90413E+02 2.72419E-08-7.44112E-08
 -1        99 7.65019E+01-5.73693E+01 9.03211E+00 2.59741E+02 2.74436E-09-6.96794E-09
 -1       100 7.58957E+01-2.38117E+01 1.79303E+01 2.42765E+02-1.40622E-08 4.68049E-08
 -1       101 6.60926E+01 2.09892E+01 2.77760E+01 2.16679E+02-2.31158E-08 7.78429E-08
 -1       102 4.22679E+01 6.06771E+01 3.20091E+01 1.86939E+02-2.61783E-08 9.48885E-08
 -1       103 6.01255E+01 7.91427E+01 4.24350E+01 1.81034E+02-3.06056E-08 1.15697E-07
 -1       104 9.04342E+01 5.41787E+01 4.36147E+01 2.16468E+02-3.54273E-08 1.47050E-07
 -1       105 1.12086E+02 2.70922E+01 4.17629E+01 2.41146E+02-3.36142E-08 1.72629E-07
 -1       106 8.79883E+01 3.01312E+01 3.53753E+01 1.98409E+02-3.10746E-08 1.48447E-07
 -1       107 4.36985E+01 5.74255E+01 3.02925E+01 1.05582E+02-1.10137E-08 6.16944E-08
 -1       108 4.36985E+01 5.74255E+01 3.02925E+01 1.05582E+02-1.10138E-08 6.16867E-08
 -1       109 8.79883E+01 3.01312E+01 3.53753E+01 1.98409E+02-3.10748E-08 1.48449E-07
 -1       110 1.12086E+02 2.70922E+01 4.17629E+01 2.41146E+02-3.36137E-08 1.72625E-07
 -1       111 9.04342E+01 5.41787E+01 4.36147E+01 2.16468E+02-3.54265E-08 1.47046E-07
 -1       112 6.01255E+01 7.91427E+01 4.24350E+01 1.81034E+02-3.06054E-08 1.15687E-07
 -1       113 4.22679E+01 6.06771E+01 3.20091E+01 1.86939E+02-2.61783E-08 9.48968E-08
 -1       114 6.60926E+01 2.09892E+01 2.77760E+01 2.16679E+02-2.31156E-08 7.78371E-08
 -1       115 7.58957E+01-2.38117E+01 1.79303E+01 2.42765E+02-1.40628E-08 4.68045E-08
 -1       116 7.65019E+01-5.73693E+01 9.03211E+00 2.59741E+02 2.74494E-09-6.97352E-09
 -1       117 6.91300E+01-1.04936E+02-6.02267E+00 2.90413E+02 2.72420E-08-7.44087E-08
 -1       118 9.89347E+01-1.62394E+02-1.21955E+01 3.46137E+02 5.45255E-08-1.44636E-07
 -1       119 1.12672E+02-2.34600E+02-2.69706E+01 4.16488E+02 6.84727E-08-1.94846E-07
 -1       120 9.90324E+01-2.83039E+02-4.23233E+01 4.43730E+02 6.57769E-08-1.74321E-07
 -1       121 2.95951E+01-2.94144E+02-6.31673E+01 3.79125E+02 5.04998E-08-9.20938E-08
 -1       122-2.87293E+01-2.55639E+02-6.56155E+01 2.44279E+02 2.94783E-08-2.10885E-08
 -1       123-7.39899E+01-2.16953E+02-6.38182E+01 1.57461E+02 2.31598E-08 9.12121E-10
 -1       124-7.56925E+01-1.95908E+02-5.45625E+01 2.11098E+02 2.24944E-08-1.39037E-08
 -1       125-9.26909E+01-2.20660E+02-5.89990E+01 4.58400E+02 1.70423E-08-4.42079E-08
 -1       126-7.60993E+01-3.13014E+02-9.47850E+01 4.22575E+02 7.42830E-09-2.26232E-08
 -3
    1PSTEP                       243          61           1          
  100CL  161 6.10000E-01         126                     1   61           1
 -4  TOSTRAIN    6    1
 -5  EXX         1    4    1    1
 -5  EYY         1    4    2    2
 -5  EZZ         1    4    3    3
 -5  EXY         1    4    1    2
 -5  EYZ         1    4    2    3
 -5  EZX         1    4    3    1
 -1         1-1.07034E-04 3.50737E-02-8.21664E-28 1.42750E-02-2.30406E-19-6.78179E-17
 -1         2-1.07034E-04 3.50737E-02-8.21664E-28 1.42750E-02-2.30406E-19-6.78179E-17
 -1         3-1.11646E-04 2.65586E-04 1.17453E-25 7.60188E-05-2.71519E-13-1.54585E-13
 -1         4-1.11646E-04 2.65586E-04 1.17453E-25 7.60188E-05-2.71513E-13-1.54586E-13
 -1         5-6.14766E-05 9.94686E-05 2.07955E-25 5.45129E-05 3.31937E-13-1.64572E-13
 -1         6-6.14766E-05 9.94686E-05 2.07958E-25 5.45129E-05 3.31911E-13-1.64658E-13
 -1         7-1.06280E-04-3.42171E-02-3.58076E-27 1.31580E-02-5.48242E-19 4.60037E-16
 -1         8-1.06280E-04-3.42171E-02-3.58076E-27 1.31580E-02-5.48242E-19 4.60037E-16
 -1         9-8.65613E-05 2.29832E-04-2.30266E-26 8.73684E-05 3.05630E-14-1.54490E-13
 -1        10-8.65613E-05 2.29832E-04-2.30261E-26 8.73684E-05 3.05559E-14-1.54473E-13
 -1        11-1.06657E-04-1.80796E-04-1.94430E-27 9.26084E-03-4.16077E-19 1.28087E-16
 -1        12-1.06657E-04-1.80796E-04-1.94430E-27 9.26084E-03-4.16077E-19 1.28087E-16
 -1        13-9.48199E-03 3.40379E-02 3.42800E-27 3.02420E-03 9.23500E-16-5.06348E-14
 -1        14-6.99214E-03 3.14305E-02 2.86337E-26 8.27509E-04 5.17331E-14-1.13885E-13
 -1        15-6.74581E-03 2.92276E-02 1.56726E-26 6.00366E-04 8.98818E-14-3.30870E-14
 -1        16-6.47178E-03 2.81187E-02 4.95560E-27 4.28387E-04 5.80734E-14-1.01613E-14
 -1        17-6.19964E-03 2.67647E-02-4.85803E-27 6.82686E-04-1.64729E-14-7.14472E-14
 -1        18-5.70343E-03 2.44295E-02 1.87389E-25 1.01910E-03-6.47716E-14-3.23719E-13
 -1        19-4.88657E-03 2.12333E-02 6.63726E-25 1.18230E-03-5.74893E-15-5.80749E-13
 -1        20-4.10807E-03 1.78961E-02 8.48772E-25 1.11635E-03 1.14066E-13-6.41342E-13
 -1        21-3.46887E-03 1.50309E-02 5.86011E-25 9.25674E-04 1.94928E-13-5.13603E-13
 -1        22-3.03394E-03 1.27686E-02 1.96107E-25 7.40766E-04 2.10681E-13-2.64049E-13
 -1        23-2.58112E-03 1.09006E-02 3.89134E-26 6.35324E-04 1.78416E-13-2.86543E-14
 -1        24-2.21208E-03 9.23715E-03 6.13507E-26 5.85866E-04 1.27129E-13 1.46223E-13
 -1        25-1.89710E-03 7.79621E-03 1.39175E-25 5.01825E-04 8.94372E-14 2.53798E-13
 -1        26-1.69580E-03 6.66539E-03 2.26114E-25 3.80976E-04 9.07806E-14 3.26455E-13
 -1        27-1.44587E-03 5.71280E-03 3.16715E-25 3.51664E-04 9.58406E-14 3.88983E-13
 -1        28-1.19526E-03 4.56770E-03 5.02959E-25 4.66969E-04 8.35357E-14 4.96193E-13
 -1        29-8.46021E-04 3.05483E-03 6.44783E-25 5.51705E-04 1.41795E-14 5.70156E-13
 -1        30-4.91421E-04 1.54021E-03 4.06788E-25 4.36646E-04-1.13364E-13 4.49974E-13
 -1        31-2.16971E-04 5.64721E-04 1.42833E-25 1.92289E-04-2.25298E-13 2.19773E-13
 -1        32-9.48199E-03 3.40379E-02 3.42800E-27 3.02420E-03 9.23500E-16-5.06348E-14
 -1        33-6.99214E-03 3.14305E-02 2.86337E-26 8.27509E-04 5.17331E-14-1.13885E-13
 -1        34-6.74581E-03 2.92276E-02 1.56726E-26 6.00366E-04 8.98819E-14-3.30868E-14
 -1        35-6.47178E-03 2.81187E-02 4.95579E-27 4.28387E-04 5.80734E-14-1.01625E-14
 -1        36-6.19964E-03 2.67647E-02-4.85884E-27 6.82686E-04-1.64728E-14-7.14452E-14
 -1        37-5.70343E-03 2.44295E-02 1.87396E-25 1.01910E-03-6.47727E-14-3.23724E-13
 -1        38-4.88657E-03 2.12333E-02 6.63721E-25 1.18230E-03-5.74821E-15-5.80746E-13
 -1        39-4.10807E-03 1.78961E-02 8.48772E-25 1.11635E-03 1.14066E-13-6.41342E-13
 -1        40-3.46887E-03 1.50309E-02 5.86021E-25 9.25674E-04 1.94926E-13-5.13609E-13
 -1        41-3.03394E-03 1.27686E-02 1.96111E-25 7.40766E-04 2.10680E-13-2.64053E-13
 -1        42-2.58112E-03 1.09006E-02 3.89133E-26 6.35324E-04 1.78417E-13-2.86486E-14
 -1        43-2.21208E-03 9.23715E-03 6.13524E-26 5.85866E-04 1.27130E-13 1.46226E-13
 -1        44-1.89710E-03 7.79621E-03 1.39181E-25 5.01825E-04 8.94389E-14 2.53803E-13
 -1        45-1.69580E-03 6.66539E-03 2.26112E-25 3.80976E-04 9.07802E-14 3.26454E-13
 -1        46-1.44587E-03 5.71280E-03 3.16733E-25 3.51664E-04 9.58444E-14 3.88994E-13
 -1        47-1.19526E-03 4.56770E-03 5.02975E-25 4.66969E-04 8.35366E-14 4.96201E-13
 -1        48-8.46021E-04 3.05483E-03 6.44854E-25 5.51705E-04 1.41913E-14 5.70187E-13
 -1        49-4.91421E-04 1.54021E-03 4.06750E-25 4.36646E-04-1.13374E-13 4.49940E-13
 -1        50-2.16971E-04 5.64721E-04 1.42895E-25 1.92289E-04-2.25280E-13 2.19831E-13
 -1        51-7.83922E-05-6.89879E-05 1.76522E-25 2.20057E-04 3.03511E-13 1.64334E-13
 -1        52 6.60891E-05-8.34951E-04 5.17534E-25 4.64037E-04 2.13955E-13 4.77125E-13
 -1        53 3.61693E-04-2.22289E-03 5.71475E-25 5.68630E-04 9.37564E-14 5.29235E-13
 -1        54 6.75946E-04-3.66570E-03 4.14651E-25 4.80366E-04-1.08622E-14 4.58191E-13
 -1        55 8.99927E-04-4.79355E-03 2.82721E-25 3.68204E-04-5.83358E-14 3.74364E-13
 -1        56 1.08591E-03-5.77902E-03 1.93260E-25 3.85495E-04-5.80005E-14 3.07624E-13
 -1        57 1.33790E-03-6.97805E-03 1.49742E-25 4.94657E-04-7.69598E-14 2.67431E-13
 -1        58 1.66826E-03-8.49699E-03 6.29725E-26 5.87001E-04-1.28702E-13 1.46119E-13
 -1        59 2.03340E-03-1.02318E-02 3.15955E-26 6.47085E-04-1.57877E-13-2.87364E-14
 -1        60 2.43246E-03-1.21640E-02 1.22411E-25 7.43883E-04-1.41358E-13-2.33505E-13
 -1        61 2.91437E-03-1.44841E-02 4.46232E-25 9.22435E-04-9.49381E-14-4.77804E-13
 -1        62 3.52066E-03-1.74032E-02 8.23927E-25 1.12880E-03 3.17390E-14-6.48177E-13
 -1        63 4.23253E-03-2.07930E-02 6.86516E-25 1.21254E-03 1.84711E-13-5.63378E-13
 -1        64 4.90505E-03-2.40131E-02 3.50588E-25 1.04634E-03 2.40040E-13-3.57238E-13
 -1        65 5.36583E-03-2.62898E-02 8.46427E-26 6.98598E-04 1.90621E-13-1.11837E-13
 -1        66 5.55886E-03-2.74880E-02 1.76055E-26 4.46327E-04 9.29872E-14-3.83367E-14
 -1        67 5.75258E-03-2.84051E-02 1.29835E-26 6.41556E-04 3.53172E-14-8.11234E-14
 -1        68 5.76084E-03-3.06024E-02 5.84042E-26 8.58231E-04 4.44165E-14-1.69210E-13
 -1        69 8.33218E-03-3.32389E-02 1.86947E-26 2.94660E-03 5.45013E-14-8.86148E-14
 -1        70-7.83922E-05-6.89879E-05 1.76503E-25 2.20057E-04 3.03502E-13 1.64343E-13
 -1        71 6.60891E-05-8.34951E-04 5.17559E-25 4.64037E-04 2.13962E-13 4.77138E-13
 -1        72 3.61693E-04-2.22289E-03 5.71461E-25 5.68630E-04 9.37537E-14 5.29229E-13
 -1        73 6.75946E-04-3.66570E-03 4.14639E-25 4.80366E-04-1.08754E-14 4.58182E-13
 -1        74 8.99927E-04-4.79355E-03 2.82790E-25 3.68204E-04-5.83200E-14 3.74409E-13
 -1        75 1.08591E-03-5.77902E-03 1.93243E-25 3.85495E-04-5.80045E-14 3.07610E-13
 -1        76 1.33790E-03-6.97805E-03 1.49769E-25 4.94657E-04-7.69524E-14 2.67458E-13
 -1        77 1.66826E-03-8.49699E-03 6.29631E-26 5.87001E-04-1.28707E-13 1.46097E-13
 -1        78 2.03340E-03-1.02318E-02 3.15997E-26 6.47085E-04-1.57880E-13-2.87257E-14
 -1        79 2.43246E-03-1.21640E-02 1.22412E-25 7.43883E-04-1.41363E-13-2.33504E-13
 -1        80 2.91437E-03-1.44841E-02 4.46229E-25 9.22435E-04-9.49376E-14-4.77803E-13
 -1        81 3.52066E-03-1.74032E-02 8.23928E-25 1.12880E-03 3.17390E-14-6.48177E-13
 -1        82 4.23253E-03-2.07930E-02 6.86508E-25 1.21254E-03 1.84711E-13-5.63374E-13
 -1        83 4.90505E-03-2.40131E-02 3.50591E-25 1.04634E-03 2.40037E-13-3.57241E-13
 -1        84 5.36583E-03-2.62898E-02 8.46378E-26 6.98598E-04 1.90617E-13-1.11833E-13
 -1        85 5.55886E-03-2.74880E-02 1.76064E-26 4.46327E-04 9.29889E-14-3.83369E-14
 -1        86 5.75258E-03-2.84051E-02 1.29837E-26 6.41556E-04 3.53184E-14-8.11235E-14
 -1        87 5.76084E-03-3.06024E-02 5.84042E-26 8.58231E-04 4.44165E-14-1.69210E-13
 -1        88 8.33218E-03-3.32389E-02 1.86947E-26 2.94660E-03 5.45013E-14-8.86148E-14
 -1        89-5.74907E-04 4.77701E-05 9.73003E-27 1.39512E-03 2.17583E-14-7.43477E-14
 -1        90-6.15647E-04 2.39363E-04 4.48531E-26 1.50515E-03 4.55699E-14-1.47232E-13
 -1        91-4.96615E-04 1.60840E-04 1.24138E-26 7.11257E-04 6.82353E-14-5.20961E-14
 -1        92-4.56460E-04 8.72891E-05 9.96874E-27 5.54041E-04 7.49796E-14-6.49206E-15
 -1        93-4.16907E-04 4.86492E-05 1.34903E-26 8.68374E-04 8.42805E-14-8.24040E-14
 -1        94-3.99193E-04 5.54660E-05 2.03933E-25 1.33825E-03 1.08621E-13-3.24026E-13
 -1        95-3.27022E-04 9.02501E-05 7.19811E-25 1.56964E-03 9.65869E-14-5.98300E-13
 -1        96-2.93704E-04 1.38975E-04 8.97927E-25 1.46447E-03 7.89749E-14-6.66979E-13
 -1        97-2.77249E-04 1.97986E-04 4.84353E-25 1.19435E-03 6.23455E-14-4.98791E-13
 -1        98-3.00741E-04 2.56023E-04 1.03467E-25 9.63402E-04 2.61012E-14-2.56352E-13
 -1        99-2.73859E-04 2.99570E-04-2.28524E-26 8.39428E-04 2.84583E-15-2.41918E-14
 -1       100-2.71912E-04 3.40156E-04 3.76792E-26 7.58872E-04-3.28876E-15 1.58836E-13
 -1       101-2.79601E-04 3.93420E-04 1.34790E-25 6.35589E-04-2.55166E-15 2.63949E-13
 -1       102-3.04944E-04 4.39108E-04 2.01671E-25 4.94381E-04 5.26923E-15 3.19938E-13
 -1       103-2.72971E-04 4.53625E-04 2.98248E-25 4.73737E-04 1.27086E-14 3.88802E-13
 -1       104-2.59657E-04 4.46656E-04 4.79962E-25 6.15937E-04 2.92505E-14 4.90763E-13
 -1       105-2.42164E-04 4.22246E-04 6.51188E-25 7.24384E-04 6.10614E-14 5.68303E-13
 -1       106-2.12666E-04 3.65746E-04 4.62601E-25 5.83984E-04 4.66816E-14 4.90699E-13
 -1       107-1.47682E-04 2.78943E-04 2.45636E-26 2.69595E-04 2.54158E-14 2.02084E-13
 -1       108-1.47682E-04 2.78943E-04 2.45497E-26 2.69595E-04 2.54083E-14 2.02060E-13
 -1       109-2.12666E-04 3.65746E-04 4.62615E-25 5.83984E-04 4.66831E-14 4.90706E-13
 -1       110-2.42164E-04 4.22246E-04 6.51162E-25 7.24384E-04 6.10596E-14 5.68292E-13
 -1       111-2.59657E-04 4.46656E-04 4.79934E-25 6.15937E-04 2.92490E-14 4.90749E-13
 -1       112-2.72971E-04 4.53625E-04 2.98197E-25 4.73737E-04 1.26994E-14 3.88769E-13
 -1       113-3.04944E-04 4.39108E-04 2.01703E-25 4.94381E-04 5.27682E-15 3.19964E-13
 -1       114-2.79601E-04 3.93420E-04 1.34769E-25 6.35589E-04-2.55622E-15 2.63931E-13
 -1       115-2.71912E-04 3.40156E-04 3.76768E-26 7.58872E-04-3.29090E-15 1.58835E-13
 -1       116-2.73859E-04 2.99570E-04-2.28521E-26 8.39428E-04 2.84298E-15-2.42098E-14
 -1       117-3.00741E-04 2.56023E-04 1.03460E-25 9.63402E-04 2.61034E-14-2.56345E-13
 -1       118-2.77249E-04 1.97986E-04 4.84340E-25 1.19435E-03 6.23484E-14-4.98783E-13
 -1       119-2.93704E-04 1.38975E-04 8.97926E-25 1.46447E-03 7.89749E-14-6.66979E-13
 -1       120-3.27022E-04 9.02501E-05 7.19823E-25 1.56964E-03 9.65864E-14-5.98305E-13
 -1       121-3.99193E-04 5.54660E-05 2.03921E-25 1.33825E-03 1.08623E-13-3.24017E-13
 -1       122-4.16907E-04 4.86492E-05 1.34925E-26 8.68374E-04 8.42811E-14-8.24085E-14
 -1       123-4.56460E-04 8.72891E-05 9.96821E-27 5.54041E-04 7.49792E-14-6.48975E-15
 -1       124-4.96615E-04 1.60840E-04 1.24139E-26 7.11257E-04 6.82355E-14-5.20965E-14
 -1       125-6.15647E-04 2.39363E-04 4.48531E-26 1.50515E-03 4.55698E-14-1.47232E-13
 -1       126-5.74907E-04 4.77701E-05 9.73003E-27 1.39512E-03 2.17583E-14-7.43477E-14
 -3
    1PSTEP                       244          61           1          
  100CL  161 6.10000E-01         126                     1   61           1
 -4  ERROR       1    1
 -5  STR(%)      1    1    0    0
 -1         1 6.36477E+01
 -1         2 6.36477E+01
 -1         3 6.50373E+00
 -1         4 6.50373E+00
 -1         5 2.66678E+01
 -1         6 2.66678E+01
 -1         7 6.11196E+01
 -1         8 6.11196E+01
 -1         9 2.66678E+01
 -1        10 2.66678E+01
 -1        11 6.36477E+01
 -1        12 6.36477E+01
 -1        13 6.36477E+01
 -1        14 6.17542E+01
 -1        15 6.12433E+01
 -1        16 6.11398E+01
 -1        17 6.19314E+01
 -1        18 6.22968E+01
 -1        19 6.23100E+01
 -1        20 6.23100E+01
 -1        21 6.19684E+01
 -1        22 6.15357E+01
 -1        23 6.07780E+01
 -1        24 6.02866E+01
 -1        25 5.95193E+01
 -1        26 5.84512E+01
 -1        27 5.68416E+01
 -1        28 5.60150E+01
 -1        29 5.28760E+01
 -1        30 4.26757E+01
 -1        31 2.41785E+01
 -1        32 6.36477E+01
 -1        33 6.17542E+01
 -1        34 6.12433E+01
 -1        35 6.11398E+01
 -1        36 6.19314E+01
 -1        37 6.22968E+01
 -1        38 6.23100E+01
 -1        39 6.23100E+01
 -1        40 6.19684E+01
 -1        41 6.15357E+01
 -1        42 6.07780E+01
 -1        43 6.02866E+01
 -1        44 5.95193E+01
 -1        45 5.84512E+01
 -1        46 5.68416E+01
 -1        47 5.60150E+01
 -1        48 5.28760E+01
 -1        49 4.26757E+01
 -1        50 2.41785E+01
 -1        51 5.91791E+01
 -1        52 5.91791E+01
 -1        53 6.94865E+01
 -1        54 7.01621E+01
 -1        55 7.01621E+01
 -1        56 6.82418E+01
 -1        57 6.69034E+01
 -1        58 6.53719E+01
 -1        59 6.41721E+01
 -1        60 6.33536E+01
 -1        61 6.27444E+01
 -1        62 6.22721E+01
 -1        63 6.18093E+01
 -1        64 6.12185E+01
 -1        65 6.03866E+01
 -1        66 5.96423E+01
 -1        67 6.05101E+01
 -1        68 6.12164E+01
 -1        69 6.12164E+01
 -1        70 5.91791E+01
 -1        71 5.91791E+01
 -1        72 6.94865E+01
 -1        73 7.01621E+01
 -1        74 7.01621E+01
 -1        75 6.82418E+01
 -1        76 6.69034E+01
 -1        77 6.53719E+01
 -1        78 6.41721E+01
 -1        79 6.33536E+01
 -1        80 6.27444E+01
 -1        81 6.22721E+01
 -1        82 6.18093E+01
 -1        83 6.12185E+01
 -1        84 6.03866E+01
 -1        85 5.96423E+01
 -1        86 6.05101E+01
 -1        87 6.12164E+01
 -1        88 6.12164E+01
 -1        89 6.36477E+01
 -1        90 6.17542E+01
 -1        91 6.12433E+01
 -1        92 6.11398E+01
 -1        93 6.19314E+01
 -1        94 6.22968E+01
 -1        95 6.23100E+01
 -1        96 6.23100E+01
 -1        97 6.27444E+01
 -1        98 6.33536E+01
 -1        99 6.41721E+01
 -1       100 6.53719E+01
 -1       101 6.69034E+01
 -1       102 6.82418E+01
 -1       103 7.01621E+01
 -1       104 7.01621E+01
 -1       105 6.94865E+01
 -1       106 5.91791E+01
 -1       107 5.91791E+01
 -1       108 5.91791E+01
 -1       109 5.91791E+01
 -1       110 6.94865E+01
 -1       111 7.01621E+01
 -1       112 7.01621E+01
 -1       113 6.82418E+01
 -1       114 6.69034E+01
 -1       115 6.53719E+01
 -1       116 6.41721E+01
 -1       117 6.33536E+01
 -1       118 6.27444E+01
 -1       119 6.23100E+01
 -1       120 6.23100E+01
 -1       121 6.22968E+01
 -1       122 6.19314E+01
 -1       123 6.11398E+01
 -1       124 6.12433E+01
 -1       125 6.17542E+01
 -1       126 6.36477E+01
 -3
    1PSTEP                       245          62           1          
  100CL  162 6.20000E-01         126                     1   62           1
 -4  DISP        4    1
 -5  D1          1    2    1    0
 -5  D2          1    2    2    0
 -5  D3          1    2    3    0
 -5  ALL         1    2    0    0    1ALL
 -1         1 0.00000E+00 0.00000E+00 0.00000E+00
 -1         2 0.00000E+00 0.00000E+00 0.00000E+00
 -1         3 2.23374E-01-1.34417E-02 0.00000E+00
 -1         4 2.23374E-01-1.34417E-02 0.00000E+00
 -1         5 2.18374E-01-4.46388E-02 0.00000E+00
 -1         6 2.18374E-01-4.46388E-02 0.00000E+00
 -1         7 0.00000E+00 0.00000E+00 0.00000E+00
 -1         8 0.00000E+00 0.00000E+00 0.00000E+00
 -1         9 2.20872E-01-2.90344E-02 0.00000E+00
 -1        10 2.20872E-01-2.90344E-02 0.00000E+00
 -1        11 0.00000E+00 0.00000E+00 0.00000E+00
 -1        12 0.00000E+00 0.00000E+00 0.00000E+00
 -1        13 1.23387E-03 1.63703E-03 0.00000E+00
 -1        14 3.89235E-03 3.22726E-03 0.00000E+00
 -1        15 8.25963E-03 4.60946E-03 0.00000E+00
 -1        16 1.42240E-02 5.75666E-03 0.00000E+00
 -1        17 2.17039E-02 6.59442E-03 0.00000E+00
 -1        18 3.05398E-02 7.06376E-03 0.00000E+00
 -1        19 4.05128E-02 7.15250E-03 0.00000E+00
 -1        20 5.14346E-02 6.89426E-03 0.00000E+00
 -1        21 6.31733E-02 6.33683E-03 0.00000E+00
 -1        22 7.56489E-02 5.50423E-03 0.00000E+00
 -1        23 8.87606E-02 4.40862E-03 0.00000E+00
 -1        24 1.02401E-01 3.07658E-03 0.00000E+00
 -1        25 1.16486E-01 1.55421E-03 0.00000E+00
 -1        26 1.30991E-01-1.31940E-04 0.00000E+00
 -1        27 1.45890E-01-1.98675E-03 0.00000E+00
 -1        28 1.61121E-01-4.02370E-03 0.00000E+00
 -1        29 1.76572E-01-6.22576E-03 0.00000E+00
 -1        30 1.92141E-01-8.55471E-03 0.00000E+00
 -1        31 2.07759E-01-1.09718E-02 0.00000E+00
 -1        32 1.23387E-03 1.63703E-03 0.00000E+00
 -1        33 3.89235E-03 3.22726E-03 0.00000E+00
 -1        34 8.25963E-03 4.60946E-03 0.00000E+00
 -1        35 1.42240E-02 5.75666E-03 0.00000E+00
 -1        36 2.17039E-02 6.59442E-03 0.00000E+00
 -1        37 3.05398E-02 7.06376E-03 0.00000E+00
 -1        38 4.05128E-02 7.15250E-03 0.00000E+00
 -1        39 5.14346E-02 6.89426E-03 0.00000E+00
 -1        40 6.31733E-02 6.33683E-03 0.00000E+00
 -1        41 7.56489E-02 5.50423E-03 0.00000E+00
 -1        42 8.87606E-02 4.40862E-03 0.00000E+00
 -1        43 1.02401E-01 3.07658E-03 0.00000E+00
 -1        44 1.16486E-01 1.55421E-03 0.00000E+00
 -1        45 1.30991E-01-1.31940E-04 0.00000E+00
 -1        46 1.45890E-01-1.98675E-03 0.00000E+00
 -1        47 1.61121E-01-4.02370E-03 0.00000E+00
 -1        48 1.76572E-01-6.22576E-03 0.00000E+00
 -1        49 1.92141E-01-8.55471E-03 0.00000E+00
 -1        50 2.07759E-01-1.09718E-02 0.00000E+00
 -1        51 2.02763E-01-4.21289E-02 0.00000E+00
 -1        52 1.87178E-01-3.95893E-02 0.00000E+00
 -1        53 1.71686E-01-3.70152E-02 0.00000E+00
 -1        54 1.56365E-01-3.44099E-02 0.00000E+00
 -1        55 1.41317E-01-3.17934E-02 0.00000E+00
 -1        56 1.26642E-01-2.92091E-02 0.00000E+00
 -1        57 1.12388E-01-2.66987E-02 0.00000E+00
 -1        58 9.85661E-02-2.42711E-02 0.00000E+00
 -1        59 8.52123E-02-2.19082E-02 0.00000E+00
 -1        60 7.24194E-02-1.96015E-02 0.00000E+00
 -1        61 6.03004E-02-1.73666E-02 0.00000E+00
 -1        62 4.89386E-02-1.52164E-02 0.00000E+00
 -1        63 3.84117E-02-1.31368E-02 0.00000E+00
 -1        64 2.88492E-02-1.11012E-02 0.00000E+00
 -1        65 2.04373E-02-9.10230E-03 0.00000E+00
 -1        66 1.33570E-02-7.15882E-03 0.00000E+00
 -1        67 7.73703E-03-5.29263E-03 0.00000E+00
 -1        68 3.62823E-03-3.50201E-03 0.00000E+00
 -1        69 1.14796E-03-1.71690E-03 0.00000E+00
 -1        70 2.02763E-01-4.21289E-02 0.00000E+00
 -1        71 1.87178E-01-3.95893E-02 0.00000E+00
 -1        72 1.71686E-01-3.70152E-02 0.00000E+00
 -1        73 1.56365E-01-3.44099E-02 0.00000E+00
 -1        74 1.41317E-01-3.17934E-02 0.00000E+00
 -1        75 1.26642E-01-2.92091E-02 0.00000E+00
 -1        76 1.12388E-01-2.66987E-02 0.00000E+00
 -1        77 9.85661E-02-2.42711E-02 0.00000E+00
 -1        78 8.52123E-02-2.19082E-02 0.00000E+00
 -1        79 7.24194E-02-1.96015E-02 0.00000E+00
 -1        80 6.03004E-02-1.73666E-02 0.00000E+00
 -1        81 4.89386E-02-1.52164E-02 0.00000E+00
 -1        82 3.84117E-02-1.31368E-02 0.00000E+00
 -1        83 2.88492E-02-1.11012E-02 0.00000E+00
 -1        84 2.04373E-02-9.10230E-03 0.00000E+00
 -1        85 1.33570E-02-7.15882E-03 0.00000E+00
 -1        86 7.73703E-03-5.29263E-03 0.00000E+00
 -1        87 3.62823E-03-3.50201E-03 0.00000E+00
 -1        88 1.14796E-03-1.71690E-03 0.00000E+00
 -1        89 7.49430E-04-3.12924E-05 0.00000E+00
 -1        90 3.41940E-03-1.13311E-04 0.00000E+00
 -1        91 7.66106E-03-3.06045E-04 0.00000E+00
 -1        92 1.34765E-02-6.57862E-04 0.00000E+00
 -1        93 2.07857E-02-1.20596E-03 0.00000E+00
 -1        94 2.94452E-02-1.96960E-03 0.00000E+00
 -1        95 3.92499E-02-2.94567E-03 0.00000E+00
 -1        96 5.00023E-02-4.11838E-03 0.00000E+00
 -1        97 6.15739E-02-5.47499E-03 0.00000E+00
 -1        98 7.38905E-02-7.01066E-03 0.00000E+00
 -1        99 8.68648E-02-8.71554E-03 0.00000E+00
 -1       100 1.00379E-01-1.05671E-02 0.00000E+00
 -1       101 1.14342E-01-1.25447E-02 0.00000E+00
 -1       102 1.28729E-01-1.46442E-02 0.00000E+00
 -1       103 1.43531E-01-1.68671E-02 0.00000E+00
 -1       104 1.58689E-01-1.91991E-02 0.00000E+00
 -1       105 1.74093E-01-2.16082E-02 0.00000E+00
 -1       106 1.89639E-01-2.40637E-02 0.00000E+00
 -1       107 2.05253E-01-2.65451E-02 0.00000E+00
 -1       108 2.05253E-01-2.65451E-02 0.00000E+00
 -1       109 1.89639E-01-2.40637E-02 0.00000E+00
 -1       110 1.74093E-01-2.16082E-02 0.00000E+00
 -1       111 1.58689E-01-1.91991E-02 0.00000E+00
 -1       112 1.43531E-01-1.68671E-02 0.00000E+00
 -1       113 1.28729E-01-1.46442E-02 0.00000E+00
 -1       114 1.14342E-01-1.25447E-02 0.00000E+00
 -1       115 1.00379E-01-1.05671E-02 0.00000E+00
 -1       116 8.68648E-02-8.71554E-03 0.00000E+00
 -1       117 7.38905E-02-7.01066E-03 0.00000E+00
 -1       118 6.15739E-02-5.47499E-03 0.00000E+00
 -1       119 5.00023E-02-4.11838E-03 0.00000E+00
 -1       120 3.92499E-02-2.94567E-03 0.00000E+00
 -1       121 2.94452E-02-1.96960E-03 0.00000E+00
 -1       122 2.07857E-02-1.20596E-03 0.00000E+00
 -1       123 1.34765E-02-6.57862E-04 0.00000E+00
 -1       124 7.66106E-03-3.06045E-04 0.00000E+00
 -1       125 3.41940E-03-1.13311E-04 0.00000E+00
 -1       126 7.49430E-04-3.12924E-05 0.00000E+00
 -3
    1PSTEP                       246          62           1          
  100CL  162 6.20000E-01         126                     1   62           1
 -4  STRESS      6    1
 -5  SXX         1    4    1    1
 -5  SYY         1    4    2    2
 -5  SZZ         1    4    3    3
 -5  SXY         1    4    1    2
 -5  SYZ         1    4    2    3
 -5  SZX         1    4    3    1
 -1         1 7.64817E+03 1.84347E+04 7.50269E+03 4.18343E+03-4.83304E-11-2.74452E-11
 -1         2 7.64817E+03 1.84347E+04 7.50269E+03 4.18343E+03-4.83304E-11-2.74452E-11
 -1         3 8.92361E+01 2.35584E+02 9.73586E+01 9.64229E+01-9.04969E-08-1.57696E-07
 -1         4 8.92361E+01 2.35584E+02 9.73586E+01 9.64229E+01-9.04953E-08-1.57694E-07
 -1         5-4.29078E+01-1.23497E+02-4.99249E+01 6.23732E+00 1.89803E-07-7.19160E-08
 -1         6-4.29078E+01-1.23497E+02-4.99249E+01 6.23732E+00 1.89795E-07-7.19160E-08
 -1         7-7.88614E+03-1.76370E+04-8.00074E+03 3.16561E+03-9.75310E-11 1.80323E-10
 -1         8-7.88614E+03-1.76370E+04-8.00074E+03 3.16561E+03-9.75310E-11 1.80323E-10
 -1         9 4.57796E+01 7.07684E+01 3.49493E+01 6.91984E+01 5.25516E-08-1.11192E-07
 -1        10 4.57796E+01 7.07684E+01 3.49493E+01 6.91984E+01 5.25494E-08-1.11196E-07
 -1        11-9.43882E+01-5.08882E+02-1.18473E+02 2.29612E+03-3.65121E-11 5.53326E-11
 -1        12-9.43882E+01-5.08882E+02-1.18473E+02 2.29612E+03-3.65121E-11 5.53326E-11
 -1        13 2.85131E+03 1.64034E+04 5.53847E+03 1.13523E+03 1.51885E-09-9.00183E-09
 -1        14 3.69786E+03 1.63281E+04 5.76471E+03 9.89734E+02 1.04071E-08-3.07975E-08
 -1        15 3.46324E+03 1.53137E+04 5.41567E+03 1.40718E+03 2.08576E-08-3.91500E-08
 -1        16 3.38233E+03 1.42691E+04 5.10207E+03 1.71319E+03 1.67902E-08-3.80256E-08
 -1        17 3.20163E+03 1.28236E+04 4.64677E+03 1.93126E+03 1.90347E-08-8.75828E-08
 -1        18 2.91227E+03 1.11247E+04 4.08693E+03 1.96863E+03 3.35572E-08-1.26888E-07
 -1        19 2.63210E+03 9.52673E+03 3.55482E+03 1.85228E+03 4.31505E-08-1.29106E-07
 -1        20 2.33837E+03 8.22690E+03 3.09912E+03 1.70204E+03 4.23046E-08-1.28573E-07
 -1        21 2.08893E+03 7.19692E+03 2.73034E+03 1.58506E+03 5.12896E-08-1.33527E-07
 -1        22 1.84479E+03 6.24529E+03 2.38411E+03 1.47878E+03 6.46882E-08-1.09689E-07
 -1        23 1.65443E+03 5.36873E+03 2.07476E+03 1.32830E+03 6.59592E-08-7.49078E-08
 -1        24 1.45143E+03 4.66336E+03 1.81010E+03 1.17138E+03 7.12928E-08-4.57538E-08
 -1        25 1.29732E+03 4.19007E+03 1.62626E+03 1.06463E+03 7.24761E-08 1.21830E-08
 -1        26 1.16376E+03 3.75436E+03 1.45876E+03 1.01241E+03 5.26335E-08 8.32722E-08
 -1        27 1.04809E+03 3.16335E+03 1.25089E+03 9.34507E+02 1.57837E-08 1.65477E-07
 -1        28 8.37529E+02 2.37950E+03 9.57512E+02 7.85984E+02-3.30983E-08 2.18738E-07
 -1        29 5.76908E+02 1.58987E+03 6.46351E+02 5.79744E+02-8.79037E-08 2.12959E-07
 -1        30 3.20432E+02 9.18412E+02 3.70259E+02 3.73176E+02-1.23867E-07 1.29634E-07
 -1        31 1.44638E+02 4.27400E+02 1.71250E+02 1.85984E+02-1.22776E-07-1.21976E-08
 -1        32 2.85131E+03 1.64034E+04 5.53847E+03 1.13523E+03 1.51885E-09-9.00183E-09
 -1        33 3.69786E+03 1.63281E+04 5.76471E+03 9.89734E+02 1.04071E-08-3.07975E-08
 -1        34 3.46324E+03 1.53137E+04 5.41567E+03 1.40718E+03 2.08576E-08-3.91500E-08
 -1        35 3.38233E+03 1.42691E+04 5.10207E+03 1.71319E+03 1.67902E-08-3.80256E-08
 -1        36 3.20163E+03 1.28236E+04 4.64677E+03 1.93126E+03 1.90347E-08-8.75824E-08
 -1        37 2.91227E+03 1.11247E+04 4.08693E+03 1.96863E+03 3.35574E-08-1.26888E-07
 -1        38 2.63210E+03 9.52673E+03 3.55482E+03 1.85228E+03 4.31509E-08-1.29108E-07
 -1        39 2.33837E+03 8.22690E+03 3.09912E+03 1.70204E+03 4.23046E-08-1.28573E-07
 -1        40 2.08893E+03 7.19692E+03 2.73034E+03 1.58506E+03 5.12896E-08-1.33527E-07
 -1        41 1.84479E+03 6.24529E+03 2.38411E+03 1.47878E+03 6.46882E-08-1.09689E-07
 -1        42 1.65443E+03 5.36873E+03 2.07476E+03 1.32830E+03 6.59592E-08-7.49101E-08
 -1        43 1.45143E+03 4.66336E+03 1.81010E+03 1.17138E+03 7.12927E-08-4.57496E-08
 -1        44 1.29732E+03 4.19007E+03 1.62626E+03 1.06463E+03 7.24765E-08 1.21791E-08
 -1        45 1.16376E+03 3.75436E+03 1.45876E+03 1.01241E+03 5.26330E-08 8.32732E-08
 -1        46 1.04809E+03 3.16335E+03 1.25089E+03 9.34507E+02 1.57839E-08 1.65482E-07
 -1        47 8.37529E+02 2.37950E+03 9.57512E+02 7.85984E+02-3.30983E-08 2.18733E-07
 -1        48 5.76908E+02 1.58987E+03 6.46351E+02 5.79744E+02-8.79049E-08 2.12947E-07
 -1        49 3.20432E+02 9.18412E+02 3.70259E+02 3.73176E+02-1.23867E-07 1.29637E-07
 -1        50 1.44638E+02 4.27400E+02 1.71250E+02 1.85984E+02-1.22775E-07-1.22022E-08
 -1        51-9.61837E+01-3.26676E+02-1.26958E+02 7.35569E+00 1.27611E-07 7.52983E-08
 -1        52-2.19986E+02-8.05576E+02-3.08313E+02-5.35031E+01 4.40540E-08 1.87687E-07
 -1        53-4.22167E+02-1.48532E+03-5.74479E+02-1.73052E+02-3.56426E-08 2.19254E-07
 -1        54-6.71366E+02-2.29084E+03-8.94166E+02-3.42833E+02-8.72264E-08 2.07247E-07
 -1        55-9.32561E+02-3.06101E+03-1.20818E+03-5.39070E+02-9.91297E-08 1.28848E-07
 -1        56-1.14478E+03-3.63884E+03-1.44949E+03-6.97524E+02-8.76822E-08 4.80764E-08
 -1        57-1.28641E+03-4.07630E+03-1.62667E+03-7.78697E+02-5.23132E-08-2.88382E-08
 -1        58-1.41243E+03-4.60617E+03-1.82812E+03-8.20172E+02-1.68895E-08-6.59970E-08
 -1        59-1.59391E+03-5.37035E+03-2.12005E+03-8.88598E+02 3.22339E-09-9.63632E-08
 -1        60-1.83473E+03-6.27900E+03-2.47650E+03-9.95876E+02 2.52248E-08-1.24683E-07
 -1        61-2.07834E+03-7.20476E+03-2.84061E+03-1.09226E+03 4.87490E-08-1.30548E-07
 -1        62-2.32249E+03-8.22610E+03-3.23662E+03-1.14032E+03 5.70160E-08-1.24366E-07
 -1        63-2.61874E+03-9.51808E+03-3.73737E+03-1.16028E+03 6.35873E-08-1.26861E-07
 -1        64-2.98937E+03-1.10669E+04-4.34783E+03-1.18104E+03 7.19800E-08-1.13729E-07
 -1        65-3.36166E+03-1.26061E+04-4.96094E+03-1.18224E+03 6.75856E-08-7.15354E-08
 -1        66-3.67301E+03-1.38705E+04-5.46938E+03-1.10955E+03 5.15542E-08-4.08387E-08
 -1        67-3.84088E+03-1.47680E+04-5.81478E+03-9.02825E+02 3.77394E-08-3.53904E-08
 -1        68-4.23740E+03-1.57111E+04-6.24676E+03-6.61813E+02 3.23958E-08-2.89324E-08
 -1        69-3.24919E+03-1.57110E+04-5.94453E+03 1.58979E+02 2.16027E-08-1.24082E-08
 -1        70-9.61837E+01-3.26676E+02-1.26958E+02 7.35569E+00 1.27614E-07 7.52937E-08
 -1        71-2.19986E+02-8.05576E+02-3.08313E+02-5.35031E+01 4.40518E-08 1.87690E-07
 -1        72-4.22167E+02-1.48532E+03-5.74479E+02-1.73052E+02-3.56429E-08 2.19258E-07
 -1        73-6.71366E+02-2.29084E+03-8.94166E+02-3.42833E+02-8.72262E-08 2.07245E-07
 -1        74-9.32561E+02-3.06101E+03-1.20818E+03-5.39070E+02-9.91298E-08 1.28858E-07
 -1        75-1.14478E+03-3.63884E+03-1.44949E+03-6.97524E+02-8.76822E-08 4.80770E-08
 -1        76-1.28641E+03-4.07630E+03-1.62667E+03-7.78697E+02-5.23115E-08-2.88391E-08
 -1        77-1.41243E+03-4.60617E+03-1.82812E+03-8.20172E+02-1.68879E-08-6.59951E-08
 -1        78-1.59391E+03-5.37035E+03-2.12005E+03-8.88598E+02 3.22319E-09-9.63712E-08
 -1        79-1.83473E+03-6.27900E+03-2.47650E+03-9.95876E+02 2.52249E-08-1.24683E-07
 -1        80-2.07834E+03-7.20476E+03-2.84061E+03-1.09226E+03 4.87485E-08-1.30548E-07
 -1        81-2.32249E+03-8.22610E+03-3.23662E+03-1.14032E+03 5.70160E-08-1.24366E-07
 -1        82-2.61874E+03-9.51808E+03-3.73737E+03-1.16028E+03 6.35873E-08-1.26863E-07
 -1        83-2.98937E+03-1.10669E+04-4.34783E+03-1.18104E+03 7.19801E-08-1.13729E-07
 -1        84-3.36166E+03-1.26061E+04-4.96094E+03-1.18224E+03 6.75847E-08-7.15354E-08
 -1        85-3.67301E+03-1.38705E+04-5.46938E+03-1.10955E+03 5.15545E-08-4.08388E-08
 -1        86-3.84088E+03-1.47680E+04-5.81478E+03-9.02825E+02 3.77390E-08-3.53904E-08
 -1        87-4.23740E+03-1.57111E+04-6.24676E+03-6.61813E+02 3.23958E-08-2.89324E-08
 -1        88-3.24919E+03-1.57110E+04-5.94453E+03 1.58979E+02 2.16027E-08-1.24082E-08
 -1        89-9.78850E+01-5.12919E+02-1.61302E+02 8.86952E+01 1.03529E-08-6.13582E-09
 -1        90-1.31030E+02-4.73583E+02-1.44996E+02 2.59572E+02 2.15719E-08-3.11317E-08
 -1        91-8.93633E+01-4.53379E+02-1.34138E+02 2.08603E+02 2.82611E-08-3.79179E-08
 -1        92-5.01743E+01-4.51773E+02-1.25791E+02 2.83245E+02 3.69014E-08-3.81913E-08
 -1        93 8.71113E+00-4.38298E+02-1.08591E+02 3.72696E+02 4.78920E-08-7.70673E-08
 -1        94 4.09675E+01-4.09571E+02-9.43777E+01 4.12666E+02 5.41982E-08-1.21990E-07
 -1        95 6.85514E+01-3.39589E+02-6.85074E+01 3.67300E+02 5.50607E-08-1.29360E-07
 -1        96 5.34572E+01-2.63882E+02-5.33808E+01 2.91451E+02 5.27531E-08-1.26491E-07
 -1        97 4.62474E+01-2.02336E+02-3.96717E+01 2.54551E+02 4.86057E-08-1.36028E-07
 -1        98 4.72203E+01-1.71337E+02-3.19745E+01 2.59628E+02 4.16482E-08-1.19872E-07
 -1        99 6.58542E+01-1.27791E+02-1.43976E+01 2.42241E+02 3.55756E-08-8.56052E-08
 -1       100 4.20573E+01-7.09570E+01-5.32946E+00 1.87676E+02 2.82435E-08-5.98785E-08
 -1       101 2.18946E+01-1.65188E+01 4.11849E+00 1.46978E+02 1.01351E-08-1.17786E-08
 -1       102 3.21951E+01-3.54627E+00 1.02588E+01 1.70696E+02-1.72786E-08 6.78263E-08
 -1       103 9.02992E+01-8.10583E+00 2.57029E+01 2.29429E+02-4.38237E-08 1.52032E-07
 -1       104 1.19520E+02-6.29037E+00 3.45468E+01 2.63473E+02-6.42211E-08 2.18104E-07
 -1       105 1.12274E+02 1.84033E+01 3.94209E+01 2.44739E+02-6.71946E-08 2.31751E-07
 -1       106 8.14371E+01 3.72038E+01 3.56104E+01 1.96139E+02-4.29802E-08 1.67253E-07
 -1       107 5.04998E+01 5.06777E+01 3.03419E+01 1.22802E+02 1.39834E-09 3.79228E-08
 -1       108 5.04998E+01 5.06777E+01 3.03419E+01 1.22802E+02 1.39588E-09 3.79369E-08
 -1       109 8.14371E+01 3.72038E+01 3.56104E+01 1.96139E+02-4.29803E-08 1.67251E-07
 -1       110 1.12274E+02 1.84033E+01 3.94209E+01 2.44739E+02-6.71938E-08 2.31749E-07
 -1       111 1.19520E+02-6.29037E+00 3.45468E+01 2.63473E+02-6.42213E-08 2.18112E-07
 -1       112 9.02992E+01-8.10583E+00 2.57029E+01 2.29429E+02-4.38238E-08 1.52022E-07
 -1       113 3.21951E+01-3.54627E+00 1.02588E+01 1.70696E+02-1.72785E-08 6.78250E-08
 -1       114 2.18946E+01-1.65188E+01 4.11849E+00 1.46978E+02 1.01346E-08-1.17723E-08
 -1       115 4.20573E+01-7.09570E+01-5.32946E+00 1.87676E+02 2.82434E-08-5.98866E-08
 -1       116 6.58542E+01-1.27791E+02-1.43976E+01 2.42241E+02 3.55752E-08-8.56011E-08
 -1       117 4.72203E+01-1.71337E+02-3.19745E+01 2.59628E+02 4.16482E-08-1.19872E-07
 -1       118 4.62474E+01-2.02336E+02-3.96717E+01 2.54551E+02 4.86060E-08-1.36029E-07
 -1       119 5.34572E+01-2.63882E+02-5.33808E+01 2.91451E+02 5.27531E-08-1.26491E-07
 -1       120 6.85514E+01-3.39589E+02-6.85074E+01 3.67300E+02 5.50606E-08-1.29360E-07
 -1       121 4.09675E+01-4.09571E+02-9.43777E+01 4.12666E+02 5.41984E-08-1.21990E-07
 -1       122 8.71113E+00-4.38298E+02-1.08591E+02 3.72696E+02 4.78922E-08-7.70681E-08
 -1       123-5.01743E+01-4.51773E+02-1.25791E+02 2.83245E+02 3.69013E-08-3.81911E-08
 -1       124-8.93633E+01-4.53379E+02-1.34138E+02 2.08603E+02 2.82610E-08-3.79180E-08
 -1       125-1.31030E+02-4.73583E+02-1.44996E+02 2.59572E+02 2.15720E-08-3.11317E-08
 -1       126-9.78850E+01-5.12919E+02-1.61302E+02 8.86952E+01 1.03529E-08-6.13582E-09
 -3
    1PSTEP                       247          62           1          
  100CL  162 6.20000E-01         126                     1   62           1
 -4  TOSTRAIN    6    1
 -5  EXX         1    4    1    1
 -5  EYY         1    4    2    2
 -5  EZZ         1    4    3    3
 -5  EXY         1    4    1    2
 -5  EYZ         1    4    2    3
 -5  EZX         1    4    3    1
 -1         1-1.00442E-04 3.34798E-02-2.46397E-28 1.23385E-02-3.62005E-19-2.14182E-17
 -1         2-1.00442E-04 3.34798E-02-2.46397E-28 1.23385E-02-3.62005E-19-2.14182E-17
 -1         3-1.65910E-04 5.87949E-04 5.39657E-25 1.11210E-04-4.38963E-13-3.95100E-13
 -1         4-1.65910E-04 5.87949E-04 5.39657E-25 1.11210E-04-4.38956E-13-3.95096E-13
 -1         5-1.47632E-05-2.01564E-04 7.09499E-25 9.40564E-05 5.13249E-13-4.14715E-13
 -1         6-1.47632E-05-2.01564E-04 7.09453E-25 9.40564E-05 5.13226E-13-4.14708E-13
 -1         7-1.00143E-04-3.35840E-02-2.35637E-27 1.14795E-02-7.33909E-19 4.82362E-16
 -1         8-1.00143E-04-3.35840E-02-2.35637E-27 1.14795E-02-7.33909E-19 4.82362E-16
 -1         9-9.03363E-05 2.41783E-04 1.56605E-25 1.56923E-04 4.94895E-14-3.96647E-13
 -1        10-9.03363E-05 2.41783E-04 1.56610E-25 1.56923E-04 4.94791E-14-3.96656E-13
 -1        11-1.00293E-04-6.13608E-04-4.21711E-28 7.49420E-03-6.17562E-19 1.84838E-16
 -1        12-1.00293E-04-6.13608E-04-4.21711E-28 7.49420E-03-6.17562E-19 1.84838E-16
 -1        13-9.18176E-03 3.35548E-02 3.98864E-28 2.05148E-03 3.81490E-15-2.93126E-14
 -1        14-7.27041E-03 3.26933E-02 2.04593E-26 3.97843E-04 2.58551E-14-1.01471E-13
 -1        15-7.14646E-03 3.10012E-02 4.03622E-26 6.41538E-04 5.25383E-14-1.32600E-13
 -1        16-6.67892E-03 2.91326E-02 3.03541E-26 7.97636E-04 3.65982E-14-1.28904E-13
 -1        17-6.08291E-03 2.65064E-02 1.59387E-25 1.05740E-03 1.58354E-14-2.89461E-13
 -1        18-5.37766E-03 2.33113E-02 3.60024E-25 1.14793E-03 3.12300E-14-4.23611E-13
 -1        19-4.57815E-03 2.01528E-02 3.91295E-25 1.02447E-03 5.06160E-14-4.37781E-13
 -1        20-4.00424E-03 1.75633E-02 3.87087E-25 8.28788E-04 4.05741E-14-4.36608E-13
 -1        21-3.59169E-03 1.55238E-02 4.31696E-25 7.22317E-04 5.78106E-14-4.59955E-13
 -1        22-3.23966E-03 1.36476E-02 3.37058E-25 7.01527E-04 1.11972E-13-3.97124E-13
 -1        23-2.75913E-03 1.18085E-02 2.02190E-25 6.35858E-04 1.40569E-13-2.90893E-13
 -1        24-2.41377E-03 1.03023E-02 1.35144E-25 4.78829E-04 1.79804E-13-2.06230E-13
 -1        25-2.21663E-03 9.29985E-03 7.94744E-26 3.50692E-04 2.34327E-13-2.86929E-14
 -1        26-2.09861E-03 8.44894E-03 1.59546E-25 3.82998E-04 2.39729E-13 2.08747E-13
 -1        27-1.79304E-03 7.23550E-03 5.45247E-25 5.32262E-04 2.07304E-13 4.97332E-13
 -1        28-1.41553E-03 5.57816E-03 1.01767E-24 6.23480E-04 1.12735E-13 7.09312E-13
 -1        29-1.02171E-03 3.82905E-03 1.10292E-24 5.57082E-04-5.83886E-14 7.46212E-13
 -1        30-6.91933E-04 2.29874E-03 6.03609E-25 4.03370E-04-2.51182E-13 5.25579E-13
 -1        31-3.55468E-04 1.09821E-03 1.83565E-25 2.14284E-04-3.90965E-13 8.68105E-14
 -1        32-9.18176E-03 3.35548E-02 3.98864E-28 2.05148E-03 3.81490E-15-2.93126E-14
 -1        33-7.27041E-03 3.26933E-02 2.04592E-26 3.97843E-04 2.58551E-14-1.01471E-13
 -1        34-7.14646E-03 3.10012E-02 4.03621E-26 6.41538E-04 5.25384E-14-1.32599E-13
 -1        35-6.67892E-03 2.91326E-02 3.03541E-26 7.97636E-04 3.65982E-14-1.28904E-13
 -1        36-6.08291E-03 2.65064E-02 1.59386E-25 1.05740E-03 1.58358E-14-2.89459E-13
 -1        37-5.37766E-03 2.33113E-02 3.60021E-25 1.14793E-03 3.12308E-14-4.23609E-13
 -1        38-4.57815E-03 2.01528E-02 3.91308E-25 1.02447E-03 5.06157E-14-4.37789E-13
 -1        39-4.00424E-03 1.75633E-02 3.87087E-25 8.28788E-04 4.05740E-14-4.36608E-13
 -1        40-3.59169E-03 1.55238E-02 4.31693E-25 7.22317E-04 5.78109E-14-4.59954E-13
 -1        41-3.23966E-03 1.36476E-02 3.37058E-25 7.01527E-04 1.11972E-13-3.97124E-13
 -1        42-2.75913E-03 1.18085E-02 2.02198E-25 6.35858E-04 1.40567E-13-2.90900E-13
 -1        43-2.41377E-03 1.03023E-02 1.35133E-25 4.78829E-04 1.79807E-13-2.06216E-13
 -1        44-2.21663E-03 9.29985E-03 7.94729E-26 3.50692E-04 2.34324E-13-2.87055E-14
 -1        45-2.09861E-03 8.44894E-03 1.59546E-25 3.82998E-04 2.39728E-13 2.08751E-13
 -1        46-1.79304E-03 7.23550E-03 5.45281E-25 5.32262E-04 2.07309E-13 4.97347E-13
 -1        47-1.41553E-03 5.57816E-03 1.01763E-24 6.23480E-04 1.12731E-13 7.09297E-13
 -1        48-1.02171E-03 3.82905E-03 1.10282E-24 5.57082E-04-5.84041E-14 7.46177E-13
 -1        49-6.91933E-04 2.29874E-03 6.03631E-25 4.03370E-04-2.51179E-13 5.25589E-13
 -1        50-3.55468E-04 1.09821E-03 1.83559E-25 2.14284E-04-3.90966E-13 8.67950E-14
 -1        51 1.28505E-05-5.62728E-04 3.24572E-25 2.41558E-04 4.70716E-13 1.03074E-13
 -1        52 2.05040E-04-1.53960E-03 7.11410E-25 4.22876E-04 3.26129E-13 5.35373E-13
 -1        53 4.93453E-04-2.97806E-03 1.02223E-24 5.60632E-04 1.09682E-13 7.14040E-13
 -1        54 8.75223E-04-4.73865E-03 1.05153E-24 6.22186E-04-6.58054E-14 7.28682E-13
 -1        55 1.26374E-03-6.47906E-03 5.25441E-25 5.35429E-04-1.84311E-13 4.96605E-13
 -1        56 1.54777E-03-7.80019E-03 1.71361E-25 3.78876E-04-2.29614E-13 2.32890E-13
 -1        57 1.73426E-03-8.74687E-03 4.55959E-26 3.38522E-04-1.91780E-13-4.18052E-14
 -1        58 1.95436E-03-9.82992E-03 8.44263E-26 4.75560E-04-1.12883E-13-1.91565E-13
 -1        59 2.29375E-03-1.14179E-02 1.87765E-25 6.46276E-04-7.34076E-14-3.05441E-13
 -1        60 2.70134E-03-1.33471E-02 3.37154E-25 7.04234E-04-2.27996E-14-4.13787E-13
 -1        61 3.11668E-03-1.53131E-02 4.09138E-25 7.12392E-04 5.44801E-14-4.51067E-13
 -1        62 3.55902E-03-1.74373E-02 3.96482E-25 8.29174E-04 9.35931E-14-4.36648E-13
 -1        63 4.11467E-03-2.01128E-02 4.27523E-25 1.04498E-03 1.22102E-13-4.47454E-13
 -1        64 4.78373E-03-2.33571E-02 3.84256E-25 1.16844E-03 1.68525E-13-4.07977E-13
 -1        65 5.46690E-03-2.66169E-02 2.06970E-25 1.07125E-03 1.87718E-13-2.65646E-13
 -1        66 5.99168E-03-2.92706E-02 9.48266E-26 8.16637E-04 1.55538E-13-1.54201E-13
 -1        67 6.41186E-03-3.11336E-02 5.95920E-26 6.75216E-04 1.15735E-13-1.27394E-13
 -1        68 6.38990E-03-3.29057E-02 4.18775E-26 4.07624E-04 1.03600E-13-1.01573E-13
 -1        69 8.47139E-03-3.37579E-02 1.22774E-26 2.01994E-03 7.22906E-14-4.30303E-14
 -1        70 1.28505E-05-5.62728E-04 3.24565E-25 2.41558E-04 4.70720E-13 1.03056E-13
 -1        71 2.05040E-04-1.53960E-03 7.11421E-25 4.22876E-04 3.26126E-13 5.35386E-13
 -1        72 4.93453E-04-2.97806E-03 1.02227E-24 5.60632E-04 1.09686E-13 7.14053E-13
 -1        73 8.75223E-04-4.73865E-03 1.05152E-24 6.22186E-04-6.58070E-14 7.28675E-13
 -1        74 1.26374E-03-6.47906E-03 5.25506E-25 5.35429E-04-1.84301E-13 4.96637E-13
 -1        75 1.54777E-03-7.80019E-03 1.71361E-25 3.78876E-04-2.29613E-13 2.32892E-13
 -1        76 1.73426E-03-8.74687E-03 4.55895E-26 3.38522E-04-1.91776E-13-4.18097E-14
 -1        77 1.95436E-03-9.82992E-03 8.44155E-26 4.75560E-04-1.12877E-13-1.91560E-13
 -1        78 2.29375E-03-1.14179E-02 1.87794E-25 6.46276E-04-7.34153E-14-3.05466E-13
 -1        79 2.70134E-03-1.33471E-02 3.37155E-25 7.04234E-04-2.27994E-14-4.13788E-13
 -1        80 3.11668E-03-1.53131E-02 4.09136E-25 7.12392E-04 5.44785E-14-4.51067E-13
 -1        81 3.55902E-03-1.74373E-02 3.96481E-25 8.29174E-04 9.35933E-14-4.36647E-13
 -1        82 4.11467E-03-2.01128E-02 4.27533E-25 1.04498E-03 1.22101E-13-4.47459E-13
 -1        83 4.78373E-03-2.33571E-02 3.84255E-25 1.16844E-03 1.68526E-13-4.07976E-13
 -1        84 5.46690E-03-2.66169E-02 2.06967E-25 1.07125E-03 1.87715E-13-2.65645E-13
 -1        85 5.99168E-03-2.92706E-02 9.48276E-26 8.16637E-04 1.55539E-13-1.54202E-13
 -1        86 6.41186E-03-3.11336E-02 5.95913E-26 6.75216E-04 1.15734E-13-1.27394E-13
 -1        87 6.38990E-03-3.29057E-02 4.18775E-26 4.07624E-04 1.03600E-13-1.01573E-13
 -1        88 8.47139E-03-3.37579E-02 1.22774E-26 2.01994E-03 7.22906E-14-4.30303E-14
 -1        89-3.55185E-04-4.61218E-04 1.00478E-27 3.31609E-04 3.29791E-14-2.10635E-14
 -1        90-4.40252E-04-3.21089E-04 2.84128E-26 9.12919E-04 6.31418E-14-1.05841E-13
 -1        91-3.67301E-04-3.28829E-04 4.67400E-26 7.82004E-04 7.90507E-14-1.31911E-13
 -1        92-3.43621E-04-3.03562E-04 5.54774E-26 1.05800E-03 1.02812E-13-1.38811E-13
 -1        93-3.08008E-04-2.47121E-04 1.65554E-25 1.37776E-03 1.14475E-13-2.72238E-13
 -1        94-2.96963E-04-1.77400E-04 3.72431E-25 1.51503E-03 1.01153E-13-4.22353E-13
 -1        95-2.31739E-04-1.14175E-04 4.18156E-25 1.35931E-03 8.97690E-14-4.48355E-13
 -1        96-2.22608E-04-4.56630E-05 3.97177E-25 1.07704E-03 7.62003E-14-4.39118E-13
 -1        97-2.37505E-04 3.70767E-05 4.40867E-25 9.20181E-04 4.86261E-14-4.67161E-13
 -1        98-2.69162E-04 1.08904E-04 3.36742E-25 9.09758E-04 3.32247E-14-4.11266E-13
 -1        99-2.32690E-04 1.54052E-04 1.74816E-25 8.37609E-04 3.84188E-14-2.98968E-13
 -1       100-2.29708E-04 1.94424E-04 7.98756E-26 6.14945E-04 3.52114E-14-2.12389E-13
 -1       101-2.41183E-04 2.49337E-04-2.69988E-26 4.34853E-04 2.09262E-14-4.60533E-14
 -1       102-2.75419E-04 3.12157E-04 5.90277E-26 4.92701E-04 1.04803E-14 2.27273E-13
 -1       103-2.64654E-04 3.70431E-04 4.94654E-25 7.03284E-04 1.13998E-14 5.14181E-13
 -1       104-2.70153E-04 4.16592E-04 1.08251E-24 8.15539E-04 1.65801E-14 7.38847E-13
 -1       105-2.64129E-04 4.33491E-04 1.22082E-24 7.33086E-04 2.41444E-14 7.83944E-13
 -1       106-2.43446E-04 3.97285E-04 5.62660E-25 5.56477E-04 3.58910E-14 5.60130E-13
 -1       107-1.71309E-04 3.02690E-04-1.07706E-25 3.21153E-04 4.26844E-14 1.15677E-13
 -1       108-1.71309E-04 3.02690E-04-1.07684E-25 3.21153E-04 4.26911E-14 1.15722E-13
 -1       109-2.43446E-04 3.97285E-04 5.62659E-25 5.56477E-04 3.58887E-14 5.60125E-13
 -1       110-2.64129E-04 4.33491E-04 1.22080E-24 7.33086E-04 2.41450E-14 7.83938E-13
 -1       111-2.70153E-04 4.16592E-04 1.08258E-24 8.15539E-04 1.65871E-14 7.38872E-13
 -1       112-2.64654E-04 3.70431E-04 4.94581E-25 7.03284E-04 1.13896E-14 5.14149E-13
 -1       113-2.75419E-04 3.12157E-04 5.90276E-26 4.92701E-04 1.04795E-14 2.27268E-13
 -1       114-2.41183E-04 2.49337E-04-2.70000E-26 4.34853E-04 2.09305E-14-4.60331E-14
 -1       115-2.29708E-04 1.94424E-04 7.98959E-26 6.14945E-04 3.52041E-14-2.12414E-13
 -1       116-2.32690E-04 1.54052E-04 1.74803E-25 8.37609E-04 3.84209E-14-2.98955E-13
 -1       117-2.69162E-04 1.08904E-04 3.36740E-25 9.09758E-04 3.32251E-14-4.11264E-13
 -1       118-2.37505E-04 3.70767E-05 4.40874E-25 9.20181E-04 4.86261E-14-4.67164E-13
 -1       119-2.22608E-04-4.56630E-05 3.97176E-25 1.07704E-03 7.62004E-14-4.39118E-13
 -1       120-2.31739E-04-1.14175E-04 4.18155E-25 1.35931E-03 8.97688E-14-4.48355E-13
 -1       121-2.96963E-04-1.77400E-04 3.72431E-25 1.51503E-03 1.01154E-13-4.22353E-13
 -1       122-3.08008E-04-2.47121E-04 1.65558E-25 1.37776E-03 1.14475E-13-2.72241E-13
 -1       123-3.43621E-04-3.03562E-04 5.54769E-26 1.05800E-03 1.02812E-13-1.38811E-13
 -1       124-3.67301E-04-3.28829E-04 4.67402E-26 7.82004E-04 7.90505E-14-1.31912E-13
 -1       125-4.40252E-04-3.21089E-04 2.84128E-26 9.12919E-04 6.31418E-14-1.05841E-13
 -1       126-3.55185E-04-4.61218E-04 1.00478E-27 3.31609E-04 3.29791E-14-2.10635E-14
 -3
    1PSTEP                       248          62           1          
  100CL  162 6.20000E-01         126                     1   62           1
 -4  ERROR       1    1
 -5  STR(%)      1    1    0    0
 -1         1 6.31969E+01
 -1         2 6.31969E+01
 -1         3 2.78839E+01
 -1         4 2.78839E+01
 -1         5 7.58482E+01
 -1         6 7.58482E+01
 -1         7 5.89777E+01
 -1         8 5.89777E+01
 -1         9 7.58482E+01
 -1        10 7.58482E+01
 -1        11 6.31969E+01
 -1        12 6.31969E+01
 -1        13 6.31969E+01
 -1        14 6.24365E+01
 -1        15 6.24170E+01
 -1        16 6.28220E+01
 -1        17 6.32067E+01
 -1        18 6.32067E+01
 -1        19 6.31366E+01
 -1        20 6.28765E+01
 -1        21 6.23825E+01
 -1        22 6.21598E+01
 -1        23 6.18263E+01
 -1        24 6.14457E+01
 -1        25 6.05024E+01
 -1        26 5.98224E+01
 -1        27 5.92787E+01
 -1        28 5.80730E+01
 -1        29 5.48391E+01
 -1        30 4.98850E+01
 -1        31 3.96517E+01
 -1        32 6.31969E+01
 -1        33 6.24365E+01
 -1        34 6.24170E+01
 -1        35 6.28220E+01
 -1        36 6.32067E+01
 -1        37 6.32067E+01
 -1        38 6.31366E+01
 -1        39 6.28765E+01
 -1        40 6.23825E+01
 -1        41 6.21598E+01
 -1        42 6.18263E+01
 -1        43 6.14457E+01
 -1        44 6.05024E+01
 -1        45 5.98224E+01
 -1        46 5.92787E+01
 -1        47 5.80730E+01
 -1        48 5.48391E+01
 -1        49 4.98850E+01
 -1        50 3.96517E+01
 -1        51 7.58482E+01
 -1        52 6.89996E+01
 -1        53 6.89996E+01
 -1        54 6.83282E+01
 -1        55 6.70589E+01
 -1        56 6.49839E+01
 -1        57 6.30891E+01
 -1        58 6.25780E+01
 -1        59 6.25512E+01
 -1        60 6.21376E+01
 -1        61 6.13653E+01
 -1        62 6.07890E+01
 -1        63 6.06595E+01
 -1        64 6.05371E+01
 -1        65 6.00851E+01
 -1        66 5.94301E+01
 -1        67 5.88500E+01
 -1        68 5.90167E+01
 -1        69 5.90167E+01
 -1        70 7.58482E+01
 -1        71 6.89996E+01
 -1        72 6.89996E+01
 -1        73 6.83282E+01
 -1        74 6.70589E+01
 -1        75 6.49839E+01
 -1        76 6.30891E+01
 -1        77 6.25780E+01
 -1        78 6.25512E+01
 -1        79 6.21376E+01
 -1        80 6.13653E+01
 -1        81 6.07890E+01
 -1        82 6.06595E+01
 -1        83 6.05371E+01
 -1        84 6.00851E+01
 -1        85 5.94301E+01
 -1        86 5.88500E+01
 -1        87 5.90167E+01
 -1        88 5.90167E+01
 -1        89 6.31969E+01
 -1        90 6.24365E+01
 -1        91 6.24170E+01
 -1        92 6.28220E+01
 -1        93 6.32067E+01
 -1        94 6.32067E+01
 -1        95 6.31366E+01
 -1        96 6.28765E+01
 -1        97 6.23825E+01
 -1        98 6.21598E+01
 -1        99 6.25512E+01
 -1       100 6.25780E+01
 -1       101 6.30891E+01
 -1       102 6.49839E+01
 -1       103 6.70589E+01
 -1       104 6.83282E+01
 -1       105 6.89996E+01
 -1       106 6.89996E+01
 -1       107 7.58482E+01
 -1       108 7.58482E+01
 -1       109 6.89996E+01
 -1       110 6.89996E+01
 -1       111 6.83282E+01
 -1       112 6.70589E+01
 -1       113 6.49839E+01
 -1       114 6.30891E+01
 -1       115 6.25780E+01
 -1       116 6.25512E+01
 -1       117 6.21598E+01
 -1       118 6.23825E+01
 -1       119 6.28765E+01
 -1       120 6.31366E+01
 -1       121 6.32067E+01
 -1       122 6.32067E+01
 -1       123 6.28220E+01
 -1       124 6.24170E+01
 -1       125 6.24365E+01
 -1       126 6.31969E+01
 -3
    1PSTEP                       249          63           1          
  100CL  163 6.30000E-01         126                     1   63           1
 -4  DISP        4    1
 -5  D1          1    2    1    0
 -5  D2          1    2    2    0
 -5  D3          1    2    3    0
 -5  ALL         1    2    0    0    1ALL
 -1         1 0.00000E+00 0.00000E+00 0.00000E+00
 -1         2 0.00000E+00 0.00000E+00 0.00000E+00
 -1         3 2.29704E-01-1.47873E-02 0.00000E+00
 -1         4 2.29704E-01-1.47873E-02 0.00000E+00
 -1         5 2.24247E-01-4.73465E-02 0.00000E+00
 -1         6 2.24247E-01-4.73465E-02 0.00000E+00
 -1         7 0.00000E+00 0.00000E+00 0.00000E+00
 -1         8 0.00000E+00 0.00000E+00 0.00000E+00
 -1         9 2.26972E-01-3.10608E-02 0.00000E+00
 -1        10 2.26972E-01-3.10608E-02 0.00000E+00
 -1        11 0.00000E+00 0.00000E+00 0.00000E+00
 -1        12 0.00000E+00 0.00000E+00 0.00000E+00
 -1        13 1.02951E-03 1.57501E-03 0.00000E+00
 -1        14 3.60140E-03 3.21658E-03 0.00000E+00
 -1        15 8.07699E-03 4.68039E-03 0.00000E+00
 -1        16 1.43129E-02 5.84865E-03 0.00000E+00
 -1        17 2.20935E-02 6.62527E-03 0.00000E+00
 -1        18 3.11510E-02 6.99900E-03 0.00000E+00
 -1        19 4.12607E-02 7.01605E-03 0.00000E+00
 -1        20 5.23028E-02 6.72424E-03 0.00000E+00
 -1        21 6.41954E-02 6.14830E-03 0.00000E+00
 -1        22 7.68584E-02 5.29597E-03 0.00000E+00
 -1        23 9.01887E-02 4.18483E-03 0.00000E+00
 -1        24 1.04110E-01 2.84246E-03 0.00000E+00
 -1        25 1.18572E-01 1.29660E-03 0.00000E+00
 -1        26 1.33553E-01-4.50448E-04 0.00000E+00
 -1        27 1.48999E-01-2.41270E-03 0.00000E+00
 -1        28 1.64815E-01-4.59266E-03 0.00000E+00
 -1        29 1.80880E-01-6.95894E-03 0.00000E+00
 -1        30 1.97101E-01-9.47047E-03 0.00000E+00
 -1        31 2.13401E-01-1.20934E-02 0.00000E+00
 -1        32 1.02951E-03 1.57501E-03 0.00000E+00
 -1        33 3.60140E-03 3.21658E-03 0.00000E+00
 -1        34 8.07699E-03 4.68039E-03 0.00000E+00
 -1        35 1.43129E-02 5.84865E-03 0.00000E+00
 -1        36 2.20935E-02 6.62527E-03 0.00000E+00
 -1        37 3.11510E-02 6.99900E-03 0.00000E+00
 -1        38 4.12607E-02 7.01605E-03 0.00000E+00
 -1        39 5.23028E-02 6.72424E-03 0.00000E+00
 -1        40 6.41954E-02 6.14830E-03 0.00000E+00
 -1        41 7.68584E-02 5.29597E-03 0.00000E+00
 -1        42 9.01887E-02 4.18483E-03 0.00000E+00
 -1        43 1.04110E-01 2.84246E-03 0.00000E+00
 -1        44 1.18572E-01 1.29660E-03 0.00000E+00
 -1        45 1.33553E-01-4.50448E-04 0.00000E+00
 -1        46 1.48999E-01-2.41270E-03 0.00000E+00
 -1        47 1.64815E-01-4.59266E-03 0.00000E+00
 -1        48 1.80880E-01-6.95894E-03 0.00000E+00
 -1        49 1.97101E-01-9.47047E-03 0.00000E+00
 -1        50 2.13401E-01-1.20934E-02 0.00000E+00
 -1        51 2.07954E-01-4.45965E-02 0.00000E+00
 -1        52 1.91706E-01-4.18051E-02 0.00000E+00
 -1        53 1.75590E-01-3.89818E-02 0.00000E+00
 -1        54 1.59684E-01-3.61385E-02 0.00000E+00
 -1        55 1.44087E-01-3.32914E-02 0.00000E+00
 -1        56 1.28911E-01-3.04787E-02 0.00000E+00
 -1        57 1.14237E-01-2.77498E-02 0.00000E+00
 -1        58 1.00097E-01-2.51329E-02 0.00000E+00
 -1        59 8.65091E-02-2.26249E-02 0.00000E+00
 -1        60 7.35293E-02-2.02125E-02 0.00000E+00
 -1        61 6.12446E-02-1.78945E-02 0.00000E+00
 -1        62 4.97446E-02-1.56797E-02 0.00000E+00
 -1        63 3.91040E-02-1.35688E-02 0.00000E+00
 -1        64 2.94005E-02-1.15358E-02 0.00000E+00
 -1        65 2.07653E-02-9.53579E-03 0.00000E+00
 -1        66 1.34000E-02-7.53533E-03 0.00000E+00
 -1        67 7.54013E-03-5.53866E-03 0.00000E+00
 -1        68 3.35203E-03-3.58743E-03 0.00000E+00
 -1        69 9.69364E-04-1.69768E-03 0.00000E+00
 -1        70 2.07954E-01-4.45965E-02 0.00000E+00
 -1        71 1.91706E-01-4.18051E-02 0.00000E+00
 -1        72 1.75590E-01-3.89818E-02 0.00000E+00
 -1        73 1.59684E-01-3.61385E-02 0.00000E+00
 -1        74 1.44087E-01-3.32914E-02 0.00000E+00
 -1        75 1.28911E-01-3.04787E-02 0.00000E+00
 -1        76 1.14237E-01-2.77498E-02 0.00000E+00
 -1        77 1.00097E-01-2.51329E-02 0.00000E+00
 -1        78 8.65091E-02-2.26249E-02 0.00000E+00
 -1        79 7.35293E-02-2.02125E-02 0.00000E+00
 -1        80 6.12446E-02-1.78945E-02 0.00000E+00
 -1        81 4.97446E-02-1.56797E-02 0.00000E+00
 -1        82 3.91040E-02-1.35688E-02 0.00000E+00
 -1        83 2.94005E-02-1.15358E-02 0.00000E+00
 -1        84 2.07653E-02-9.53579E-03 0.00000E+00
 -1        85 1.34000E-02-7.53533E-03 0.00000E+00
 -1        86 7.54013E-03-5.53866E-03 0.00000E+00
 -1        87 3.35203E-03-3.58743E-03 0.00000E+00
 -1        88 9.69364E-04-1.69768E-03 0.00000E+00
 -1        89 5.57822E-04-5.29720E-05 0.00000E+00
 -1        90 3.11085E-03-1.60110E-04 0.00000E+00
 -1        91 7.44864E-03-3.89397E-04 0.00000E+00
 -1        92 1.35351E-02-7.96682E-04 0.00000E+00
 -1        93 2.11518E-02-1.40731E-03 0.00000E+00
 -1        94 3.00370E-02-2.22134E-03 0.00000E+00
 -1        95 3.99741E-02-3.23104E-03 0.00000E+00
 -1        96 5.08365E-02-4.43401E-03 0.00000E+00
 -1        97 6.25512E-02-5.83096E-03 0.00000E+00
 -1        98 7.50425E-02-7.41782E-03 0.00000E+00
 -1        99 8.82152E-02-9.18244E-03 0.00000E+00
 -1       100 1.01982E-01-1.11101E-02 0.00000E+00
 -1       101 1.16292E-01-1.31929E-02 0.00000E+00
 -1       102 1.31129E-01-1.54324E-02 0.00000E+00
 -1       103 1.46459E-01-1.78244E-02 0.00000E+00
 -1       104 1.62187E-01-2.03443E-02 0.00000E+00
 -1       105 1.78192E-01-2.29553E-02 0.00000E+00
 -1       106 1.94376E-01-2.56274E-02 0.00000E+00
 -1       107 2.10666E-01-2.83387E-02 0.00000E+00
 -1       108 2.10666E-01-2.83387E-02 0.00000E+00
 -1       109 1.94376E-01-2.56274E-02 0.00000E+00
 -1       110 1.78192E-01-2.29553E-02 0.00000E+00
 -1       111 1.62187E-01-2.03443E-02 0.00000E+00
 -1       112 1.46459E-01-1.78244E-02 0.00000E+00
 -1       113 1.31129E-01-1.54324E-02 0.00000E+00
 -1       114 1.16292E-01-1.31929E-02 0.00000E+00
 -1       115 1.01982E-01-1.11101E-02 0.00000E+00
 -1       116 8.82152E-02-9.18244E-03 0.00000E+00
 -1       117 7.50425E-02-7.41782E-03 0.00000E+00
 -1       118 6.25512E-02-5.83096E-03 0.00000E+00
 -1       119 5.08365E-02-4.43401E-03 0.00000E+00
 -1       120 3.99741E-02-3.23104E-03 0.00000E+00
 -1       121 3.00370E-02-2.22134E-03 0.00000E+00
 -1       122 2.11518E-02-1.40731E-03 0.00000E+00
 -1       123 1.35351E-02-7.96682E-04 0.00000E+00
 -1       124 7.44864E-03-3.89397E-04 0.00000E+00
 -1       125 3.11085E-03-1.60110E-04 0.00000E+00
 -1       126 5.57822E-04-5.29720E-05 0.00000E+00
 -3
    1PSTEP                       250          63           1          
  100CL  163 6.30000E-01         126                     1   63           1
 -4  STRESS      6    1
 -5  SXX         1    4    1    1
 -5  SYY         1    4    2    2
 -5  SZZ         1    4    3    3
 -5  SXY         1    4    1    2
 -5  SYZ         1    4    2    3
 -5  SZX         1    4    3    1
 -1         1 7.29407E+03 1.76617E+04 7.20469E+03 3.46901E+03 5.57607E-11 4.85936E-11
 -1         2 7.29407E+03 1.76617E+04 7.20469E+03 3.46901E+03 5.57607E-11 4.85936E-11
 -1         3 1.32367E+02 2.93672E+02 1.27677E+02 1.25347E+02-3.06277E-08-8.61425E-08
 -1         4 1.32367E+02 2.93672E+02 1.27677E+02 1.25347E+02-3.06296E-08-8.61480E-08
 -1         5-6.81850E+01-2.23792E+02-8.76236E+01-4.67531E+00 8.46360E-08-3.13635E-08
 -1         6-6.81850E+01-2.23792E+02-8.76236E+01-4.67531E+00 8.46276E-08-3.13656E-08
 -1         7-7.85728E+03-1.74797E+04-7.92700E+03 2.68444E+03 1.85502E-11-9.50481E-12
 -1         8-7.85728E+03-1.74797E+04-7.92700E+03 2.68444E+03 1.85540E-11-9.50486E-12
 -1         9 5.95896E+01 4.54564E+01 3.15026E+01 8.33623E+01 2.60627E-08-5.61255E-08
 -1        10 5.95896E+01 4.54564E+01 3.15026E+01 8.33623E+01 2.60675E-08-5.61147E-08
 -1        11-2.35460E+02-7.57541E+02-2.30157E+02 1.70687E+03 3.58424E-11 2.35913E-11
 -1        12-2.35460E+02-7.57541E+02-2.30157E+02 1.70687E+03 3.58353E-11 2.35914E-11
 -1        13 2.90651E+03 1.63571E+04 5.54345E+03 7.83082E+02 2.05822E-09 1.04734E-08
 -1        14 3.86005E+03 1.70608E+04 6.01104E+03 9.30543E+02-1.24967E-08 8.06916E-09
 -1        15 3.68576E+03 1.60464E+04 5.68034E+03 1.56991E+03-1.99125E-08-3.19742E-08
 -1        16 3.53106E+03 1.44239E+04 5.18800E+03 1.92179E+03-2.22860E-09-7.38258E-08
 -1        17 3.21914E+03 1.24351E+04 4.54493E+03 2.01629E+03 2.66014E-08-9.17380E-08
 -1        18 2.84140E+03 1.06317E+04 3.92924E+03 1.91904E+03 3.83029E-08-5.49680E-08
 -1        19 2.57200E+03 9.29515E+03 3.47248E+03 1.77849E+03 2.35793E-08-1.40240E-08
 -1        20 2.34966E+03 8.28963E+03 3.12052E+03 1.69004E+03 2.04598E-09-1.40249E-08
 -1        21 2.16730E+03 7.42039E+03 2.81775E+03 1.62429E+03-6.31214E-09-4.20719E-08
 -1        22 1.96206E+03 6.59212E+03 2.51920E+03 1.53426E+03 7.97677E-09-9.69715E-08
 -1        23 1.81440E+03 5.90337E+03 2.27720E+03 1.41429E+03 4.26086E-08-1.33619E-07
 -1        24 1.67110E+03 5.37620E+03 2.08217E+03 1.32258E+03 7.35916E-08-1.18006E-07
 -1        25 1.56137E+03 4.93989E+03 1.92254E+03 1.27267E+03 8.51779E-08-5.32865E-08
 -1        26 1.42294E+03 4.38080E+03 1.71823E+03 1.22553E+03 6.95353E-08 4.08717E-08
 -1        27 1.26234E+03 3.61996E+03 1.44823E+03 1.10446E+03 2.03293E-08 1.11015E-07
 -1        28 1.00426E+03 2.73018E+03 1.11047E+03 9.07463E+02-3.96083E-08 1.32283E-07
 -1        29 7.16160E+02 1.89256E+03 7.77559E+02 6.78132E+02-7.43946E-08 9.69383E-08
 -1        30 4.32654E+02 1.14859E+03 4.72262E+02 4.59902E+02-7.71339E-08 4.37407E-08
 -1        31 2.13199E+02 5.43904E+02 2.26551E+02 2.40852E+02-5.43299E-08-2.17336E-08
 -1        32 2.90651E+03 1.63571E+04 5.54345E+03 7.83082E+02 2.05822E-09 1.04734E-08
 -1        33 3.86005E+03 1.70608E+04 6.01104E+03 9.30543E+02-1.24967E-08 8.06916E-09
 -1        34 3.68576E+03 1.60464E+04 5.68034E+03 1.56991E+03-1.99125E-08-3.19742E-08
 -1        35 3.53106E+03 1.44239E+04 5.18800E+03 1.92179E+03-2.22863E-09-7.38259E-08
 -1        36 3.21914E+03 1.24351E+04 4.54493E+03 2.01629E+03 2.66014E-08-9.17371E-08
 -1        37 2.84140E+03 1.06317E+04 3.92924E+03 1.91904E+03 3.83032E-08-5.49682E-08
 -1        38 2.57200E+03 9.29515E+03 3.47248E+03 1.77849E+03 2.35789E-08-1.40232E-08
 -1        39 2.34966E+03 8.28963E+03 3.12052E+03 1.69004E+03 2.04598E-09-1.40249E-08
 -1        40 2.16730E+03 7.42039E+03 2.81775E+03 1.62429E+03-6.31214E-09-4.20729E-08
 -1        41 1.96206E+03 6.59212E+03 2.51920E+03 1.53426E+03 7.97678E-09-9.69695E-08
 -1        42 1.81440E+03 5.90337E+03 2.27720E+03 1.41429E+03 4.26086E-08-1.33619E-07
 -1        43 1.67110E+03 5.37620E+03 2.08217E+03 1.32258E+03 7.35919E-08-1.18006E-07
 -1        44 1.56137E+03 4.93989E+03 1.92254E+03 1.27267E+03 8.51776E-08-5.32892E-08
 -1        45 1.42294E+03 4.38080E+03 1.71823E+03 1.22553E+03 6.95354E-08 4.08756E-08
 -1        46 1.26234E+03 3.61996E+03 1.44823E+03 1.10446E+03 2.03298E-08 1.11015E-07
 -1        47 1.00426E+03 2.73018E+03 1.11047E+03 9.07463E+02-3.96084E-08 1.32279E-07
 -1        48 7.16160E+02 1.89256E+03 7.77559E+02 6.78132E+02-7.43945E-08 9.69540E-08
 -1        49 4.32654E+02 1.14859E+03 4.72262E+02 4.59902E+02-7.71343E-08 4.37404E-08
 -1        50 2.13199E+02 5.43904E+02 2.26551E+02 2.40852E+02-5.43285E-08-2.17510E-08
 -1        51-1.41071E+02-5.06323E+02-1.94488E+02-2.15436E+01 6.49942E-08 1.49906E-08
 -1        52-3.03674E+02-1.10688E+03-4.24441E+02-1.23196E+02 3.31484E-08 7.26399E-08
 -1        53-5.36100E+02-1.84541E+03-7.17990E+02-2.72736E+02-1.23858E-08 1.35379E-07
 -1        54-8.05593E+02-2.70175E+03-1.05996E+03-4.51985E+02-5.59915E-08 1.43810E-07
 -1        55-1.09812E+03-3.58836E+03-1.41999E+03-6.60470E+02-7.86649E-08 8.59338E-08
 -1        56-1.36237E+03-4.32769E+03-1.72774E+03-8.53103E+02-6.40319E-08-9.39536E-09
 -1        57-1.54662E+03-4.85636E+03-1.94694E+03-9.75684E+02-2.54483E-08-8.93960E-08
 -1        58-1.67087E+03-5.32176E+03-2.12873E+03-1.03045E+03 1.62958E-08-1.28188E-07
 -1        59-1.80021E+03-5.91078E+03-2.35121E+03-1.06825E+03 5.16289E-08-1.27590E-07
 -1        60-1.97619E+03-6.66532E+03-2.64064E+03-1.12311E+03 5.79133E-08-8.50819E-08
 -1        61-2.17517E+03-7.49473E+03-2.96186E+03-1.18679E+03 4.03329E-08-4.48984E-08
 -1        62-2.37900E+03-8.35836E+03-3.29649E+03-1.22459E+03 1.65093E-08-1.56502E-08
 -1        63-2.60435E+03-9.37397E+03-3.68731E+03-1.21608E+03-3.57758E-09-2.22852E-08
 -1        64-2.90758E+03-1.07434E+04-4.21823E+03-1.17691E+03 1.87488E-09-6.37006E-08
 -1        65-3.30034E+03-1.25007E+04-4.90800E+03-1.13644E+03 2.95375E-08-8.99981E-08
 -1        66-3.74921E+03-1.43800E+04-5.66295E+03-1.08949E+03 4.61374E-08-6.65609E-08
 -1        67-4.07749E+03-1.58695E+04-6.25820E+03-9.70794E+02 4.51680E-08-3.29662E-08
 -1        68-4.47186E+03-1.68173E+04-6.69513E+03-8.30256E+02 2.08030E-08 1.54506E-08
 -1        69-3.35659E+03-1.60931E+04-6.10890E+03-1.19381E+02 4.30684E-10 3.43380E-09
 -1        70-1.41071E+02-5.06323E+02-1.94488E+02-2.15436E+01 6.49984E-08 1.49937E-08
 -1        71-3.03674E+02-1.10688E+03-4.24441E+02-1.23196E+02 3.31476E-08 7.26274E-08
 -1        72-5.36100E+02-1.84541E+03-7.17990E+02-2.72736E+02-1.23868E-08 1.35400E-07
 -1        73-8.05593E+02-2.70175E+03-1.05996E+03-4.51985E+02-5.59979E-08 1.43820E-07
 -1        74-1.09812E+03-3.58836E+03-1.41999E+03-6.60470E+02-7.86667E-08 8.59437E-08
 -1        75-1.36237E+03-4.32769E+03-1.72774E+03-8.53103E+02-6.40320E-08-9.39678E-09
 -1        76-1.54662E+03-4.85636E+03-1.94694E+03-9.75684E+02-2.54482E-08-8.94017E-08
 -1        77-1.67087E+03-5.32176E+03-2.12873E+03-1.03045E+03 1.62919E-08-1.28177E-07
 -1        78-1.80021E+03-5.91078E+03-2.35121E+03-1.06825E+03 5.16301E-08-1.27600E-07
 -1        79-1.97619E+03-6.66532E+03-2.64064E+03-1.12311E+03 5.79131E-08-8.50818E-08
 -1        80-2.17517E+03-7.49473E+03-2.96186E+03-1.18679E+03 4.03335E-08-4.48984E-08
 -1        81-2.37900E+03-8.35836E+03-3.29649E+03-1.22459E+03 1.65092E-08-1.56505E-08
 -1        82-2.60435E+03-9.37397E+03-3.68731E+03-1.21608E+03-3.57752E-09-2.22841E-08
 -1        83-2.90758E+03-1.07434E+04-4.21823E+03-1.17691E+03 1.87481E-09-6.36987E-08
 -1        84-3.30034E+03-1.25007E+04-4.90800E+03-1.13644E+03 2.95375E-08-9.00002E-08
 -1        85-3.74921E+03-1.43800E+04-5.66295E+03-1.08949E+03 4.61374E-08-6.65614E-08
 -1        86-4.07749E+03-1.58695E+04-6.25820E+03-9.70794E+02 4.51679E-08-3.29661E-08
 -1        87-4.47186E+03-1.68173E+04-6.69513E+03-8.30256E+02 2.08029E-08 1.54506E-08
 -1        88-3.35659E+03-1.60931E+04-6.10890E+03-1.19381E+02 4.30670E-10 3.43380E-09
 -1        89-1.15537E+02-7.39601E+02-2.35972E+02-2.63553E+02 4.12856E-09 6.72407E-09
 -1        90-1.57737E+02-7.55441E+02-2.37242E+02 1.02119E+02 6.32211E-09 1.92410E-08
 -1        91-7.45178E+01-7.30135E+02-2.11707E+02 2.68174E+02 1.42714E-08-2.87425E-08
 -1        92 1.15553E+00-6.80120E+02-1.77997E+02 4.32664E+02 2.39278E-08-7.46127E-08
 -1        93 5.10630E+01-5.80489E+02-1.38099E+02 4.64283E+02 2.53355E-08-9.58194E-08
 -1        94 3.98707E+01-4.68150E+02-1.12297E+02 3.89356E+02 1.59779E-08-6.28057E-08
 -1        95 3.75771E+01-3.59382E+02-8.39872E+01 2.84827E+02 5.29957E-09-1.37368E-08
 -1        96 2.68432E+01-2.91698E+02-6.97447E+01 2.27033E+02 5.61598E-09-1.06480E-08
 -1        97 3.43268E+01-2.44713E+02-5.54214E+01 2.15690E+02 1.91832E-08-4.19500E-08
 -1        98 2.91013E+01-2.06515E+02-4.69821E+01 2.09186E+02 3.97758E-08-9.33749E-08
 -1        99 3.52709E+01-1.45658E+02-2.78810E+01 1.75629E+02 5.16104E-08-1.36110E-07
 -1       100 1.96343E+01-8.87166E+01-1.64235E+01 1.41424E+02 4.49656E-08-1.29456E-07
 -1       101 2.79428E+01-5.25577E+01-4.06714E+00 1.46128E+02 2.91691E-08-7.90130E-08
 -1       102 6.15321E+01-5.73380E+01 3.57359E+00 2.01688E+02 3.38402E-09 1.53270E-08
 -1       103 1.21963E+02-6.22377E+01 1.94802E+01 2.57122E+02-2.78469E-08 1.07502E-07
 -1       104 1.39006E+02-4.95471E+01 2.77596E+01 2.69926E+02-4.90534E-08 1.48055E-07
 -1       105 1.26952E+02-1.96096E+01 3.25980E+01 2.43942E+02-4.67402E-08 1.19340E-07
 -1       106 1.01423E+02-5.32149E+00 2.89068E+01 2.09002E+02-2.34773E-08 6.42486E-08
 -1       107 6.90892E+01 1.40514E+01 2.49567E+01 1.42136E+02 7.38769E-09-4.35060E-09
 -1       108 6.90892E+01 1.40514E+01 2.49567E+01 1.42136E+02 7.38480E-09-4.34181E-09
 -1       109 1.01423E+02-5.32149E+00 2.89068E+01 2.09002E+02-2.34766E-08 6.42599E-08
 -1       110 1.26952E+02-1.96096E+01 3.25980E+01 2.43942E+02-4.67397E-08 1.19322E-07
 -1       111 1.39006E+02-4.95471E+01 2.77596E+01 2.69926E+02-4.90516E-08 1.48061E-07
 -1       112 1.21963E+02-6.22377E+01 1.94802E+01 2.57122E+02-2.78472E-08 1.07501E-07
 -1       113 6.15321E+01-5.73380E+01 3.57359E+00 2.01688E+02 3.38432E-09 1.53283E-08
 -1       114 2.79428E+01-5.25577E+01-4.06714E+00 1.46128E+02 2.91695E-08-7.90107E-08
 -1       115 1.96343E+01-8.87166E+01-1.64235E+01 1.41424E+02 4.49656E-08-1.29458E-07
 -1       116 3.52709E+01-1.45658E+02-2.78810E+01 1.75629E+02 5.16099E-08-1.36107E-07
 -1       117 2.91013E+01-2.06515E+02-4.69821E+01 2.09186E+02 3.97759E-08-9.33788E-08
 -1       118 3.43268E+01-2.44713E+02-5.54214E+01 2.15690E+02 1.91827E-08-4.19483E-08
 -1       119 2.68432E+01-2.91698E+02-6.97447E+01 2.27033E+02 5.61606E-09-1.06479E-08
 -1       120 3.75771E+01-3.59382E+02-8.39872E+01 2.84827E+02 5.29962E-09-1.37374E-08
 -1       121 3.98707E+01-4.68150E+02-1.12297E+02 3.89356E+02 1.59779E-08-6.28053E-08
 -1       122 5.10630E+01-5.80489E+02-1.38099E+02 4.64283E+02 2.53355E-08-9.58208E-08
 -1       123 1.15553E+00-6.80120E+02-1.77997E+02 4.32664E+02 2.39279E-08-7.46123E-08
 -1       124-7.45178E+01-7.30135E+02-2.11707E+02 2.68174E+02 1.42715E-08-2.87423E-08
 -1       125-1.57737E+02-7.55441E+02-2.37242E+02 1.02119E+02 6.32212E-09 1.92409E-08
 -1       126-1.15537E+02-7.39601E+02-2.35972E+02-2.63553E+02 4.12859E-09 6.72406E-09
 -3
    1PSTEP                       251          63           1          
  100CL  163 6.30000E-01         126                     1   63           1
 -4  TOSTRAIN    6    1
 -5  EXX         1    4    1    1
 -5  EYY         1    4    2    2
 -5  EZZ         1    4    3    3
 -5  EXY         1    4    1    2
 -5  EYZ         1    4    2    3
 -5  EZX         1    4    3    1
 -1         1-9.56073E-05 3.21118E-02-3.90460E-28 1.02951E-02-2.24784E-19 8.53543E-17
 -1         2-9.56073E-05 3.21118E-02-3.90460E-28 1.02951E-02-2.24784E-19 8.53543E-17
 -1         3-1.80070E-04 7.33588E-04 1.45359E-25 1.59243E-04-1.85075E-13-2.32236E-13
 -1         4-1.80070E-04 7.33588E-04 1.45373E-25 1.59243E-04-1.85086E-13-2.32251E-13
 -1         5 1.88066E-05-3.98429E-04 1.49234E-25 1.43988E-04 2.26986E-13-1.86062E-13
 -1         6 1.88066E-05-3.98429E-04 1.49211E-25 1.43988E-04 2.26958E-13-1.86060E-13
 -1         7-9.59592E-05-3.32843E-02-2.60085E-29 9.69359E-03-1.17227E-19-6.66014E-18
 -1         8-9.59592E-05-3.32843E-02-2.60081E-29 9.69359E-03-1.04749E-19-6.66047E-18
 -1         9-8.06315E-05 2.17113E-04 5.59687E-26 2.27467E-04 2.06740E-14-2.00062E-13
 -1        10-8.06315E-05 2.17113E-04 5.59466E-26 2.27467E-04 2.07002E-14-2.00034E-13
 -1        11-9.57833E-05-1.09240E-03-2.05472E-28 5.57820E-03-1.12734E-19 7.46342E-17
 -1        12-9.57833E-05-1.09240E-03-2.05473E-28 5.57820E-03-1.36019E-19 7.46348E-17
 -1        13-8.95786E-03 3.33512E-02 1.94968E-27 1.03365E-03 7.34543E-15 3.36249E-14
 -1        14-7.58120E-03 3.41023E-02-2.41385E-28 7.61095E-05-3.71993E-14 2.86334E-14
 -1        15-7.43702E-03 3.24726E-02 1.83943E-26 8.52071E-04-7.20332E-14-9.60230E-14
 -1        16-6.67648E-03 2.95131E-02 1.07584E-25 1.24659E-03-3.78762E-14-2.35304E-13
 -1        17-5.80826E-03 2.57783E-02 1.89068E-25 1.35500E-03 3.58516E-14-3.06732E-13
 -1        18-5.07084E-03 2.23037E-02 8.62934E-26 1.13712E-03 8.65486E-14-1.97963E-13
 -1        19-4.43263E-03 1.96415E-02 1.02202E-26 8.48317E-04 6.39173E-14-6.02822E-14
 -1        20-4.02107E-03 1.76736E-02 2.16950E-27 6.95938E-04-3.61719E-15-4.57764E-14
 -1        21-3.66317E-03 1.59800E-02 2.86074E-26 6.58824E-04-5.16444E-14-1.27341E-13
 -1        22-3.34719E-03 1.43490E-02 1.86506E-25 6.04769E-04-5.42560E-14-3.10516E-13
 -1        23-2.96685E-03 1.29048E-02 4.10328E-25 4.87485E-04 1.67208E-14-4.54491E-13
 -1        24-2.73877E-03 1.18202E-02 3.96321E-25 3.79373E-04 1.20443E-13-4.34346E-13
 -1        25-2.58046E-03 1.09616E-02 1.73629E-25 3.75318E-04 2.11489E-13-2.45835E-13
 -1        26-2.40390E-03 9.88984E-03 8.63484E-26 4.98985E-04 2.52138E-13 5.85047E-14
 -1        27-2.00294E-03 8.30801E-03 2.39841E-25 6.41958E-04 1.72347E-13 3.22116E-13
 -1        28-1.56427E-03 6.39415E-03 3.92021E-25 6.72621E-04 1.33590E-14 4.48124E-13
 -1        29-1.15050E-03 4.52900E-03 3.02681E-25 5.85416E-04-1.27386E-13 3.75813E-13
 -1        30-8.02667E-04 2.85278E-03 1.40937E-25 4.66902E-04-1.90544E-13 2.15709E-13
 -1        31-4.11546E-04 1.39437E-03 4.08159E-26 2.85841E-04-1.89603E-13-9.30218E-15
 -1        32-8.95786E-03 3.33512E-02 1.94968E-27 1.03365E-03 7.34542E-15 3.36249E-14
 -1        33-7.58120E-03 3.41023E-02-2.41383E-28 7.61095E-05-3.71992E-14 2.86334E-14
 -1        34-7.43702E-03 3.24726E-02 1.83943E-26 8.52071E-04-7.20332E-14-9.60230E-14
 -1        35-6.67648E-03 2.95131E-02 1.07584E-25 1.24659E-03-3.78763E-14-2.35304E-13
 -1        36-5.80826E-03 2.57783E-02 1.89064E-25 1.35500E-03 3.58520E-14-3.06729E-13
 -1        37-5.07084E-03 2.23037E-02 8.62939E-26 1.13712E-03 8.65493E-14-1.97964E-13
 -1        38-4.43263E-03 1.96415E-02 1.02191E-26 8.48317E-04 6.39164E-14-6.02794E-14
 -1        39-4.02107E-03 1.76736E-02 2.16950E-27 6.95938E-04-3.61719E-15-4.57764E-14
 -1        40-3.66317E-03 1.59800E-02 2.86102E-26 6.58824E-04-5.16452E-14-1.27344E-13
 -1        41-3.34719E-03 1.43490E-02 1.86499E-25 6.04769E-04-5.42544E-14-3.10510E-13
 -1        42-2.96685E-03 1.29048E-02 4.10328E-25 4.87485E-04 1.67206E-14-4.54491E-13
 -1        43-2.73877E-03 1.18202E-02 3.96322E-25 3.79373E-04 1.20444E-13-4.34346E-13
 -1        44-2.58046E-03 1.09616E-02 1.73632E-25 3.75318E-04 2.11486E-13-2.45843E-13
 -1        45-2.40390E-03 9.88984E-03 8.63496E-26 4.98985E-04 2.52142E-13 5.85169E-14
 -1        46-2.00294E-03 8.30801E-03 2.39842E-25 6.41958E-04 1.72348E-13 3.22115E-13
 -1        47-1.56427E-03 6.39415E-03 3.92001E-25 6.72621E-04 1.33551E-14 4.48113E-13
 -1        48-1.15050E-03 4.52900E-03 3.02740E-25 5.85416E-04-1.27369E-13 3.75861E-13
 -1        49-8.02667E-04 2.85278E-03 1.40918E-25 4.66902E-04-1.90546E-13 2.15709E-13
 -1        50-4.11546E-04 1.39437E-03 4.08163E-26 2.85841E-04-1.89617E-13-9.35728E-15
 -1        51 9.07576E-05-9.32845E-04 6.92710E-26 3.10627E-04 2.15868E-13-2.27428E-14
 -1        52 3.62346E-04-2.19886E-03 1.05363E-25 4.84743E-04 1.78836E-13 1.88491E-13
 -1        53 6.87581E-04-3.79148E-03 3.71882E-25 5.91908E-04 1.03314E-13 4.29938E-13
 -1        54 1.08273E-03-5.66002E-03 4.93786E-25 6.77373E-04-2.54343E-14 5.01544E-13
 -1        55 1.51665E-03-7.64189E-03 2.55236E-25 6.51283E-04-1.58582E-13 3.45310E-13
 -1        56 1.88022E-03-9.32600E-03 4.31757E-26 4.98902E-04-2.10354E-13 3.36461E-14
 -1        57 2.12616E-03-1.05107E-02 1.53911E-25 3.63562E-04-1.65919E-13-2.54372E-13
 -1        58 2.32613E-03-1.14879E-02 3.41949E-25 3.73045E-04-6.67217E-14-4.15640E-13
 -1        59 2.58532E-03-1.26969E-02 3.94721E-25 4.93198E-04 5.14815E-14-4.45566E-13
 -1        60 2.91799E-03-1.42632E-02 2.17601E-25 6.04657E-04 1.13843E-13-3.16326E-13
 -1        61 3.29335E-03-1.60051E-02 7.08413E-26 6.48764E-04 9.43716E-14-1.73722E-13
 -1        62 3.66742E-03-1.77996E-02 7.50599E-27 6.93214E-04 4.19631E-14-6.18037E-14
 -1        63 4.08843E-03-1.98750E-02 6.56931E-27 8.56730E-04-2.71405E-14-6.86386E-14
 -1        64 4.65994E-03-2.26864E-02 7.93187E-26 1.13845E-03-3.36578E-14-2.05286E-13
 -1        65 5.45523E-03-2.63798E-02 1.85406E-25 1.35067E-03 4.91911E-14-3.05617E-13
 -1        66 6.30733E-03-3.03894E-02 1.37260E-25 1.25392E-03 1.25018E-13-2.35889E-13
 -1        67 7.04139E-03-3.36037E-02 6.12572E-26 8.72095E-04 1.41920E-13-1.22377E-13
 -1        68 7.08096E-03-3.54527E-02 8.77499E-27 5.54645E-05 7.46766E-14 4.57676E-14
 -1        69 8.70411E-03-3.46679E-02-8.66656E-28 1.04104E-03 1.81790E-15 1.11518E-14
 -1        70 9.07576E-05-9.32845E-04 6.92834E-26 3.10627E-04 2.15884E-13-2.27377E-14
 -1        71 3.62346E-04-2.19886E-03 1.05318E-25 4.84743E-04 1.78821E-13 1.88454E-13
 -1        72 6.87581E-04-3.79148E-03 3.71985E-25 5.91908E-04 1.03333E-13 4.30003E-13
 -1        73 1.08273E-03-5.66002E-03 4.93861E-25 6.77373E-04-2.54439E-14 5.01581E-13
 -1        74 1.51665E-03-7.64189E-03 2.55278E-25 6.51283E-04-1.58578E-13 3.45342E-13
 -1        75 1.88022E-03-9.32600E-03 4.31775E-26 4.98902E-04-2.10356E-13 3.36419E-14
 -1        76 2.12616E-03-1.05107E-02 1.53937E-25 3.63562E-04-1.65925E-13-2.54390E-13
 -1        77 2.32613E-03-1.14879E-02 3.41887E-25 3.73045E-04-6.67240E-14-4.15602E-13
 -1        78 2.58532E-03-1.26969E-02 3.94775E-25 4.93198E-04 5.14765E-14-4.45598E-13
 -1        79 2.91799E-03-1.42632E-02 2.17600E-25 6.04657E-04 1.13842E-13-3.16325E-13
 -1        80 3.29335E-03-1.60051E-02 7.08423E-26 6.48764E-04 9.43736E-14-1.73723E-13
 -1        81 3.66742E-03-1.77996E-02 7.50618E-27 6.93214E-04 4.19628E-14-6.18046E-14
 -1        82 4.08843E-03-1.98750E-02 6.56838E-27 8.56730E-04-2.71395E-14-6.86352E-14
 -1        83 4.65994E-03-2.26864E-02 7.93125E-26 1.13845E-03-3.36569E-14-2.05279E-13
 -1        84 5.45523E-03-2.63798E-02 1.85413E-25 1.35067E-03 4.91900E-14-3.05624E-13
 -1        85 6.30733E-03-3.03894E-02 1.37261E-25 1.25392E-03 1.25018E-13-2.35890E-13
 -1        86 7.04139E-03-3.36037E-02 6.12569E-26 8.72095E-04 1.41920E-13-1.22376E-13
 -1        87 7.08096E-03-3.54527E-02 8.77498E-27 5.54645E-05 7.46765E-14 4.57677E-14
 -1        88 8.70411E-03-3.46679E-02-8.66657E-28 1.04104E-03 1.81785E-15 1.11518E-14
 -1        89-1.26872E-04-1.01683E-03 9.75895E-28-7.92340E-04 1.39926E-14 2.14557E-14
 -1        90-2.50122E-04-9.25532E-04 3.07539E-27 4.62513E-04 2.46290E-14 6.09777E-14
 -1        91-1.97815E-04-8.48973E-04 9.84095E-27 1.07144E-03 3.65978E-14-9.77406E-14
 -1        92-1.84576E-04-6.94514E-04 1.23238E-25 1.65161E-03 4.45993E-14-2.50950E-13
 -1        93-1.76514E-04-5.04116E-04 2.05225E-25 1.75924E-03 3.08372E-14-3.20848E-13
 -1        94-2.05448E-04-3.42195E-04 8.12298E-26 1.48043E-03 1.30254E-14-2.10316E-13
 -1        95-1.72096E-04-2.38933E-04-5.34721E-28 1.10770E-03 7.59105E-15-4.72566E-14
 -1        96-1.76824E-04-1.63146E-04 9.05554E-28 8.90128E-04 1.00727E-14-3.78305E-14
 -1        97-1.84908E-04-8.58769E-05 3.57141E-26 8.31704E-04 2.78221E-14-1.47378E-13
 -1        98-2.14599E-04-1.33851E-05 2.06776E-25 7.80201E-04 4.76577E-14-3.26564E-13
 -1        99-1.90764E-04 5.02683E-05 4.44770E-25 6.40333E-04 4.30531E-14-4.71299E-13
 -1       100-2.06321E-04 1.18897E-04 3.89632E-25 4.81916E-04 2.26590E-14-4.44945E-13
 -1       101-2.27146E-04 1.95819E-04 1.16582E-25 4.67063E-04 1.61757E-14-2.73328E-13
 -1       102-2.61845E-04 2.66449E-04-4.59317E-26 6.47305E-04 2.54923E-14 4.41951E-14
 -1       103-2.43143E-04 3.19890E-04 2.31570E-25 8.51234E-04 2.18341E-14 3.60275E-13
 -1       104-2.40771E-04 3.56584E-04 5.09611E-25 8.85189E-04 5.30178E-16 5.06974E-13
 -1       105-2.31458E-04 3.70549E-04 3.35585E-25 7.73921E-04-1.96919E-14 4.16162E-13
 -1       106-2.20160E-04 3.44600E-04 7.12963E-26 6.42796E-04-4.69420E-15 2.22306E-13
 -1       107-1.60394E-04 2.68320E-04-2.74274E-26 4.19002E-04 1.80889E-14-2.11944E-14
 -1       108-1.60394E-04 2.68320E-04-2.74320E-26 4.19002E-04 1.80893E-14-2.11644E-14
 -1       109-2.20160E-04 3.44600E-04 7.13359E-26 6.42796E-04-4.68000E-15 2.22340E-13
 -1       110-2.31458E-04 3.70549E-04 3.35500E-25 7.73921E-04-1.97092E-14 4.16106E-13
 -1       111-2.40771E-04 3.56584E-04 5.09639E-25 8.85189E-04 5.41409E-16 5.06989E-13
 -1       112-2.43143E-04 3.19890E-04 2.31565E-25 8.51234E-04 2.18321E-14 3.60272E-13
 -1       113-2.61845E-04 2.66449E-04-4.59332E-26 6.47305E-04 2.54945E-14 4.41987E-14
 -1       114-2.27146E-04 1.95819E-04 1.16573E-25 4.67063E-04 1.61789E-14-2.73322E-13
 -1       115-2.06321E-04 1.18897E-04 3.89642E-25 4.81916E-04 2.26572E-14-4.44952E-13
 -1       116-1.90764E-04 5.02683E-05 4.44753E-25 6.40333E-04 4.30542E-14-4.71290E-13
 -1       117-2.14599E-04-1.33851E-05 2.06790E-25 7.80201E-04 4.76549E-14-3.26577E-13
 -1       118-1.84908E-04-8.58769E-05 3.57084E-26 8.31704E-04 2.78220E-14-1.47372E-13
 -1       119-1.76824E-04-1.63146E-04 9.05531E-28 8.90128E-04 1.00731E-14-3.78301E-14
 -1       120-1.72096E-04-2.38933E-04-5.33988E-28 1.10770E-03 7.59077E-15-4.72588E-14
 -1       121-2.05448E-04-3.42195E-04 8.12288E-26 1.48043E-03 1.30254E-14-2.10315E-13
 -1       122-1.76514E-04-5.04116E-04 2.05230E-25 1.75924E-03 3.08365E-14-3.20852E-13
 -1       123-1.84576E-04-6.94514E-04 1.23237E-25 1.65161E-03 4.45996E-14-2.50949E-13
 -1       124-1.97815E-04-8.48973E-04 9.84082E-27 1.07144E-03 3.65982E-14-9.77400E-14
 -1       125-2.50122E-04-9.25532E-04 3.07540E-27 4.62513E-04 2.46290E-14 6.09775E-14
 -1       126-1.26872E-04-1.01683E-03 9.75897E-28-7.92340E-04 1.39927E-14 2.14556E-14
 -3
    1PSTEP                       252          63           1          
  100CL  163 6.30000E-01         126                     1   63           1
 -4  ERROR       1    1
 -5  STR(%)      1    1    0    0
 -1         1 6.20824E+01
 -1         2 6.20824E+01
 -1         3 3.13862E+01
 -1         4 3.13862E+01
 -1         5 6.57946E+01
 -1         6 6.57946E+01
 -1         7 5.61988E+01
 -1         8 5.61988E+01
 -1         9 6.57946E+01
 -1        10 6.57946E+01
 -1        11 6.20824E+01
 -1        12 6.20824E+01
 -1        13 6.37952E+01
 -1        14 6.37952E+01
 -1        15 6.40915E+01
 -1        16 6.43018E+01
 -1        17 6.43018E+01
 -1        18 6.41139E+01
 -1        19 6.34949E+01
 -1        20 6.30058E+01
 -1        21 6.27046E+01
 -1        22 6.26319E+01
 -1        23 6.21410E+01
 -1        24 6.15072E+01
 -1        25 6.06957E+01
 -1        26 6.04965E+01
 -1        27 6.01602E+01
 -1        28 5.91667E+01
 -1        29 5.70511E+01
 -1        30 5.38341E+01
 -1        31 4.51278E+01
 -1        32 6.37952E+01
 -1        33 6.37952E+01
 -1        34 6.40915E+01
 -1        35 6.43018E+01
 -1        36 6.43018E+01
 -1        37 6.41139E+01
 -1        38 6.34949E+01
 -1        39 6.30058E+01
 -1        40 6.27046E+01
 -1        41 6.26319E+01
 -1        42 6.21410E+01
 -1        43 6.15072E+01
 -1        44 6.06957E+01
 -1        45 6.04965E+01
 -1        46 6.01602E+01
 -1        47 5.91667E+01
 -1        48 5.70511E+01
 -1        49 5.38341E+01
 -1        50 4.51278E+01
 -1        51 6.57946E+01
 -1        52 6.79543E+01
 -1        53 6.79543E+01
 -1        54 6.71271E+01
 -1        55 6.57205E+01
 -1        56 6.42348E+01
 -1        57 6.24636E+01
 -1        58 6.13886E+01
 -1        59 6.11096E+01
 -1        60 6.09588E+01
 -1        61 6.05452E+01
 -1        62 6.00409E+01
 -1        63 5.98542E+01
 -1        64 5.98542E+01
 -1        65 5.96773E+01
 -1        66 5.91244E+01
 -1        67 5.82836E+01
 -1        68 5.78749E+01
 -1        69 5.78749E+01
 -1        70 6.57946E+01
 -1        71 6.79543E+01
 -1        72 6.79543E+01
 -1        73 6.71271E+01
 -1        74 6.57205E+01
 -1        75 6.42348E+01
 -1        76 6.24636E+01
 -1        77 6.13886E+01
 -1        78 6.11096E+01
 -1        79 6.09588E+01
 -1        80 6.05452E+01
 -1        81 6.00409E+01
 -1        82 5.98542E+01
 -1        83 5.98542E+01
 -1        84 5.96773E+01
 -1        85 5.91244E+01
 -1        86 5.82836E+01
 -1        87 5.78749E+01
 -1        88 5.78749E+01
 -1        89 6.37952E+01
 -1        90 6.37952E+01
 -1        91 6.40915E+01
 -1        92 6.43018E+01
 -1        93 6.43018E+01
 -1        94 6.41139E+01
 -1        95 6.34949E+01
 -1        96 6.30058E+01
 -1        97 6.27046E+01
 -1        98 6.26319E+01
 -1        99 6.21410E+01
 -1       100 6.15072E+01
 -1       101 6.24636E+01
 -1       102 6.42348E+01
 -1       103 6.57205E+01
 -1       104 6.71271E+01
 -1       105 6.79543E+01
 -1       106 6.79543E+01
 -1       107 6.57946E+01
 -1       108 6.57946E+01
 -1       109 6.79543E+01
 -1       110 6.79543E+01
 -1       111 6.71271E+01
 -1       112 6.57205E+01
 -1       113 6.42348E+01
 -1       114 6.24636E+01
 -1       115 6.15072E+01
 -1       116 6.21410E+01
 -1       117 6.26319E+01
 -1       118 6.27046E+01
 -1       119 6.30058E+01
 -1       120 6.34949E+01
 -1       121 6.41139E+01
 -1       122 6.43018E+01
 -1       123 6.43018E+01
 -1       124 6.40915E+01
 -1       125 6.37952E+01
 -1       126 6.37952E+01
 -3
    1PSTEP                       253          64           1          
  100CL  164 6.40000E-01         126                     1   64           1
 -4  DISP        4    1
 -5  D1          1    2    1    0
 -5  D2          1    2    2    0
 -5  D3          1    2    3    0
 -5  ALL         1    2    0    0    1ALL
 -1         1 0.00000E+00 0.00000E+00 0.00000E+00
 -1         2 0.00000E+00 0.00000E+00 0.00000E+00
 -1         3 2.35869E-01-1.62041E-02 0.00000E+00
 -1         4 2.35869E-01-1.62041E-02 0.00000E+00
 -1         5 2.29990E-01-4.99597E-02 0.00000E+00
 -1         6 2.29990E-01-4.99597E-02 0.00000E+00
 -1         7 0.00000E+00 0.00000E+00 0.00000E+00
 -1         8 0.00000E+00 0.00000E+00 0.00000E+00
 -1         9 2.32927E-01-3.30777E-02 0.00000E+00
 -1        10 2.32927E-01-3.30777E-02 0.00000E+00
 -1        11 0.00000E+00 0.00000E+00 0.00000E+00
 -1        12 0.00000E+00 0.00000E+00 0.00000E+00
 -1        13 9.36795E-04 1.55254E-03 0.00000E+00
 -1        14 3.50733E-03 3.22291E-03 0.00000E+00
 -1        15 8.09469E-03 4.71624E-03 0.00000E+00
 -1        16 1.45158E-02 5.87694E-03 0.00000E+00
 -1        17 2.24887E-02 6.61218E-03 0.00000E+00
 -1        18 3.17140E-02 6.93704E-03 0.00000E+00
 -1        19 4.19800E-02 6.91429E-03 0.00000E+00
 -1        20 5.31877E-02 6.58708E-03 0.00000E+00
 -1        21 6.52536E-02 5.97422E-03 0.00000E+00
 -1        22 7.80909E-02 5.09513E-03 0.00000E+00
 -1        23 9.16265E-02 3.98069E-03 0.00000E+00
 -1        24 1.05847E-01 2.64066E-03 0.00000E+00
 -1        25 1.20731E-01 1.05929E-03 0.00000E+00
 -1        26 1.36211E-01-7.81648E-04 0.00000E+00
 -1        27 1.52174E-01-2.87318E-03 0.00000E+00
 -1        28 1.68530E-01-5.19506E-03 0.00000E+00
 -1        29 1.85188E-01-7.72628E-03 0.00000E+00
 -1        30 2.02042E-01-1.04418E-02 0.00000E+00
 -1        31 2.18965E-01-1.32909E-02 0.00000E+00
 -1        32 9.36795E-04 1.55254E-03 0.00000E+00
 -1        33 3.50733E-03 3.22291E-03 0.00000E+00
 -1        34 8.09469E-03 4.71624E-03 0.00000E+00
 -1        35 1.45158E-02 5.87694E-03 0.00000E+00
 -1        36 2.24887E-02 6.61218E-03 0.00000E+00
 -1        37 3.17140E-02 6.93704E-03 0.00000E+00
 -1        38 4.19800E-02 6.91429E-03 0.00000E+00
 -1        39 5.31877E-02 6.58708E-03 0.00000E+00
 -1        40 6.52536E-02 5.97422E-03 0.00000E+00
 -1        41 7.80909E-02 5.09513E-03 0.00000E+00
 -1        42 9.16265E-02 3.98069E-03 0.00000E+00
 -1        43 1.05847E-01 2.64066E-03 0.00000E+00
 -1        44 1.20731E-01 1.05929E-03 0.00000E+00
 -1        45 1.36211E-01-7.81648E-04 0.00000E+00
 -1        46 1.52174E-01-2.87318E-03 0.00000E+00
 -1        47 1.68530E-01-5.19506E-03 0.00000E+00
 -1        48 1.85188E-01-7.72628E-03 0.00000E+00
 -1        49 2.02042E-01-1.04418E-02 0.00000E+00
 -1        50 2.18965E-01-1.32909E-02 0.00000E+00
 -1        51 2.13097E-01-4.70025E-02 0.00000E+00
 -1        52 1.96227E-01-4.39911E-02 0.00000E+00
 -1        53 1.79495E-01-4.09249E-02 0.00000E+00
 -1        54 1.63029E-01-3.78392E-02 0.00000E+00
 -1        55 1.46924E-01-3.47750E-02 0.00000E+00
 -1        56 1.31263E-01-3.17609E-02 0.00000E+00
 -1        57 1.16137E-01-2.88237E-02 0.00000E+00
 -1        58 1.01635E-01-2.60015E-02 0.00000E+00
 -1        59 8.78059E-02-2.33286E-02 0.00000E+00
 -1        60 7.46576E-02-2.08101E-02 0.00000E+00
 -1        61 6.22168E-02-1.84252E-02 0.00000E+00
 -1        62 5.05543E-02-1.61558E-02 0.00000E+00
 -1        63 3.97592E-02-1.39946E-02 0.00000E+00
 -1        64 2.99107E-02-1.19210E-02 0.00000E+00
 -1        65 2.11180E-02-9.88530E-03 0.00000E+00
 -1        66 1.35744E-02-7.83395E-03 0.00000E+00
 -1        67 7.54917E-03-5.75494E-03 0.00000E+00
 -1        68 3.26846E-03-3.69928E-03 0.00000E+00
 -1        69 8.97701E-04-1.72345E-03 0.00000E+00
 -1        70 2.13097E-01-4.70025E-02 0.00000E+00
 -1        71 1.96227E-01-4.39911E-02 0.00000E+00
 -1        72 1.79495E-01-4.09249E-02 0.00000E+00
 -1        73 1.63029E-01-3.78392E-02 0.00000E+00
 -1        74 1.46924E-01-3.47750E-02 0.00000E+00
 -1        75 1.31263E-01-3.17609E-02 0.00000E+00
 -1        76 1.16137E-01-2.88237E-02 0.00000E+00
 -1        77 1.01635E-01-2.60015E-02 0.00000E+00
 -1        78 8.78059E-02-2.33286E-02 0.00000E+00
 -1        79 7.46576E-02-2.08101E-02 0.00000E+00
 -1        80 6.22168E-02-1.84252E-02 0.00000E+00
 -1        81 5.05543E-02-1.61558E-02 0.00000E+00
 -1        82 3.97592E-02-1.39946E-02 0.00000E+00
 -1        83 2.99107E-02-1.19210E-02 0.00000E+00
 -1        84 2.11180E-02-9.88530E-03 0.00000E+00
 -1        85 1.35744E-02-7.83395E-03 0.00000E+00
 -1        86 7.54917E-03-5.75494E-03 0.00000E+00
 -1        87 3.26846E-03-3.69928E-03 0.00000E+00
 -1        88 8.97701E-04-1.72345E-03 0.00000E+00
 -1        89 4.69991E-04-7.62838E-05 0.00000E+00
 -1        90 3.00700E-03-2.11773E-04 0.00000E+00
 -1        91 7.45047E-03-4.77061E-04 0.00000E+00
 -1        92 1.37199E-02-9.30086E-04 0.00000E+00
 -1        93 2.15267E-02-1.58856E-03 0.00000E+00
 -1        94 3.05743E-02-2.44557E-03 0.00000E+00
 -1        95 4.06601E-02-3.49470E-03 0.00000E+00
 -1        96 5.16820E-02-4.73977E-03 0.00000E+00
 -1        97 6.35638E-02-6.18248E-03 0.00000E+00
 -1        98 7.62155E-02-7.81515E-03 0.00000E+00
 -1        99 8.95674E-02-9.63187E-03 0.00000E+00
 -1       100 1.03600E-01-1.16386E-02 0.00000E+00
 -1       101 1.18306E-01-1.38423E-02 0.00000E+00
 -1       102 1.33626E-01-1.62345E-02 0.00000E+00
 -1       103 1.49458E-01-1.87925E-02 0.00000E+00
 -1       104 1.65708E-01-2.14918E-02 0.00000E+00
 -1       105 1.82292E-01-2.43073E-02 0.00000E+00
 -1       106 1.99106E-01-2.72053E-02 0.00000E+00
 -1       107 2.16021E-01-3.01417E-02 0.00000E+00
 -1       108 2.16021E-01-3.01417E-02 0.00000E+00
 -1       109 1.99106E-01-2.72053E-02 0.00000E+00
 -1       110 1.82292E-01-2.43073E-02 0.00000E+00
 -1       111 1.65708E-01-2.14918E-02 0.00000E+00
 -1       112 1.49458E-01-1.87925E-02 0.00000E+00
 -1       113 1.33626E-01-1.62345E-02 0.00000E+00
 -1       114 1.18306E-01-1.38423E-02 0.00000E+00
 -1       115 1.03600E-01-1.16386E-02 0.00000E+00
 -1       116 8.95674E-02-9.63187E-03 0.00000E+00
 -1       117 7.62155E-02-7.81515E-03 0.00000E+00
 -1       118 6.35638E-02-6.18248E-03 0.00000E+00
 -1       119 5.16820E-02-4.73977E-03 0.00000E+00
 -1       120 4.06601E-02-3.49470E-03 0.00000E+00
 -1       121 3.05743E-02-2.44557E-03 0.00000E+00
 -1       122 2.15267E-02-1.58856E-03 0.00000E+00
 -1       123 1.37199E-02-9.30086E-04 0.00000E+00
 -1       124 7.45047E-03-4.77061E-04 0.00000E+00
 -1       125 3.00700E-03-2.11773E-04 0.00000E+00
 -1       126 4.69991E-04-7.62838E-05 0.00000E+00
 -3
    1PSTEP                       254          64           1          
  100CL  164 6.40000E-01         126                     1   64           1
 -4  STRESS      6    1
 -5  SXX         1    4    1    1
 -5  SYY         1    4    2    2
 -5  SZZ         1    4    3    3
 -5  SXY         1    4    1    2
 -5  SYZ         1    4    2    3
 -5  SZX         1    4    3    1
 -1         1 7.16270E+03 1.73763E+04 7.09594E+03 3.14732E+03 9.91850E-11 3.39012E-11
 -1         2 7.16270E+03 1.73763E+04 7.09594E+03 3.14732E+03 9.91850E-11 3.39012E-11
 -1         3 1.11352E+02 2.13761E+02 9.74408E+01 1.20245E+02 3.06700E-08 5.91336E-08
 -1         4 1.11352E+02 2.13761E+02 9.74408E+01 1.20245E+02 3.06718E-08 5.91232E-08
 -1         5-5.85343E+01-1.98535E+02-7.71492E+01 1.26580E+01-8.24675E-08-3.28038E-09
 -1         6-5.85343E+01-1.98535E+02-7.71492E+01 1.26580E+01-8.24690E-08-3.28038E-09
 -1         7-8.00424E+03-1.77438E+04-8.05655E+03 2.48668E+03 1.23426E-10-9.37159E-11
 -1         8-8.00424E+03-1.77438E+04-8.05655E+03 2.48668E+03 1.23429E-10-9.37160E-11
 -1         9 5.06916E+01 1.15818E+01 1.86629E+01 8.75441E+01-2.13390E-08 2.94074E-08
 -1        10 5.06916E+01 1.15818E+01 1.86629E+01 8.75441E+01-2.13420E-08 2.94268E-08
 -1        11-3.58885E+02-1.01768E+03-3.42028E+02 1.43662E+03 1.26439E-10-3.37952E-11
 -1        12-3.58885E+02-1.01768E+03-3.42028E+02 1.43662E+03 1.26432E-10-3.37951E-11
 -1        13 2.96390E+03 1.64081E+04 5.57488E+03 6.26680E+02-7.55211E-09 1.93593E-08
 -1        14 3.96522E+03 1.74218E+04 6.14002E+03 9.37828E+02-2.05811E-08 1.45390E-08
 -1        15 3.80662E+03 1.63201E+04 5.79076E+03 1.67610E+03-2.82556E-08-8.30086E-09
 -1        16 3.61336E+03 1.44270E+04 5.21378E+03 2.02397E+03-1.12181E-08-3.85491E-08
 -1        17 3.24931E+03 1.22757E+04 4.51050E+03 2.05600E+03 6.90670E-09-4.10361E-09
 -1        18 2.84231E+03 1.04984E+04 3.89280E+03 1.91904E+03 2.63541E-09 4.97196E-08
 -1        19 2.57461E+03 9.25834E+03 3.46303E+03 1.78322E+03-1.52225E-08 7.55019E-08
 -1        20 2.37005E+03 8.31678E+03 3.13445E+03 1.70526E+03-3.71746E-08 7.57745E-08
 -1        21 2.20713E+03 7.54047E+03 2.86447E+03 1.63403E+03-5.36699E-08 4.23171E-08
 -1        22 2.04347E+03 6.94828E+03 2.64625E+03 1.56149E+03-4.74516E-08-2.93915E-08
 -1        23 1.98025E+03 6.56793E+03 2.51778E+03 1.52268E+03-1.67937E-08-8.69787E-08
 -1        24 1.92137E+03 6.17149E+03 2.38530E+03 1.53354E+03 1.81742E-08-9.69220E-08
 -1        25 1.82239E+03 5.58075E+03 2.18476E+03 1.51215E+03 3.46415E-08-7.30259E-08
 -1        26 1.62196E+03 4.78990E+03 1.89599E+03 1.40230E+03 2.65187E-08-3.85821E-08
 -1        27 1.41028E+03 3.94502E+03 1.58721E+03 1.21935E+03 1.05690E-08-3.02731E-08
 -1        28 1.14598E+03 3.04506E+03 1.24503E+03 1.02173E+03 3.52879E-09-3.94956E-08
 -1        29 8.46876E+02 2.08575E+03 8.73333E+02 7.93835E+02 1.25685E-08-5.47413E-08
 -1        30 5.11452E+02 1.14815E+03 4.95506E+02 5.23285E+02 3.76607E-08-6.30596E-08
 -1        31 2.28146E+02 4.61879E+02 2.06500E+02 2.48752E+02 4.44654E-08-1.09676E-08
 -1        32 2.96390E+03 1.64081E+04 5.57488E+03 6.26680E+02-7.55211E-09 1.93593E-08
 -1        33 3.96522E+03 1.74218E+04 6.14002E+03 9.37828E+02-2.05811E-08 1.45390E-08
 -1        34 3.80662E+03 1.63201E+04 5.79076E+03 1.67610E+03-2.82556E-08-8.30092E-09
 -1        35 3.61336E+03 1.44270E+04 5.21378E+03 2.02397E+03-1.12180E-08-3.85487E-08
 -1        36 3.24931E+03 1.22757E+04 4.51050E+03 2.05600E+03 6.90665E-09-4.10364E-09
 -1        37 2.84231E+03 1.04984E+04 3.89280E+03 1.91904E+03 2.63521E-09 4.97192E-08
 -1        38 2.57461E+03 9.25834E+03 3.46303E+03 1.78322E+03-1.52225E-08 7.54993E-08
 -1        39 2.37005E+03 8.31678E+03 3.13445E+03 1.70526E+03-3.71747E-08 7.57745E-08
 -1        40 2.20713E+03 7.54047E+03 2.86447E+03 1.63403E+03-5.36699E-08 4.23161E-08
 -1        41 2.04347E+03 6.94828E+03 2.64625E+03 1.56149E+03-4.74516E-08-2.93895E-08
 -1        42 1.98025E+03 6.56793E+03 2.51778E+03 1.52268E+03-1.67939E-08-8.69792E-08
 -1        43 1.92137E+03 6.17149E+03 2.38530E+03 1.53354E+03 1.81742E-08-9.69196E-08
 -1        44 1.82239E+03 5.58075E+03 2.18476E+03 1.51215E+03 3.46416E-08-7.30277E-08
 -1        45 1.62196E+03 4.78990E+03 1.89599E+03 1.40230E+03 2.65186E-08-3.85821E-08
 -1        46 1.41028E+03 3.94502E+03 1.58721E+03 1.21935E+03 1.05685E-08-3.02741E-08
 -1        47 1.14598E+03 3.04506E+03 1.24503E+03 1.02173E+03 3.52906E-09-3.94882E-08
 -1        48 8.46876E+02 2.08575E+03 8.73333E+02 7.93835E+02 1.25677E-08-5.47421E-08
 -1        49 5.11452E+02 1.14815E+03 4.95506E+02 5.23285E+02 3.76609E-08-6.30543E-08
 -1        50 2.28146E+02 4.61879E+02 2.06500E+02 2.48752E+02 4.44649E-08-1.09691E-08
 -1        51-1.19298E+02-5.11039E+02-1.89405E+02-1.66232E+00-5.05890E-08-4.98148E-08
 -1        52-3.09660E+02-1.26176E+03-4.73181E+02-1.21377E+02-6.47031E-09-7.10196E-08
 -1        53-6.15640E+02-2.18733E+03-8.46111E+02-3.37185E+02 1.94168E-08-5.44345E-08
 -1        54-9.42026E+02-3.09271E+03-1.22088E+03-5.70568E+02 1.91610E-08-4.37455E-08
 -1        55-1.24534E+03-3.95212E+03-1.57636E+03-7.74242E+02 6.06602E-09-3.55896E-08
 -1        56-1.52745E+03-4.79700E+03-1.92278E+03-9.54848E+02 2.29360E-09-4.65964E-08
 -1        57-1.77085E+03-5.55252E+03-2.23151E+03-1.12212E+03 1.11648E-08-7.74305E-08
 -1        58-1.95122E+03-6.11486E+03-2.46181E+03-1.24176E+03 3.66249E-08-9.77833E-08
 -1        59-2.05854E+03-6.52928E+03-2.62369E+03-1.28288E+03 5.85231E-08-7.14786E-08
 -1        60-2.14243E+03-6.99693E+03-2.79541E+03-1.27252E+03 5.48291E-08 3.28855E-09
 -1        61-2.25621E+03-7.65107E+03-3.03590E+03-1.26782E+03 1.95018E-08 6.48674E-08
 -1        62-2.42931E+03-8.47686E+03-3.34980E+03-1.27944E+03-2.13613E-08 7.62921E-08
 -1        63-2.64342E+03-9.47110E+03-3.73088E+03-1.27149E+03-5.15971E-08 7.11327E-08
 -1        64-2.92489E+03-1.08022E+04-4.24304E+03-1.22357E+03-6.19599E-08 3.22177E-08
 -1        65-3.31231E+03-1.26182E+04-4.95085E+03-1.16239E+03-4.89123E-08-1.50708E-08
 -1        66-3.81002E+03-1.47403E+04-5.80262E+03-1.10801E+03-1.42472E-08-3.73525E-08
 -1        67-4.21554E+03-1.65404E+04-6.52854E+03-1.01129E+03 2.75869E-09-5.42591E-09
 -1        68-4.62965E+03-1.75813E+04-7.00609E+03-9.13364E+02 2.69918E-09 1.26104E-08
 -1        69-3.44766E+03-1.65591E+04-6.29685E+03-2.52539E+02-2.03601E-09 2.12092E-08
 -1        70-1.19298E+02-5.11039E+02-1.89405E+02-1.66232E+00-5.05862E-08-4.98120E-08
 -1        71-3.09660E+02-1.26176E+03-4.73181E+02-1.21377E+02-6.46992E-09-7.10203E-08
 -1        72-6.15640E+02-2.18733E+03-8.46111E+02-3.37185E+02 1.94181E-08-5.44348E-08
 -1        73-9.42026E+02-3.09271E+03-1.22088E+03-5.70568E+02 1.91583E-08-4.37323E-08
 -1        74-1.24534E+03-3.95212E+03-1.57636E+03-7.74242E+02 6.06581E-09-3.55942E-08
 -1        75-1.52745E+03-4.79700E+03-1.92278E+03-9.54848E+02 2.29348E-09-4.65960E-08
 -1        76-1.77085E+03-5.55252E+03-2.23151E+03-1.12212E+03 1.11652E-08-7.74312E-08
 -1        77-1.95122E+03-6.11486E+03-2.46181E+03-1.24176E+03 3.66245E-08-9.77883E-08
 -1        78-2.05854E+03-6.52928E+03-2.62369E+03-1.28288E+03 5.85246E-08-7.14837E-08
 -1        79-2.14243E+03-6.99693E+03-2.79541E+03-1.27252E+03 5.48279E-08 3.28857E-09
 -1        80-2.25621E+03-7.65107E+03-3.03590E+03-1.26782E+03 1.95007E-08 6.48674E-08
 -1        81-2.42931E+03-8.47686E+03-3.34980E+03-1.27944E+03-2.13614E-08 7.62954E-08
 -1        82-2.64342E+03-9.47110E+03-3.73088E+03-1.27149E+03-5.15971E-08 7.11287E-08
 -1        83-2.92489E+03-1.08022E+04-4.24304E+03-1.22357E+03-6.19592E-08 3.22183E-08
 -1        84-3.31231E+03-1.26182E+04-4.95085E+03-1.16239E+03-4.89125E-08-1.50708E-08
 -1        85-3.81002E+03-1.47403E+04-5.80262E+03-1.10801E+03-1.42472E-08-3.73526E-08
 -1        86-4.21554E+03-1.65404E+04-6.52854E+03-1.01129E+03 2.75877E-09-5.42591E-09
 -1        87-4.62965E+03-1.75813E+04-7.00609E+03-9.13364E+02 2.69917E-09 1.26104E-08
 -1        88-3.44766E+03-1.65591E+04-6.29685E+03-2.52539E+02-2.03603E-09 2.12092E-08
 -1        89-1.24838E+02-9.74841E+02-3.10527E+02-4.31378E+02-6.43135E-09 2.28239E-08
 -1        90-1.77052E+02-1.02393E+03-3.23475E+02 4.82388E+01-9.39687E-09 1.39795E-08
 -1        91-7.13453E+01-9.82443E+02-2.85691E+02 3.08631E+02-1.01710E-08-6.17461E-09
 -1        92 1.73677E+01-8.89695E+02-2.35199E+02 4.86482E+02-1.21073E-08-4.30212E-08
 -1        93 5.93468E+01-7.28681E+02-1.79586E+02 4.74986E+02-2.00067E-08-1.47471E-08
 -1        94 2.99145E+01-5.61766E+02-1.43213E+02 3.61363E+02-2.69939E-08 4.20835E-08
 -1        95 2.03042E+01-4.21910E+02-1.07920E+02 2.54260E+02-3.15191E-08 7.65883E-08
 -1        96 1.22137E+01-3.38628E+02-8.79778E+01 2.03186E+02-2.88048E-08 8.37693E-08
 -1        97 8.56178E+00-2.68283E+02-6.94925E+01 1.69097E+02-1.69440E-08 5.82115E-08
 -1        98-2.31884E+01-2.00305E+02-5.97360E+01 1.25001E+02 4.99648E-10-1.07155E-08
 -1        99-1.85138E+01-1.35660E+02-3.99921E+01 9.66887E+01 2.08155E-08-8.42672E-08
 -1       100 7.28086E+00-1.13543E+02-2.67691E+01 1.29208E+02 3.09827E-08-1.04181E-07
 -1       101 5.81717E+01-1.09795E+02-1.13842E+01 1.96689E+02 2.26848E-08-7.35326E-08
 -1       102 8.79133E+01-1.08145E+02-2.93554E+00 2.43987E+02 1.03691E-08-4.33019E-08
 -1       103 1.23038E+02-9.33921E+01 1.10147E+01 2.53522E+02 5.45735E-09-3.05154E-08
 -1       104 1.42525E+02-9.78489E+01 1.45103E+01 2.64192E+02 9.37239E-09-4.07209E-08
 -1       105 1.60500E+02-1.08275E+02 1.60611E+01 2.76015E+02 1.74463E-08-5.92436E-08
 -1       106 1.44543E+02-9.92589E+01 1.36447E+01 2.49727E+02 1.45934E-08-7.51266E-08
 -1       107 8.69977E+01-4.02573E+01 1.40064E+01 1.57318E+02-3.99955E-09-3.27184E-08
 -1       108 8.69977E+01-4.02573E+01 1.40064E+01 1.57318E+02-3.99981E-09-3.27347E-08
 -1       109 1.44543E+02-9.92589E+01 1.36447E+01 2.49727E+02 1.45922E-08-7.51277E-08
 -1       110 1.60500E+02-1.08275E+02 1.60611E+01 2.76015E+02 1.74464E-08-5.92352E-08
 -1       111 1.42525E+02-9.78489E+01 1.45103E+01 2.64192E+02 9.37134E-09-4.07354E-08
 -1       112 1.23038E+02-9.33921E+01 1.10147E+01 2.53522E+02 5.45874E-09-3.05114E-08
 -1       113 8.79133E+01-1.08145E+02-2.93554E+00 2.43987E+02 1.03693E-08-4.33027E-08
 -1       114 5.81717E+01-1.09795E+02-1.13842E+01 1.96689E+02 2.26840E-08-7.35279E-08
 -1       115 7.28086E+00-1.13543E+02-2.67691E+01 1.29208E+02 3.09827E-08-1.04184E-07
 -1       116-1.85138E+01-1.35660E+02-3.99921E+01 9.66887E+01 2.08159E-08-8.42656E-08
 -1       117-2.31884E+01-2.00305E+02-5.97360E+01 1.25001E+02 4.99751E-10-1.07192E-08
 -1       118 8.56178E+00-2.68283E+02-6.94925E+01 1.69097E+02-1.69440E-08 5.82133E-08
 -1       119 1.22137E+01-3.38628E+02-8.79778E+01 2.03186E+02-2.88046E-08 8.37689E-08
 -1       120 2.03042E+01-4.21910E+02-1.07920E+02 2.54260E+02-3.15190E-08 7.65890E-08
 -1       121 2.99145E+01-5.61766E+02-1.43213E+02 3.61363E+02-2.69936E-08 4.20839E-08
 -1       122 5.93468E+01-7.28681E+02-1.79586E+02 4.74986E+02-2.00066E-08-1.47471E-08
 -1       123 1.73677E+01-8.89695E+02-2.35199E+02 4.86482E+02-1.21074E-08-4.30217E-08
 -1       124-7.13453E+01-9.82443E+02-2.85691E+02 3.08631E+02-1.01712E-08-6.17449E-09
 -1       125-1.77052E+02-1.02393E+03-3.23475E+02 4.82388E+01-9.39681E-09 1.39794E-08
 -1       126-1.24838E+02-9.74841E+02-3.10527E+02-4.31378E+02-6.43133E-09 2.28239E-08
 -3
    1PSTEP                       255          64           1          
  100CL  164 6.40000E-01         126                     1   64           1
 -4  TOSTRAIN    6    1
 -5  EXX         1    4    1    1
 -5  EYY         1    4    2    2
 -5  EZZ         1    4    3    3
 -5  EXY         1    4    1    2
 -5  EYZ         1    4    2    3
 -5  EZX         1    4    3    1
 -1         1-9.55469E-05 3.16119E-02-1.50647E-27 9.36794E-03 4.58134E-19-2.83594E-17
 -1         2-9.55469E-05 3.16119E-02-1.50647E-27 9.36794E-03 4.58134E-19-2.83594E-17
 -1         3-1.65350E-04 5.87737E-04 6.30118E-26 1.95605E-04 1.58573E-13 1.47199E-13
 -1         4-1.65350E-04 5.87737E-04 6.30062E-26 1.95605E-04 1.58568E-13 1.47166E-13
 -1         5-1.76454E-05-3.16598E-04 1.16269E-25 1.76597E-04-2.55990E-13 8.05666E-14
 -1         6-1.76454E-05-3.16598E-04 1.16271E-25 1.76597E-04-2.55994E-13 8.05682E-14
 -1         7-9.66867E-05-3.38095E-02-1.57615E-27 8.97699E-03 2.78665E-19-1.39951E-16
 -1         8-9.66867E-05-3.38095E-02-1.57615E-27 8.97699E-03 2.91137E-19-1.39951E-16
 -1         9-9.14978E-05 1.72344E-04-1.36029E-27 2.59937E-04-3.30010E-14 1.13401E-13
 -1        10-9.14978E-05 1.72344E-04-1.35036E-27 2.59937E-04-3.29889E-14 1.13463E-13
 -1        11-9.61168E-05-1.57640E-03-1.97406E-27 4.69992E-03 3.05975E-19-1.11132E-16
 -1        12-9.61168E-05-1.57640E-03-1.97406E-27 4.69992E-03 2.82701E-19-1.11132E-16
 -1        13-8.86385E-03 3.33947E-02 8.01766E-27 5.59796E-04-2.16609E-14 6.33031E-14
 -1        14-7.70301E-03 3.47972E-02 1.07554E-26-2.10313E-06-6.06896E-14 5.13968E-14
 -1        15-7.50280E-03 3.30291E-02 1.20408E-26 1.02182E-03-9.01557E-14-1.69323E-14
 -1        16-6.60093E-03 2.95507E-02 2.88898E-26 1.46344E-03-5.11755E-14-1.18218E-13
 -1        17-5.66040E-03 2.54756E-02-9.05646E-27 1.45956E-03 1.92856E-14-1.67707E-14
 -1        18-4.96908E-03 2.20389E-02 4.21955E-26 1.12528E-03 3.78065E-14 1.56362E-13
 -1        19-4.41235E-03 1.95783E-02 1.22459E-25 8.08428E-04 2.92296E-15 2.49365E-13
 -1        20-4.02690E-03 1.77404E-02 1.47331E-25 6.60026E-04-6.02141E-14 2.66481E-13
 -1        21-3.68891E-03 1.62113E-02 8.01604E-26 5.54850E-04-1.32744E-13 1.75543E-13
 -1        22-3.48752E-03 1.50481E-02 3.68535E-26 3.89783E-04-1.70281E-13-5.20639E-14
 -1        23-3.29087E-03 1.42863E-02 1.49911E-25 2.82152E-04-1.27337E-13-2.56292E-13
 -1        24-3.16364E-03 1.35765E-02 2.01774E-25 3.62599E-04-3.31423E-14-3.17924E-13
 -1        25-2.93600E-03 1.24681E-02 1.34345E-25 5.36969E-04 3.58258E-14-2.59653E-13
 -1        26-2.62062E-03 1.08858E-02 4.25833E-26 6.33195E-04 4.24559E-14-1.45736E-13
 -1        27-2.15632E-03 9.06929E-03 2.09267E-26 6.51204E-04 1.15870E-15-1.04064E-13
 -1        28-1.72911E-03 7.14623E-03 3.22788E-26 6.96637E-04-3.07576E-14-1.24895E-13
 -1        29-1.26707E-03 5.06294E-03 6.49952E-26 7.41633E-04-2.03705E-14-1.81226E-13
 -1        30-7.93560E-04 2.94499E-03 1.06198E-25 6.58905E-04 4.64020E-14-2.34122E-13
 -1        31-3.57125E-04 1.25293E-03 2.07242E-26 3.81901E-04 1.23842E-13-8.23593E-14
 -1        32-8.86385E-03 3.33947E-02 8.01766E-27 5.59796E-04-2.16609E-14 6.33031E-14
 -1        33-7.70301E-03 3.47972E-02 1.07554E-26-2.10313E-06-6.06897E-14 5.13968E-14
 -1        34-7.50280E-03 3.30291E-02 1.20409E-26 1.02182E-03-9.01557E-14-1.69325E-14
 -1        35-6.60093E-03 2.95507E-02 2.88892E-26 1.46344E-03-5.11751E-14-1.18216E-13
 -1        36-5.66040E-03 2.54756E-02-9.05638E-27 1.45956E-03 1.92854E-14-1.67708E-14
 -1        37-4.96908E-03 2.20389E-02 4.21951E-26 1.12528E-03 3.78057E-14 1.56361E-13
 -1        38-4.41235E-03 1.95783E-02 1.22451E-25 8.08428E-04 2.92134E-15 2.49357E-13
 -1        39-4.02690E-03 1.77404E-02 1.47331E-25 6.60026E-04-6.02143E-14 2.66481E-13
 -1        40-3.68891E-03 1.62113E-02 8.01596E-26 5.54850E-04-1.32744E-13 1.75540E-13
 -1        41-3.48752E-03 1.50481E-02 3.68537E-26 3.89783E-04-1.70280E-13-5.20577E-14
 -1        42-3.29087E-03 1.42863E-02 1.49913E-25 2.82152E-04-1.27338E-13-2.56293E-13
 -1        43-3.16364E-03 1.35765E-02 2.01764E-25 3.62599E-04-3.31399E-14-3.17917E-13
 -1        44-2.93600E-03 1.24681E-02 1.34351E-25 5.36969E-04 3.58244E-14-2.59659E-13
 -1        45-2.62062E-03 1.08858E-02 4.25832E-26 6.33195E-04 4.24558E-14-1.45736E-13
 -1        46-2.15632E-03 9.06929E-03 2.09281E-26 6.51204E-04 1.15623E-15-1.04067E-13
 -1        47-1.72911E-03 7.14623E-03 3.22660E-26 6.96637E-04-3.07490E-14-1.24872E-13
 -1        48-1.26707E-03 5.06294E-03 6.49951E-26 7.41633E-04-2.03737E-14-1.81227E-13
 -1        49-7.93560E-04 2.94499E-03 1.06192E-25 6.58905E-04 4.64083E-14-2.34106E-13
 -1        50-3.57125E-04 1.25293E-03 2.07360E-26 3.81901E-04 1.23839E-13-8.23635E-14
 -1        51 8.59380E-05-9.05947E-04 8.86201E-26 4.01344E-04-2.09629E-13-9.68428E-14
 -1        52 4.29467E-04-2.47617E-03 1.00338E-25 6.76660E-04-9.75698E-14-2.10372E-13
 -1        53 8.64298E-04-4.52025E-03 6.87664E-26 7.53356E-04 7.96118E-16-1.88009E-13
 -1        54 1.29162E-03-6.56113E-03 4.72785E-26 7.08794E-04 1.25503E-14-1.54919E-13
 -1        55 1.68137E-03-8.47768E-03 2.68392E-26 6.69600E-04-1.84386E-14-1.16062E-13
 -1        56 2.06311E-03-1.03438E-02 4.37776E-26 6.38273E-04-4.04825E-14-1.46530E-13
 -1        57 2.43865E-03-1.20395E-02 1.25146E-25 5.24270E-04-4.13655E-14-2.51501E-13
 -1        58 2.71630E-03-1.33001E-02 2.26182E-25 3.51469E-04 2.33447E-14-3.39411E-13
 -1        59 2.89437E-03-1.41679E-02 1.64420E-25 2.80104E-04 1.21869E-13-2.76188E-13
 -1        60 3.08032E-03-1.50845E-02 3.75966E-26 3.81391E-04 1.78594E-13-3.60705E-14
 -1        61 3.37684E-03-1.64029E-02 8.13779E-26 5.40139E-04 1.15489E-13 1.89402E-13
 -1        62 3.73842E-03-1.80960E-02 1.27156E-25 6.53270E-04-1.14903E-14 2.58085E-13
 -1        63 4.16086E-03-2.01309E-02 1.59446E-25 8.05545E-04-1.18929E-13 2.62211E-13
 -1        64 4.73070E-03-2.28605E-02 9.80513E-26 1.10833E-03-1.83894E-13 1.41754E-13
 -1        65 5.56878E-03-2.66704E-02 5.17940E-26 1.43757E-03-1.71341E-13-2.17090E-14
 -1        66 6.54739E-03-3.12073E-02 2.91578E-26 1.45964E-03-6.53472E-14-1.14267E-13
 -1        67 7.44793E-03-3.51273E-02-2.71608E-27 1.03457E-03 7.53265E-15-1.85572E-14
 -1        68 7.56426E-03-3.72173E-02 2.26357E-27-3.78810E-05 1.21496E-14 4.05269E-14
 -1        69 9.02796E-03-3.57671E-02 8.51235E-27 6.19781E-04-4.84209E-15 6.94250E-14
 -1        70 8.59380E-05-9.05947E-04 8.86095E-26 4.01344E-04-2.09617E-13-9.68374E-14
 -1        71 4.29467E-04-2.47617E-03 1.00339E-25 6.76660E-04-9.75694E-14-2.10375E-13
 -1        72 8.64298E-04-4.52025E-03 6.87684E-26 7.53356E-04 7.99910E-16-1.88011E-13
 -1        73 1.29162E-03-6.56113E-03 4.72536E-26 7.08794E-04 1.25559E-14-1.54875E-13
 -1        74 1.68137E-03-8.47768E-03 2.68471E-26 6.69600E-04-1.84441E-14-1.16076E-13
 -1        75 2.06311E-03-1.03438E-02 4.37766E-26 6.38273E-04-4.04825E-14-1.46529E-13
 -1        76 2.43865E-03-1.20395E-02 1.25148E-25 5.24270E-04-4.13648E-14-2.51504E-13
 -1        77 2.71630E-03-1.33001E-02 2.26202E-25 3.51469E-04 2.33388E-14-3.39427E-13
 -1        78 2.89437E-03-1.41679E-02 1.64439E-25 2.80104E-04 1.21870E-13-2.76205E-13
 -1        79 3.08032E-03-1.50845E-02 3.75943E-26 3.81391E-04 1.78590E-13-3.60694E-14
 -1        80 3.37684E-03-1.64029E-02 8.13772E-26 5.40139E-04 1.15485E-13 1.89403E-13
 -1        81 3.73842E-03-1.80960E-02 1.27167E-25 6.53270E-04-1.14880E-14 2.58095E-13
 -1        82 4.16086E-03-2.01309E-02 1.59434E-25 8.05545E-04-1.18932E-13 2.62198E-13
 -1        83 4.73070E-03-2.28605E-02 9.80516E-26 1.10833E-03-1.83891E-13 1.41756E-13
 -1        84 5.56878E-03-2.66704E-02 5.17945E-26 1.43757E-03-1.71342E-13-2.17089E-14
 -1        85 6.54739E-03-3.12073E-02 2.91578E-26 1.45964E-03-6.53472E-14-1.14267E-13
 -1        86 7.44793E-03-3.51273E-02-2.71611E-27 1.03457E-03 7.53293E-15-1.85572E-14
 -1        87 7.56426E-03-3.72173E-02 2.26359E-27-3.78810E-05 1.21496E-14 4.05270E-14
 -1        88 9.02796E-03-3.57671E-02 8.51235E-27 6.19781E-04-4.84214E-15 6.94250E-14
 -1        89 8.20574E-05-1.55322E-03 1.07272E-26-1.31607E-03-1.86909E-14 7.47862E-14
 -1        90-6.93749E-05-1.48928E-03 4.78111E-27 3.46754E-04-2.74277E-14 4.74958E-14
 -1        91-2.74349E-05-1.34782E-03-7.46061E-28 1.29234E-03-3.49392E-14-1.64044E-14
 -1        92-2.67730E-05-1.10338E-03 3.82215E-26 1.92609E-03-5.80761E-14-1.32933E-13
 -1        93-4.58059E-05-8.14659E-04 2.56007E-27 1.87946E-03-7.20845E-14-3.62849E-14
 -1        94-1.19191E-04-5.62078E-04 4.08274E-26 1.44873E-03-6.03514E-14 1.51101E-13
 -1        95-1.25744E-04-3.89314E-04 1.41833E-25 1.04869E-03-4.80742E-14 2.64996E-13
 -1        96-1.44241E-04-2.75476E-04 1.64580E-25 8.45006E-04-2.92626E-14 2.86541E-13
 -1        97-1.56035E-04-1.76975E-04 6.25677E-26 6.97174E-04-7.31727E-15 1.96960E-13
 -1        98-2.03602E-04-8.22945E-05-2.68211E-26 4.95640E-04-7.51364E-15-3.40683E-14
 -1        99-1.98249E-04 7.84061E-07 1.43217E-25 3.67083E-04-9.78833E-15-2.81982E-13
 -1       100-2.23669E-04 8.61931E-05 2.47061E-25 4.58363E-04-6.49447E-16-3.53313E-13
 -1       101-2.48679E-04 1.81451E-04 1.21206E-25 6.80161E-04-1.17117E-15-2.50154E-13
 -1       102-2.78756E-04 2.52588E-04 3.91039E-26 8.27812E-04-1.15933E-14-1.44265E-13
 -1       103-2.37473E-04 2.75892E-04 1.97230E-26 8.68240E-04-1.48237E-14-9.96396E-14
 -1       104-2.18748E-04 2.75895E-04 3.57588E-26 9.16016E-04-1.43982E-14-1.35024E-13
 -1       105-2.01384E-04 2.68072E-04 7.95172E-26 9.72214E-04-1.04142E-14-2.00455E-13
 -1       106-1.82047E-04 2.40129E-04 1.17892E-25 8.78821E-04-3.71991E-14-2.45895E-13
 -1       107-1.35593E-04 1.96066E-04 2.84854E-27 5.26046E-04-4.80628E-14-9.56843E-14
 -1       108-1.35593E-04 1.96066E-04 2.86198E-27 5.26046E-04-4.80815E-14-9.57339E-14
 -1       109-1.82047E-04 2.40129E-04 1.17895E-25 8.78821E-04-3.72040E-14-2.45897E-13
 -1       110-2.01384E-04 2.68072E-04 7.94968E-26 9.72214E-04-1.04048E-14-2.00429E-13
 -1       111-2.18748E-04 2.75895E-04 3.57838E-26 9.16016E-04-1.44167E-14-1.35067E-13
 -1       112-2.37473E-04 2.75892E-04 1.97172E-26 8.68240E-04-1.48152E-14-9.96286E-14
 -1       113-2.78756E-04 2.52588E-04 3.91057E-26 8.27812E-04-1.15934E-14-1.44268E-13
 -1       114-2.48679E-04 1.81451E-04 1.21190E-25 6.80161E-04-1.16928E-15-2.50139E-13
 -1       115-2.23669E-04 8.61931E-05 2.47076E-25 4.58363E-04-6.53050E-16-3.53325E-13
 -1       116-1.98249E-04 7.84061E-07 1.43212E-25 3.67083E-04-9.78556E-15-2.81978E-13
 -1       117-2.03602E-04-8.22945E-05-2.68212E-26 4.95640E-04-7.51633E-15-3.40799E-14
 -1       118-1.56035E-04-1.76975E-04 6.25694E-26 6.97174E-04-7.31595E-15 1.96966E-13
 -1       119-1.44241E-04-2.75476E-04 1.64578E-25 8.45006E-04-2.92622E-14 2.86540E-13
 -1       120-1.25744E-04-3.89314E-04 1.41835E-25 1.04869E-03-4.80734E-14 2.64998E-13
 -1       121-1.19191E-04-5.62078E-04 4.08278E-26 1.44873E-03-6.03505E-14 1.51102E-13
 -1       122-4.58059E-05-8.14659E-04 2.55991E-27 1.87946E-03-7.20842E-14-3.62848E-14
 -1       123-2.67730E-05-1.10338E-03 3.82224E-26 1.92609E-03-5.80767E-14-1.32935E-13
 -1       124-2.74349E-05-1.34782E-03-7.46172E-28 1.29234E-03-3.49397E-14-1.64039E-14
 -1       125-6.93749E-05-1.48928E-03 4.78105E-27 3.46754E-04-2.74275E-14 4.74956E-14
 -1       126 8.20574E-05-1.55322E-03 1.07272E-26-1.31607E-03-1.86908E-14 7.47862E-14
 -3
    1PSTEP                       256          64           1          
  100CL  164 6.40000E-01         126                     1   64           1
 -4  ERROR       1    1
 -5  STR(%)      1    1    0    0
 -1         1 6.17610E+01
 -1         2 6.17610E+01
 -1         3 2.91232E+01
 -1         4 2.91232E+01
 -1         5 5.10245E+01
 -1         6 5.10245E+01
 -1         7 5.43675E+01
 -1         8 5.43675E+01
 -1         9 5.10245E+01
 -1        10 5.10245E+01
 -1        11 6.17610E+01
 -1        12 6.17610E+01
 -1        13 6.53241E+01
 -1        14 6.53241E+01
 -1        15 6.54921E+01
 -1        16 6.55497E+01
 -1        17 6.55497E+01
 -1        18 6.50892E+01
 -1        19 6.41301E+01
 -1        20 6.34823E+01
 -1        21 6.31089E+01
 -1        22 6.26583E+01
 -1        23 6.16272E+01
 -1        24 6.11422E+01
 -1        25 6.11435E+01
 -1        26 6.11435E+01
 -1        27 6.05723E+01
 -1        28 6.01797E+01
 -1        29 5.89396E+01
 -1        30 5.45751E+01
 -1        31 4.32787E+01
 -1        32 6.53241E+01
 -1        33 6.53241E+01
 -1        34 6.54921E+01
 -1        35 6.55497E+01
 -1        36 6.55497E+01
 -1        37 6.50892E+01
 -1        38 6.41301E+01
 -1        39 6.34823E+01
 -1        40 6.31089E+01
 -1        41 6.26583E+01
 -1        42 6.16272E+01
 -1        43 6.11422E+01
 -1        44 6.11435E+01
 -1        45 6.11435E+01
 -1        46 6.05723E+01
 -1        47 6.01797E+01
 -1        48 5.89396E+01
 -1        49 5.45751E+01
 -1        50 4.32787E+01
 -1        51 5.10616E+01
 -1        52 6.13881E+01
 -1        53 6.49165E+01
 -1        54 6.49165E+01
 -1        55 6.46525E+01
 -1        56 6.38802E+01
 -1        57 6.27228E+01
 -1        58 6.12024E+01
 -1        59 5.99955E+01
 -1        60 5.97029E+01
 -1        61 5.97029E+01
 -1        62 5.94989E+01
 -1        63 5.91979E+01
 -1        64 5.90693E+01
 -1        65 5.88381E+01
 -1        66 5.83074E+01
 -1        67 5.74773E+01
 -1        68 5.70507E+01
 -1        69 5.70507E+01
 -1        70 5.10616E+01
 -1        71 6.13881E+01
 -1        72 6.49165E+01
 -1        73 6.49165E+01
 -1        74 6.46525E+01
 -1        75 6.38802E+01
 -1        76 6.27228E+01
 -1        77 6.12024E+01
 -1        78 5.99955E+01
 -1        79 5.97029E+01
 -1        80 5.97029E+01
 -1        81 5.94989E+01
 -1        82 5.91979E+01
 -1        83 5.90693E+01
 -1        84 5.88381E+01
 -1        85 5.83074E+01
 -1        86 5.74773E+01
 -1        87 5.70507E+01
 -1        88 5.70507E+01
 -1        89 6.53241E+01
 -1        90 6.53241E+01
 -1        91 6.54921E+01
 -1        92 6.55497E+01
 -1        93 6.55497E+01
 -1        94 6.50892E+01
 -1        95 6.41301E+01
 -1        96 6.34823E+01
 -1        97 6.31089E+01
 -1        98 6.26583E+01
 -1        99 6.16272E+01
 -1       100 6.12024E+01
 -1       101 6.27228E+01
 -1       102 6.38802E+01
 -1       103 6.46525E+01
 -1       104 6.49165E+01
 -1       105 6.49165E+01
 -1       106 6.13881E+01
 -1       107 5.10616E+01
 -1       108 5.10616E+01
 -1       109 6.13881E+01
 -1       110 6.49165E+01
 -1       111 6.49165E+01
 -1       112 6.46525E+01
 -1       113 6.38802E+01
 -1       114 6.27228E+01
 -1       115 6.12024E+01
 -1       116 6.16272E+01
 -1       117 6.26583E+01
 -1       118 6.31089E+01
 -1       119 6.34823E+01
 -1       120 6.41301E+01
 -1       121 6.50892E+01
 -1       122 6.55497E+01
 -1       123 6.55497E+01
 -1       124 6.54921E+01
 -1       125 6.53241E+01
 -1       126 6.53241E+01
 -3
    1PSTEP                       257          65           1          
  100CL  165 6.50000E-01         126                     1   65           1
 -4  DISP        4    1
 -5  D1          1    2    1    0
 -5  D2          1    2    2    0
 -5  D3          1    2    3    0
 -5  ALL         1    2    0    0    1ALL
 -1         1 0.00000E+00 0.00000E+00 0.00000E+00
 -1         2 0.00000E+00 0.00000E+00 0.00000E+00
 -1         3 2.41887E-01-1.76421E-02 0.00000E+00
 -1         4 2.41887E-01-1.76421E-02 0.00000E+00
 -1         5 2.35605E-01-5.25038E-02 0.00000E+00
 -1         6 2.35605E-01-5.25038E-02 0.00000E+00
 -1         7 0.00000E+00 0.00000E+00 0.00000E+00
 -1         8 0.00000E+00 0.00000E+00 0.00000E+00
 -1         9 2.38744E-01-3.50684E-02 0.00000E+00
 -1        10 2.38744E-01-3.50684E-02 0.00000E+00
 -1        11 0.00000E+00 0.00000E+00 0.00000E+00
 -1        12 0.00000E+00 0.00000E+00 0.00000E+00
 -1        13 1.02580E-03 1.58320E-03 0.00000E+00
 -1        14 3.69537E-03 3.23957E-03 0.00000E+00
 -1        15 8.35028E-03 4.69864E-03 0.00000E+00
 -1        16 1.48111E-02 5.84135E-03 0.00000E+00
 -1        17 2.28486E-02 6.58315E-03 0.00000E+00
 -1        18 3.22096E-02 6.91433E-03 0.00000E+00
 -1        19 4.26713E-02 6.86741E-03 0.00000E+00
 -1        20 5.40785E-02 6.48817E-03 0.00000E+00
 -1        21 6.63156E-02 5.82943E-03 0.00000E+00
 -1        22 7.93304E-02 4.93361E-03 0.00000E+00
 -1        23 9.31119E-02 3.81658E-03 0.00000E+00
 -1        24 1.07675E-01 2.45381E-03 0.00000E+00
 -1        25 1.22978E-01 8.08905E-04 0.00000E+00
 -1        26 1.38925E-01-1.13353E-03 0.00000E+00
 -1        27 1.55393E-01-3.35380E-03 0.00000E+00
 -1        28 1.72290E-01-5.82927E-03 0.00000E+00
 -1        29 1.89518E-01-8.54264E-03 0.00000E+00
 -1        30 2.06946E-01-1.14631E-02 0.00000E+00
 -1        31 2.24430E-01-1.45233E-02 0.00000E+00
 -1        32 1.02580E-03 1.58320E-03 0.00000E+00
 -1        33 3.69537E-03 3.23957E-03 0.00000E+00
 -1        34 8.35028E-03 4.69864E-03 0.00000E+00
 -1        35 1.48111E-02 5.84135E-03 0.00000E+00
 -1        36 2.28486E-02 6.58315E-03 0.00000E+00
 -1        37 3.22096E-02 6.91433E-03 0.00000E+00
 -1        38 4.26713E-02 6.86741E-03 0.00000E+00
 -1        39 5.40785E-02 6.48817E-03 0.00000E+00
 -1        40 6.63156E-02 5.82943E-03 0.00000E+00
 -1        41 7.93304E-02 4.93361E-03 0.00000E+00
 -1        42 9.31119E-02 3.81658E-03 0.00000E+00
 -1        43 1.07675E-01 2.45381E-03 0.00000E+00
 -1        44 1.22978E-01 8.08905E-04 0.00000E+00
 -1        45 1.38925E-01-1.13353E-03 0.00000E+00
 -1        46 1.55393E-01-3.35380E-03 0.00000E+00
 -1        47 1.72290E-01-5.82927E-03 0.00000E+00
 -1        48 1.89518E-01-8.54264E-03 0.00000E+00
 -1        49 2.06946E-01-1.14631E-02 0.00000E+00
 -1        50 2.24430E-01-1.45233E-02 0.00000E+00
 -1        51 2.18157E-01-4.93461E-02 0.00000E+00
 -1        52 2.00726E-01-4.61316E-02 0.00000E+00
 -1        53 1.83429E-01-4.28512E-02 0.00000E+00
 -1        54 1.66414E-01-3.95416E-02 0.00000E+00
 -1        55 1.49801E-01-3.62571E-02 0.00000E+00
 -1        56 1.33673E-01-3.30353E-02 0.00000E+00
 -1        57 1.18121E-01-2.99010E-02 0.00000E+00
 -1        58 1.03249E-01-2.68901E-02 0.00000E+00
 -1        59 8.91307E-02-2.40483E-02 0.00000E+00
 -1        60 7.57801E-02-2.14016E-02 0.00000E+00
 -1        61 6.31875E-02-1.89393E-02 0.00000E+00
 -1        62 5.13659E-02-1.66221E-02 0.00000E+00
 -1        63 4.03831E-02-1.44043E-02 0.00000E+00
 -1        64 3.03591E-02-1.22473E-02 0.00000E+00
 -1        65 2.14562E-02-1.01215E-02 0.00000E+00
 -1        66 1.38664E-02-8.00451E-03 0.00000E+00
 -1        67 7.80984E-03-5.89390E-03 0.00000E+00
 -1        68 3.46651E-03-3.82053E-03 0.00000E+00
 -1        69 1.00335E-03-1.80595E-03 0.00000E+00
 -1        70 2.18157E-01-4.93461E-02 0.00000E+00
 -1        71 2.00726E-01-4.61316E-02 0.00000E+00
 -1        72 1.83429E-01-4.28512E-02 0.00000E+00
 -1        73 1.66414E-01-3.95416E-02 0.00000E+00
 -1        74 1.49801E-01-3.62571E-02 0.00000E+00
 -1        75 1.33673E-01-3.30353E-02 0.00000E+00
 -1        76 1.18121E-01-2.99010E-02 0.00000E+00
 -1        77 1.03249E-01-2.68901E-02 0.00000E+00
 -1        78 8.91307E-02-2.40483E-02 0.00000E+00
 -1        79 7.57801E-02-2.14016E-02 0.00000E+00
 -1        80 6.31875E-02-1.89393E-02 0.00000E+00
 -1        81 5.13659E-02-1.66221E-02 0.00000E+00
 -1        82 4.03831E-02-1.44043E-02 0.00000E+00
 -1        83 3.03591E-02-1.22473E-02 0.00000E+00
 -1        84 2.14562E-02-1.01215E-02 0.00000E+00
 -1        85 1.38664E-02-8.00451E-03 0.00000E+00
 -1        86 7.80984E-03-5.89390E-03 0.00000E+00
 -1        87 3.46651E-03-3.82053E-03 0.00000E+00
 -1        88 1.00335E-03-1.80595E-03 0.00000E+00
 -1        89 5.57105E-04-9.88899E-05 0.00000E+00
 -1        90 3.20178E-03-2.63692E-04 0.00000E+00
 -1        91 7.70962E-03-5.56138E-04 0.00000E+00
 -1        92 1.40088E-02-1.03335E-03 0.00000E+00
 -1        93 2.18658E-02-1.71945E-03 0.00000E+00
 -1        94 3.10373E-02-2.61739E-03 0.00000E+00
 -1        95 4.13147E-02-3.72162E-03 0.00000E+00
 -1        96 5.25337E-02-5.02288E-03 0.00000E+00
 -1        97 6.45772E-02-6.51177E-03 0.00000E+00
 -1        98 7.73860E-02-8.18867E-03 0.00000E+00
 -1        99 9.09571E-02-1.00684E-02 0.00000E+00
 -1       100 1.05306E-01-1.21703E-02 0.00000E+00
 -1       101 1.20410E-01-1.45007E-02 0.00000E+00
 -1       102 1.36179E-01-1.70432E-02 0.00000E+00
 -1       103 1.52498E-01-1.97699E-02 0.00000E+00
 -1       104 1.69275E-01-2.26566E-02 0.00000E+00
 -1       105 1.86421E-01-2.56767E-02 0.00000E+00
 -1       106 2.03808E-01-2.87860E-02 0.00000E+00
 -1       107 2.21285E-01-3.19296E-02 0.00000E+00
 -1       108 2.21285E-01-3.19296E-02 0.00000E+00
 -1       109 2.03808E-01-2.87860E-02 0.00000E+00
 -1       110 1.86421E-01-2.56767E-02 0.00000E+00
 -1       111 1.69275E-01-2.26566E-02 0.00000E+00
 -1       112 1.52498E-01-1.97699E-02 0.00000E+00
 -1       113 1.36179E-01-1.70432E-02 0.00000E+00
 -1       114 1.20410E-01-1.45007E-02 0.00000E+00
 -1       115 1.05306E-01-1.21703E-02 0.00000E+00
 -1       116 9.09571E-02-1.00684E-02 0.00000E+00
 -1       117 7.73860E-02-8.18867E-03 0.00000E+00
 -1       118 6.45772E-02-6.51177E-03 0.00000E+00
 -1       119 5.25337E-02-5.02288E-03 0.00000E+00
 -1       120 4.13147E-02-3.72162E-03 0.00000E+00
 -1       121 3.10373E-02-2.61739E-03 0.00000E+00
 -1       122 2.18658E-02-1.71945E-03 0.00000E+00
 -1       123 1.40088E-02-1.03335E-03 0.00000E+00
 -1       124 7.70962E-03-5.56138E-04 0.00000E+00
 -1       125 3.20178E-03-2.63692E-04 0.00000E+00
 -1       126 5.57105E-04-9.88899E-05 0.00000E+00
 -3
    1PSTEP                       258          65           1          
  100CL  165 6.50000E-01         126                     1   65           1
 -4  STRESS      6    1
 -5  SXX         1    4    1    1
 -5  SYY         1    4    2    2
 -5  SZZ         1    4    3    3
 -5  SXY         1    4    1    2
 -5  SYZ         1    4    2    3
 -5  SZX         1    4    3    1
 -1         1 7.32787E+03 1.77424E+04 7.24095E+03 3.45670E+03-5.72315E-11-7.70996E-11
 -1         2 7.32787E+03 1.77424E+04 7.24095E+03 3.45670E+03-5.72315E-11-7.70996E-11
 -1         3 1.05742E+02 1.79189E+02 8.54053E+01 1.11648E+02 5.66846E-08 9.44093E-08
 -1         4 1.05742E+02 1.79189E+02 8.54053E+01 1.11648E+02 5.66828E-08 9.44093E-08
 -1         5-4.70322E+01-1.78759E+02-6.77615E+01 1.53483E+01-1.39441E-07 2.78013E-08
 -1         6-4.70322E+01-1.78759E+02-6.77615E+01 1.53483E+01-1.39448E-07 2.78368E-08
 -1         7-8.36893E+03-1.85347E+04-8.44166E+03 2.76051E+03 4.56559E-11-7.34416E-11
 -1         8-8.36893E+03-1.85347E+04-8.44166E+03 2.76051E+03 4.56559E-11-7.34416E-11
 -1         9 5.45088E+01 6.69037E+00 1.83393E+01 8.38857E+01-4.59947E-08 5.16590E-08
 -1        10 5.45088E+01 6.69037E+00 1.83393E+01 8.38857E+01-4.59907E-08 5.16533E-08
 -1        11-4.50936E+02-1.26564E+03-4.42366E+02 1.70152E+03-8.92249E-12-3.25344E-11
 -1        12-4.50936E+02-1.26564E+03-4.42366E+02 1.70152E+03-8.92249E-12-3.25344E-11
 -1        13 3.02646E+03 1.65259E+04 5.62774E+03 7.68525E+02-8.00917E-09-1.00489E-08
 -1        14 4.00483E+03 1.72425E+04 6.10599E+03 9.87667E+02-6.92843E-09-1.61263E-08
 -1        15 3.81120E+03 1.61239E+04 5.74140E+03 1.64706E+03 4.47865E-09 5.41511E-09
 -1        16 3.64404E+03 1.44666E+04 5.23567E+03 1.98126E+03-1.67950E-09 6.67548E-08
 -1        17 3.32618E+03 1.25217E+04 4.60218E+03 2.07502E+03-2.18699E-08 1.04154E-07
 -1        18 2.94220E+03 1.07176E+04 3.98372E+03 1.99803E+03-3.97094E-08 1.10805E-07
 -1        19 2.65009E+03 9.28871E+03 3.49421E+03 1.84950E+03-5.13329E-08 1.19089E-07
 -1        20 2.39855E+03 8.26907E+03 3.13019E+03 1.71269E+03-6.00431E-08 1.04875E-07
 -1        21 2.23626E+03 7.68194E+03 2.91426E+03 1.62734E+03-6.59424E-08 9.03476E-08
 -1        22 2.14623E+03 7.40665E+03 2.80800E+03 1.62296E+03-6.66267E-08 6.73587E-08
 -1        23 2.17169E+03 7.21756E+03 2.76026E+03 1.67756E+03-6.37494E-08 4.45571E-08
 -1        24 2.15053E+03 6.79410E+03 2.63146E+03 1.73361E+03-5.61444E-08 4.62903E-09
 -1        25 2.03677E+03 6.06751E+03 2.38827E+03 1.69610E+03-5.14453E-08-4.98864E-08
 -1        26 1.80403E+03 5.16368E+03 2.05813E+03 1.55226E+03-3.69208E-08-1.16422E-07
 -1        27 1.56192E+03 4.24266E+03 1.71874E+03 1.35011E+03 2.80633E-09-1.76346E-07
 -1        28 1.27191E+03 3.24519E+03 1.34086E+03 1.13331E+03 6.07114E-08-2.02519E-07
 -1        29 9.33135E+02 2.15364E+03 9.18864E+02 8.64804E+02 9.94440E-08-1.74000E-07
 -1        30 5.42060E+02 1.11404E+03 4.94424E+02 5.45679E+02 1.07454E-07-9.76018E-08
 -1        31 2.23322E+02 4.10103E+02 1.89572E+02 2.45213E+02 9.00365E-08-1.62345E-08
 -1        32 3.02646E+03 1.65259E+04 5.62774E+03 7.68525E+02-8.00917E-09-1.00489E-08
 -1        33 4.00483E+03 1.72425E+04 6.10599E+03 9.87667E+02-6.92842E-09-1.61264E-08
 -1        34 3.81120E+03 1.61239E+04 5.74140E+03 1.64706E+03 4.47861E-09 5.41512E-09
 -1        35 3.64404E+03 1.44666E+04 5.23567E+03 1.98126E+03-1.67950E-09 6.67548E-08
 -1        36 3.32618E+03 1.25217E+04 4.60218E+03 2.07502E+03-2.18699E-08 1.04154E-07
 -1        37 2.94220E+03 1.07176E+04 3.98372E+03 1.99803E+03-3.97094E-08 1.10804E-07
 -1        38 2.65009E+03 9.28871E+03 3.49421E+03 1.84950E+03-5.13328E-08 1.19091E-07
 -1        39 2.39855E+03 8.26907E+03 3.13019E+03 1.71269E+03-6.00431E-08 1.04874E-07
 -1        40 2.23626E+03 7.68194E+03 2.91426E+03 1.62734E+03-6.59423E-08 9.03462E-08
 -1        41 2.14623E+03 7.40665E+03 2.80800E+03 1.62296E+03-6.66267E-08 6.73573E-08
 -1        42 2.17169E+03 7.21756E+03 2.76026E+03 1.67756E+03-6.37494E-08 4.45548E-08
 -1        43 2.15053E+03 6.79410E+03 2.63146E+03 1.73361E+03-5.61446E-08 4.62823E-09
 -1        44 2.03677E+03 6.06751E+03 2.38827E+03 1.69610E+03-5.14454E-08-4.98817E-08
 -1        45 1.80403E+03 5.16368E+03 2.05813E+03 1.55226E+03-3.69207E-08-1.16423E-07
 -1        46 1.56192E+03 4.24266E+03 1.71874E+03 1.35011E+03 2.80680E-09-1.76346E-07
 -1        47 1.27191E+03 3.24519E+03 1.34086E+03 1.13331E+03 6.07113E-08-2.02515E-07
 -1        48 9.33135E+02 2.15364E+03 9.18864E+02 8.64804E+02 9.94451E-08-1.74010E-07
 -1        49 5.42060E+02 1.11404E+03 4.94424E+02 5.45679E+02 1.07453E-07-9.75965E-08
 -1        50 2.23322E+02 4.10103E+02 1.89572E+02 2.45213E+02 9.00362E-08-1.62483E-08
 -1        51-1.14882E+02-4.98778E+02-1.84397E+02 3.39777E+00-9.56224E-08-6.38863E-08
 -1        52-3.13085E+02-1.30190E+03-4.86405E+02-1.23571E+02-3.86864E-08-1.53669E-07
 -1        53-6.53312E+02-2.35060E+03-9.07318E+02-3.70788E+02 2.05241E-08-2.00054E-07
 -1        54-1.03921E+03-3.38748E+03-1.34080E+03-6.49250E+02 6.64972E-08-1.98629E-07
 -1        55-1.38695E+03-4.32857E+03-1.73554E+03-8.86895E+02 8.74939E-08-1.57235E-07
 -1        56-1.69240E+03-5.23817E+03-2.10986E+03-1.08200E+03 6.99798E-08-7.20656E-08
 -1        57-1.96536E+03-6.09850E+03-2.46118E+03-1.26216E+03 4.51314E-08-1.23534E-08
 -1        58-2.18227E+03-6.76613E+03-2.73663E+03-1.40748E+03 2.58924E-08 2.48138E-08
 -1        59-2.29882E+03-7.16120E+03-2.89609E+03-1.46974E+03 5.39063E-09 6.29100E-08
 -1        60-2.33792E+03-7.42372E+03-2.98992E+03-1.44179E+03-9.04679E-09 7.62998E-08
 -1        61-2.36233E+03-7.81443E+03-3.11996E+03-1.37618E+03-1.77185E-08 1.05119E-07
 -1        62-2.46686E+03-8.55731E+03-3.38681E+03-1.32644E+03-2.82620E-08 1.13634E-07
 -1        63-2.69340E+03-9.72836E+03-3.82919E+03-1.30996E+03-3.99715E-08 1.10864E-07
 -1        64-3.03969E+03-1.12948E+04-4.43909E+03-1.30646E+03-5.56744E-08 1.13089E-07
 -1        65-3.44873E+03-1.31439E+04-5.16667E+03-1.28402E+03-7.00893E-08 1.02418E-07
 -1        66-3.89599E+03-1.50771E+04-5.94236E+03-1.21579E+03-7.42084E-08 5.23091E-08
 -1        67-4.23285E+03-1.66835E+04-6.58304E+03-1.06278E+03-5.39955E-08 1.04018E-08
 -1        68-4.64927E+03-1.77640E+04-7.07494E+03-9.04499E+02-2.41224E-08-3.46343E-09
 -1        69-3.48123E+03-1.70256E+04-6.46502E+03-1.55264E+02-7.70235E-09 6.01357E-09
 -1        70-1.14882E+02-4.98778E+02-1.84397E+02 3.39777E+00-9.56223E-08-6.39059E-08
 -1        71-3.13085E+02-1.30190E+03-4.86405E+02-1.23571E+02-3.86892E-08-1.53663E-07
 -1        72-6.53312E+02-2.35060E+03-9.07318E+02-3.70788E+02 2.05253E-08-2.00072E-07
 -1        73-1.03921E+03-3.38748E+03-1.34080E+03-6.49250E+02 6.64984E-08-1.98650E-07
 -1        74-1.38695E+03-4.32857E+03-1.73554E+03-8.86895E+02 8.74905E-08-1.57207E-07
 -1        75-1.69240E+03-5.23817E+03-2.10986E+03-1.08200E+03 6.99798E-08-7.20651E-08
 -1        76-1.96536E+03-6.09850E+03-2.46118E+03-1.26216E+03 4.51312E-08-1.23459E-08
 -1        77-2.18227E+03-6.76613E+03-2.73663E+03-1.40748E+03 2.58923E-08 2.48071E-08
 -1        78-2.29882E+03-7.16120E+03-2.89609E+03-1.46974E+03 5.39140E-09 6.29050E-08
 -1        79-2.33792E+03-7.42372E+03-2.98992E+03-1.44179E+03-9.04577E-09 7.63003E-08
 -1        80-2.36233E+03-7.81443E+03-3.11996E+03-1.37618E+03-1.77167E-08 1.05117E-07
 -1        81-2.46686E+03-8.55731E+03-3.38681E+03-1.32644E+03-2.82620E-08 1.13634E-07
 -1        82-2.69340E+03-9.72836E+03-3.82919E+03-1.30996E+03-3.99716E-08 1.10865E-07
 -1        83-3.03969E+03-1.12948E+04-4.43909E+03-1.30646E+03-5.56751E-08 1.13090E-07
 -1        84-3.44873E+03-1.31439E+04-5.16667E+03-1.28402E+03-7.00894E-08 1.02415E-07
 -1        85-3.89599E+03-1.50771E+04-5.94236E+03-1.21579E+03-7.42074E-08 5.23085E-08
 -1        86-4.23285E+03-1.66835E+04-6.58304E+03-1.06278E+03-5.39958E-08 1.04019E-08
 -1        87-4.64927E+03-1.77640E+04-7.07494E+03-9.04499E+02-2.41224E-08-3.46346E-09
 -1        88-3.48123E+03-1.70256E+04-6.46502E+03-1.55264E+02-7.70235E-09 6.01357E-09
 -1        89-1.09305E+02-1.18821E+03-3.68618E+02-3.10621E+02-5.76288E-09-1.82052E-09
 -1        90-1.72994E+02-1.22751E+03-3.81895E+02 9.25417E+01-1.62520E-08-1.29943E-08
 -1        91-8.36222E+01-1.15537E+03-3.40331E+02 2.57293E+02-2.96899E-08 3.57505E-09
 -1        92-1.23349E+01-1.05009E+03-2.91422E+02 3.90485E+02-4.03008E-08 6.06256E-08
 -1        93 3.40329E+01-8.92126E+02-2.35667E+02 4.09545E+02-4.74978E-08 1.05048E-07
 -1        94 3.05504E+01-7.27082E+02-1.92259E+02 3.61699E+02-5.14691E-08 1.15590E-07
 -1        95 3.73572E+01-5.58150E+02-1.43169E+02 2.77125E+02-4.74951E-08 1.16910E-07
 -1        96 4.76038E+00-4.09942E+02-1.10869E+02 1.81310E+02-4.32387E-08 1.13319E-07
 -1        97-3.73412E+01-2.76061E+02-8.48044E+01 9.29881E+01-4.35246E-08 9.68964E-08
 -1        98-7.59180E+01-1.88984E+02-7.13646E+01 4.67949E+01-3.68440E-08 7.38256E-08
 -1        99-4.33069E+01-1.47160E+02-4.99966E+01 6.40693E+01-2.72457E-08 5.23223E-08
 -1       100 1.17802E+01-1.56360E+02-3.72946E+01 1.40431E+02-1.43016E-08 1.74954E-08
 -1       101 7.37644E+01-1.66585E+02-2.28143E+01 2.16946E+02 6.38217E-10-3.03610E-08
 -1       102 9.98845E+01-1.61835E+02-1.47568E+01 2.52892E+02 1.83402E-08-9.62420E-08
 -1       103 1.32808E+02-1.44779E+02-1.09001E+00 2.61401E+02 4.81132E-08-1.71735E-07
 -1       104 1.64143E+02-1.56095E+02 3.65103E+00 2.83849E+02 6.83439E-08-2.10865E-07
 -1       105 1.91768E+02-1.68126E+02 7.50949E+00 3.00209E+02 6.16742E-08-1.95394E-07
 -1       106 1.63343E+02-1.41700E+02 6.54187E+00 2.63321E+02 3.88744E-08-1.31589E-07
 -1       107 8.93617E+01-5.83833E+01 9.26138E+00 1.58460E+02-2.00923E-09-4.19699E-08
 -1       108 8.93617E+01-5.83833E+01 9.26138E+00 1.58460E+02-2.00864E-09-4.19618E-08
 -1       109 1.63343E+02-1.41700E+02 6.54187E+00 2.63321E+02 3.88753E-08-1.31592E-07
 -1       110 1.91768E+02-1.68126E+02 7.50949E+00 3.00209E+02 6.16734E-08-1.95385E-07
 -1       111 1.64143E+02-1.56095E+02 3.65103E+00 2.83849E+02 6.83436E-08-2.10870E-07
 -1       112 1.32808E+02-1.44779E+02-1.09001E+00 2.61401E+02 4.81127E-08-1.71739E-07
 -1       113 9.98845E+01-1.61835E+02-1.47568E+01 2.52892E+02 1.83401E-08-9.62427E-08
 -1       114 7.37644E+01-1.66585E+02-2.28143E+01 2.16946E+02 6.38638E-10-3.03674E-08
 -1       115 1.17802E+01-1.56360E+02-3.72946E+01 1.40431E+02-1.43011E-08 1.74973E-08
 -1       116-4.33069E+01-1.47160E+02-4.99966E+01 6.40693E+01-2.72463E-08 5.23273E-08
 -1       117-7.59180E+01-1.88984E+02-7.13646E+01 4.67949E+01-3.68440E-08 7.38280E-08
 -1       118-3.73412E+01-2.76061E+02-8.48044E+01 9.29881E+01-4.35253E-08 9.68992E-08
 -1       119 4.76038E+00-4.09942E+02-1.10869E+02 1.81310E+02-4.32387E-08 1.13321E-07
 -1       120 3.73572E+01-5.58150E+02-1.43169E+02 2.77125E+02-4.74950E-08 1.16911E-07
 -1       121 3.05504E+01-7.27082E+02-1.92259E+02 3.61699E+02-5.14692E-08 1.15590E-07
 -1       122 3.40329E+01-8.92126E+02-2.35667E+02 4.09545E+02-4.74978E-08 1.05048E-07
 -1       123-1.23349E+01-1.05009E+03-2.91422E+02 3.90485E+02-4.03010E-08 6.06260E-08
 -1       124-8.36222E+01-1.15537E+03-3.40331E+02 2.57293E+02-2.96897E-08 3.57496E-09
 -1       125-1.72994E+02-1.22751E+03-3.81895E+02 9.25417E+01-1.62520E-08-1.29941E-08
 -1       126-1.09305E+02-1.18821E+03-3.68618E+02-3.10621E+02-5.76288E-09-1.82053E-09
 -3
    1PSTEP                       259          65           1          
  100CL  165 6.50000E-01         126                     1   65           1
 -4  TOSTRAIN    6    1
 -5  EXX         1    4    1    1
 -5  EYY         1    4    2    2
 -5  EZZ         1    4    3    3
 -5  EXY         1    4    1    2
 -5  EYZ         1    4    2    3
 -5  EZX         1    4    3    1
 -1         1-1.01485E-04 3.22734E-02-5.05051E-28 1.02580E-02 3.44807E-19-1.85073E-16
 -1         2-1.01485E-04 3.22734E-02-5.05051E-28 1.02580E-02 3.44807E-19-1.85073E-16
 -1         3-1.42146E-04 5.12346E-04 1.65364E-25 1.96341E-04 2.79439E-13 2.23258E-13
 -1         4-1.42146E-04 5.12346E-04 1.65365E-25 1.96341E-04 2.79434E-13 2.23260E-13
 -1         5-1.74196E-05-2.76160E-04 3.58638E-25 1.77866E-04-3.93385E-13 2.42890E-13
 -1         6-1.74196E-05-2.76160E-04 3.58672E-25 1.77866E-04-3.93365E-13 2.43005E-13
 -1         7-1.03930E-04-3.53683E-02-3.36623E-28 1.00334E-02 2.04828E-19-1.84601E-16
 -1         8-1.03930E-04-3.53683E-02-3.36623E-28 1.00334E-02 2.04828E-19-1.84601E-16
 -1         9-7.97829E-05 1.59233E-04 2.54239E-26 2.57020E-04-8.15422E-14 2.09524E-13
 -1        10-7.97829E-05 1.59233E-04 2.54184E-26 2.57020E-04-8.15363E-14 2.09503E-13
 -1        11-1.02707E-04-2.01640E-03-8.73113E-29 5.57104E-03 4.54204E-19-1.05742E-16
 -1        12-1.02707E-04-2.01640E-03-8.73113E-29 5.57104E-03 4.54204E-19-1.05742E-16
 -1        13-8.86991E-03 3.36317E-02 2.75704E-27 9.37839E-04-2.58805E-14-3.16119E-14
 -1        14-7.47490E-03 3.44136E-02 5.07140E-27 1.36834E-04-2.48788E-14-5.03533E-14
 -1        15-7.30402E-03 3.26059E-02-1.05982E-26 9.51315E-04 1.58449E-14 1.58087E-14
 -1        16-6.54214E-03 2.95858E-02 7.91153E-26 1.28596E-03 2.38078E-14 2.14271E-13
 -1        17-5.73775E-03 2.59579E-02 2.33752E-25 1.36550E-03-1.28963E-14 3.43819E-13
 -1        18-5.04451E-03 2.25159E-02 2.91493E-25 1.20149E-03-5.58624E-14 3.76629E-13
 -1        19-4.37263E-03 1.96758E-02 3.54566E-25 9.38695E-04-7.86157E-14 4.12288E-13
 -1        20-3.94360E-03 1.76377E-02 3.05727E-25 6.53222E-04-1.08599E-13 3.75603E-13
 -1        21-3.72645E-03 1.64678E-02 2.59494E-25 3.76017E-04-1.32071E-13 3.36665E-13
 -1        22-3.71358E-03 1.59863E-02 1.82308E-25 1.89634E-04-1.48191E-13 2.67554E-13
 -1        23-3.62914E-03 1.56920E-02 1.16559E-25 2.06921E-04-1.55492E-13 1.96359E-13
 -1        24-3.49205E-03 1.49880E-02 4.92502E-26 4.14757E-04-1.66760E-13 6.78986E-14
 -1        25-3.18363E-03 1.36101E-02 7.98447E-26 6.23780E-04-2.05272E-13-1.02464E-13
 -1        26-2.80398E-03 1.17804E-02 2.80745E-25 6.96720E-04-2.30867E-13-3.19405E-13
 -1        27-2.32117E-03 9.80990E-03 6.32083E-25 7.13795E-04-1.77658E-13-5.43092E-13
 -1        28-1.85247E-03 7.68829E-03 9.35392E-25 7.96330E-04-3.57405E-14-6.85316E-13
 -1        29-1.30859E-03 5.30313E-03 8.30296E-25 8.60139E-04 1.08821E-13-6.41770E-13
 -1        30-7.78660E-04 2.92551E-03 4.03016E-25 7.36968E-04 2.16775E-13-4.18790E-13
 -1        31-3.37687E-04 1.16001E-03 1.08989E-25 4.03749E-04 2.55556E-13-1.51552E-13
 -1        32-8.86991E-03 3.36317E-02 2.75704E-27 9.37839E-04-2.58805E-14-3.16119E-14
 -1        33-7.47490E-03 3.44136E-02 5.07141E-27 1.36834E-04-2.48788E-14-5.03535E-14
 -1        34-7.30402E-03 3.26059E-02-1.05982E-26 9.51315E-04 1.58448E-14 1.58088E-14
 -1        35-6.54214E-03 2.95858E-02 7.91153E-26 1.28596E-03 2.38078E-14 2.14271E-13
 -1        36-5.73775E-03 2.59579E-02 2.33754E-25 1.36550E-03-1.28960E-14 3.43820E-13
 -1        37-5.04451E-03 2.25159E-02 2.91490E-25 1.20149E-03-5.58625E-14 3.76627E-13
 -1        38-4.37263E-03 1.96758E-02 3.54574E-25 9.38695E-04-7.86143E-14 4.12293E-13
 -1        39-3.94360E-03 1.76377E-02 3.05723E-25 6.53222E-04-1.08600E-13 3.75600E-13
 -1        40-3.72645E-03 1.64678E-02 2.59488E-25 3.76017E-04-1.32072E-13 3.36660E-13
 -1        41-3.71358E-03 1.59863E-02 1.82304E-25 1.89634E-04-1.48192E-13 2.67550E-13
 -1        42-3.62914E-03 1.56920E-02 1.16554E-25 2.06921E-04-1.55494E-13 1.96352E-13
 -1        43-3.49205E-03 1.49880E-02 4.92519E-26 4.14757E-04-1.66762E-13 6.78963E-14
 -1        44-3.18363E-03 1.36101E-02 7.98366E-26 6.23780E-04-2.05268E-13-1.02450E-13
 -1        45-2.80398E-03 1.17804E-02 2.80746E-25 6.96720E-04-2.30868E-13-3.19408E-13
 -1        46-2.32117E-03 9.80990E-03 6.32086E-25 7.13795E-04-1.77657E-13-5.43092E-13
 -1        47-1.85247E-03 7.68829E-03 9.35354E-25 7.96330E-04-3.57360E-14-6.85302E-13
 -1        48-1.30859E-03 5.30313E-03 8.30372E-25 8.60139E-04 1.08814E-13-6.41801E-13
 -1        49-7.78660E-04 2.92551E-03 4.02995E-25 7.36968E-04 2.16778E-13-4.18773E-13
 -1        50-3.37687E-04 1.16001E-03 1.09010E-25 4.03749E-04 2.55540E-13-1.51593E-13
 -1        51 6.67132E-05-8.65034E-04 2.09509E-25 4.17173E-04-3.64069E-13-8.61203E-14
 -1        52 4.35023E-04-2.53864E-03 4.78411E-25 7.45118E-04-2.92091E-13-4.24676E-13
 -1        53 9.43506E-04-4.86281E-03 8.34909E-25 8.66216E-04-1.61484E-13-6.33948E-13
 -1        54 1.43471E-03-7.21931E-03 9.19208E-25 8.05650E-04-1.43234E-14-6.81559E-13
 -1        55 1.86402E-03-9.34257E-03 6.62160E-25 7.28943E-04 1.01675E-13-5.77294E-13
 -1        56 2.27541E-03-1.13560E-02 1.83096E-25 7.02929E-04 1.43044E-13-2.95376E-13
 -1        57 2.69365E-03-1.32744E-02 2.93422E-26 6.16810E-04 1.29549E-13-8.36275E-14
 -1        58 3.02484E-03-1.47794E-02 1.59815E-26 4.07010E-04 1.06185E-13 5.24649E-14
 -1        59 3.20720E-03-1.56401E-02 7.64393E-26 2.02710E-04 7.52892E-14 1.91961E-13
 -1        60 3.29206E-03-1.61233E-02 1.19618E-25 1.71096E-04 3.76547E-14 2.47669E-13
 -1        61 3.45922E-03-1.68421E-02 2.35255E-25 3.42223E-04 2.93394E-14 3.46235E-13
 -1        62 3.79802E-03-1.83115E-02 2.87796E-25 6.26920E-04-4.31035E-15 3.81731E-13
 -1        63 4.33088E-03-2.07145E-02 2.92515E-25 9.24262E-04-5.19153E-14 3.81113E-13
 -1        64 5.02916E-03-2.39818E-02 3.37083E-25 1.17606E-03-1.10937E-13 3.97173E-13
 -1        65 5.89867E-03-2.79023E-02 3.26338E-25 1.33294E-03-1.76027E-13 3.68230E-13
 -1        66 6.79321E-03-3.20333E-02 1.76408E-25 1.27270E-03-2.25671E-13 2.03291E-13
 -1        67 7.60570E-03-3.55077E-02 6.61675E-26 9.59161E-04-1.80071E-13 5.27326E-14
 -1        68 7.72749E-03-3.76605E-02 1.15937E-26 9.82515E-05-8.34295E-14-5.77559E-15
 -1        69 9.43771E-03-3.68745E-02 1.13491E-27 1.06879E-03-2.56328E-14 2.04584E-14
 -1        70 6.67132E-05-8.65034E-04 2.09532E-25 4.17173E-04-3.64090E-13-8.61802E-14
 -1        71 4.35023E-04-2.53864E-03 4.78368E-25 7.45118E-04-2.92093E-13-4.24655E-13
 -1        72 9.43506E-04-4.86281E-03 8.35048E-25 8.66216E-04-1.61500E-13-6.34003E-13
 -1        73 1.43471E-03-7.21931E-03 9.19370E-25 8.05650E-04-1.43418E-14-6.81623E-13
 -1        74 1.86402E-03-9.34257E-03 6.61947E-25 7.28943E-04 1.01695E-13-5.77205E-13
 -1        75 2.27541E-03-1.13560E-02 1.83094E-25 7.02929E-04 1.43045E-13-2.95375E-13
 -1        76 2.69365E-03-1.32744E-02 2.93382E-26 6.16810E-04 1.29555E-13-8.36037E-14
 -1        77 3.02484E-03-1.47794E-02 1.59769E-26 4.07010E-04 1.06178E-13 5.24443E-14
 -1        78 3.20720E-03-1.56401E-02 7.64261E-26 2.02710E-04 7.52870E-14 1.91945E-13
 -1        79 3.29206E-03-1.61233E-02 1.19619E-25 1.71096E-04 3.76583E-14 2.47670E-13
 -1        80 3.45922E-03-1.68421E-02 2.35246E-25 3.42223E-04 2.93436E-14 3.46228E-13
 -1        81 3.79802E-03-1.83115E-02 2.87795E-25 6.26920E-04-4.31033E-15 3.81731E-13
 -1        82 4.33088E-03-2.07145E-02 2.92518E-25 9.24262E-04-5.19155E-14 3.81114E-13
 -1        83 5.02916E-03-2.39818E-02 3.37089E-25 1.17606E-03-1.10939E-13 3.97177E-13
 -1        84 5.89867E-03-2.79023E-02 3.26324E-25 1.33294E-03-1.76029E-13 3.68219E-13
 -1        85 6.79321E-03-3.20333E-02 1.76404E-25 1.27270E-03-2.25668E-13 2.03289E-13
 -1        86 7.60570E-03-3.55077E-02 6.61684E-26 9.59161E-04-1.80072E-13 5.27328E-14
 -1        87 7.72749E-03-3.76605E-02 1.15937E-26 9.82515E-05-8.34294E-14-5.77569E-15
 -1        88 9.43771E-03-3.68745E-02 1.13491E-27 1.06879E-03-2.56328E-14 2.04585E-14
 -1        89 2.83902E-04-2.01047E-03 1.02403E-28-8.95732E-04-1.88466E-14-5.39225E-15
 -1        90 1.26297E-04-1.93849E-03 7.50200E-27 5.41604E-04-5.56072E-14-3.84226E-14
 -1        91 1.50839E-04-1.76238E-03 8.66612E-27 1.18807E-03-9.47821E-14 2.19407E-14
 -1        92 1.25532E-04-1.50183E-03 9.75544E-26 1.68799E-03-1.02543E-13 2.13681E-13
 -1        93 8.04559E-05-1.18876E-03 2.75669E-25 1.75675E-03-9.52024E-14 3.62797E-13
 -1        94-7.67181E-06-8.90251E-04 3.38777E-25 1.55518E-03-9.22232E-14 4.01148E-13
 -1        95-2.08753E-05-6.48638E-04 3.37008E-25 1.22282E-03-7.01149E-14 4.04394E-13
 -1        96-7.27923E-05-4.46483E-04 3.09936E-25 8.29786E-04-5.17754E-14 3.90976E-13
 -1        97-1.33615E-04-2.67126E-04 2.35202E-25 4.51175E-04-5.92187E-14 3.40277E-13
 -1        98-2.10761E-04-1.29102E-04 1.39258E-25 2.24030E-04-5.24950E-14 2.63120E-13
 -1        99-2.10970E-04-3.48729E-05 6.58935E-26 2.65864E-04-3.78475E-14 1.88061E-13
 -1       100-2.33601E-04 4.56534E-05-2.14507E-27 5.30749E-04-2.79027E-14 6.80557E-14
 -1       101-2.44990E-04 1.24513E-04-2.38799E-27 7.99965E-04-2.84686E-14-9.45255E-14
 -1       102-2.64285E-04 1.84303E-04 1.71507E-25 9.11304E-04-4.33893E-14-3.15469E-13
 -1       103-2.28574E-04 2.12752E-04 6.51156E-25 9.45369E-04-3.60230E-14-5.78547E-13
 -1       104-2.08880E-04 2.17899E-04 1.03526E-24 1.04262E-03-2.19142E-14-7.20160E-13
 -1       105-1.82544E-04 2.11745E-04 8.73189E-25 1.12237E-03-2.95586E-14-6.65294E-13
 -1       106-1.71818E-04 1.99054E-04 3.51298E-25 9.72014E-04-2.97212E-14-4.44951E-13
 -1       107-1.35487E-04 1.75412E-04-3.09075E-26 5.46585E-04-5.35922E-14-1.25545E-13
 -1       108-1.35487E-04 1.75412E-04-3.09224E-26 5.46585E-04-5.35812E-14-1.25521E-13
 -1       109-1.71818E-04 1.99054E-04 3.51314E-25 9.72014E-04-2.97219E-14-4.44961E-13
 -1       110-1.82544E-04 2.11745E-04 8.73116E-25 1.12237E-03-2.95511E-14-6.65266E-13
 -1       111-2.08880E-04 2.17899E-04 1.03530E-24 1.04262E-03-2.19212E-14-7.20177E-13
 -1       112-2.28574E-04 2.12752E-04 6.51180E-25 9.45369E-04-3.60285E-14-5.78557E-13
 -1       113-2.64285E-04 1.84303E-04 1.71510E-25 9.11304E-04-4.33904E-14-3.15471E-13
 -1       114-2.44990E-04 1.24513E-04-2.38006E-27 7.99965E-04-2.84737E-14-9.45458E-14
 -1       115-2.33601E-04 4.56534E-05-2.14733E-27 5.30749E-04-2.78993E-14 6.80613E-14
 -1       116-2.10970E-04-3.48729E-05 6.59037E-26 2.65864E-04-3.78451E-14 1.88077E-13
 -1       117-2.10761E-04-1.29102E-04 1.39265E-25 2.24030E-04-5.24927E-14 2.63127E-13
 -1       118-1.33615E-04-2.67126E-04 2.35214E-25 4.51175E-04-5.92184E-14 3.40286E-13
 -1       119-7.27923E-05-4.46483E-04 3.09944E-25 8.29786E-04-5.17744E-14 3.90981E-13
 -1       120-2.08753E-05-6.48638E-04 3.37015E-25 1.22282E-03-7.01135E-14 4.04399E-13
 -1       121-7.67181E-06-8.90251E-04 3.38779E-25 1.55518E-03-9.22233E-14 4.01149E-13
 -1       122 8.04559E-05-1.18876E-03 2.75669E-25 1.75675E-03-9.52023E-14 3.62797E-13
 -1       123 1.25532E-04-1.50183E-03 9.75557E-26 1.68799E-03-1.02543E-13 2.13682E-13
 -1       124 1.50839E-04-1.76238E-03 8.66564E-27 1.18807E-03-9.47813E-14 2.19403E-14
 -1       125 1.26297E-04-1.93849E-03 7.50198E-27 5.41604E-04-5.56074E-14-3.84220E-14
 -1       126 2.83902E-04-2.01047E-03 1.02406E-28-8.95732E-04-1.88466E-14-5.39227E-15
 -3
    1PSTEP                       260          65           1          
  100CL  165 6.50000E-01         126                     1   65           1
 -4  ERROR       1    1
 -5  STR(%)      1    1    0    0
 -1         1 6.34441E+01
 -1         2 6.34441E+01
 -1         3 2.79937E+01
 -1         4 2.79937E+01
 -1         5 4.96094E+01
 -1         6 4.96094E+01
 -1         7 5.45695E+01
 -1         8 5.45695E+01
 -1         9 4.96094E+01
 -1        10 4.96094E+01
 -1        11 6.34441E+01
 -1        12 6.34441E+01
 -1        13 6.59185E+01
 -1        14 6.59185E+01
 -1        15 6.63112E+01
 -1        16 6.64209E+01
 -1        17 6.64209E+01
 -1        18 6.61535E+01
 -1        19 6.54618E+01
 -1        20 6.46733E+01
 -1        21 6.34553E+01
 -1        22 6.21691E+01
 -1        23 6.12613E+01
 -1        24 6.16015E+01
 -1        25 6.17206E+01
 -1        26 6.17206E+01
 -1        27 6.12668E+01
 -1        28 6.09279E+01
 -1        29 5.95488E+01
 -1        30 5.43453E+01
 -1        31 4.17324E+01
 -1        32 6.59185E+01
 -1        33 6.59185E+01
 -1        34 6.63112E+01
 -1        35 6.64209E+01
 -1        36 6.64209E+01
 -1        37 6.61535E+01
 -1        38 6.54618E+01
 -1        39 6.46733E+01
 -1        40 6.34553E+01
 -1        41 6.21691E+01
 -1        42 6.12613E+01
 -1        43 6.16015E+01
 -1        44 6.17206E+01
 -1        45 6.17206E+01
 -1        46 6.12668E+01
 -1        47 6.09279E+01
 -1        48 5.95488E+01
 -1        49 5.43453E+01
 -1        50 4.17324E+01
 -1        51 4.96094E+01
 -1        52 5.84411E+01
 -1        53 6.34313E+01
 -1        54 6.37474E+01
 -1        55 6.37474E+01
 -1        56 6.30554E+01
 -1        57 6.21990E+01
 -1        58 6.10203E+01
 -1        59 5.96844E+01
 -1        60 5.88533E+01
 -1        61 5.86601E+01
 -1        62 5.86601E+01
 -1        63 5.85200E+01
 -1        64 5.82235E+01
 -1        65 5.77193E+01
 -1        66 5.71305E+01
 -1        67 5.64252E+01
 -1        68 5.59565E+01
 -1        69 5.59565E+01
 -1        70 4.96094E+01
 -1        71 5.84411E+01
 -1        72 6.34313E+01
 -1        73 6.37474E+01
 -1        74 6.37474E+01
 -1        75 6.30554E+01
 -1        76 6.21990E+01
 -1        77 6.10203E+01
 -1        78 5.96844E+01
 -1        79 5.88533E+01
 -1        80 5.86601E+01
 -1        81 5.86601E+01
 -1        82 5.85200E+01
 -1        83 5.82235E+01
 -1        84 5.77193E+01
 -1        85 5.71305E+01
 -1        86 5.64252E+01
 -1        87 5.59565E+01
 -1        88 5.59565E+01
 -1        89 6.59185E+01
 -1        90 6.59185E+01
 -1        91 6.63112E+01
 -1        92 6.64209E+01
 -1        93 6.64209E+01
 -1        94 6.61535E+01
 -1        95 6.54618E+01
 -1        96 6.46733E+01
 -1        97 6.34553E+01
 -1        98 6.21691E+01
 -1        99 6.12613E+01
 -1       100 6.16015E+01
 -1       101 6.21990E+01
 -1       102 6.30554E+01
 -1       103 6.37474E+01
 -1       104 6.37474E+01
 -1       105 6.34313E+01
 -1       106 5.84411E+01
 -1       107 4.96094E+01
 -1       108 4.96094E+01
 -1       109 5.84411E+01
 -1       110 6.34313E+01
 -1       111 6.37474E+01
 -1       112 6.37474E+01
 -1       113 6.30554E+01
 -1       114 6.21990E+01
 -1       115 6.16015E+01
 -1       116 6.12613E+01
 -1       117 6.21691E+01
 -1       118 6.34553E+01
 -1       119 6.46733E+01
 -1       120 6.54618E+01
 -1       121 6.61535E+01
 -1       122 6.64209E+01
 -1       123 6.64209E+01
 -1       124 6.63112E+01
 -1       125 6.59185E+01
 -1       126 6.59185E+01
 -3
    1PSTEP                       261          66           1          
  100CL  166 6.60000E-01         126                     1   66           1
 -4  DISP        4    1
 -5  D1          1    2    1    0
 -5  D2          1    2    2    0
 -5  D3          1    2    3    0
 -5  ALL         1    2    0    0    1ALL
 -1         1 0.00000E+00 0.00000E+00 0.00000E+00
 -1         2 0.00000E+00 0.00000E+00 0.00000E+00
 -1         3 2.47771E-01-1.90793E-02 0.00000E+00
 -1         4 2.47771E-01-1.90793E-02 0.00000E+00
 -1         5 2.41092E-01-5.49888E-02 0.00000E+00
 -1         6 2.41092E-01-5.49888E-02 0.00000E+00
 -1         7 0.00000E+00 0.00000E+00 0.00000E+00
 -1         8 0.00000E+00 0.00000E+00 0.00000E+00
 -1         9 2.44429E-01-3.70292E-02 0.00000E+00
 -1        10 2.44429E-01-3.70292E-02 0.00000E+00
 -1        11 0.00000E+00 0.00000E+00 0.00000E+00
 -1        12 0.00000E+00 0.00000E+00 0.00000E+00
 -1        13 1.25134E-03 1.65873E-03 0.00000E+00
 -1        14 4.09421E-03 3.27654E-03 0.00000E+00
 -1        15 8.78950E-03 4.66145E-03 0.00000E+00
 -1        16 1.51999E-02 5.77835E-03 0.00000E+00
 -1        17 2.32212E-02 6.54939E-03 0.00000E+00
 -1        18 3.26748E-02 6.91442E-03 0.00000E+00
 -1        19 4.33139E-02 6.86447E-03 0.00000E+00
 -1        20 5.49184E-02 6.45199E-03 0.00000E+00
 -1        21 6.73526E-02 5.76082E-03 0.00000E+00
 -1        22 8.06020E-02 4.84178E-03 0.00000E+00
 -1        23 9.46884E-02 3.68893E-03 0.00000E+00
 -1        24 1.09611E-01 2.26128E-03 0.00000E+00
 -1        25 1.25305E-01 5.32533E-04 0.00000E+00
 -1        26 1.41688E-01-1.50559E-03 0.00000E+00
 -1        27 1.58660E-01-3.85248E-03 0.00000E+00
 -1        28 1.76102E-01-6.50034E-03 0.00000E+00
 -1        29 1.93862E-01-9.41083E-03 0.00000E+00
 -1        30 2.11795E-01-1.25228E-02 0.00000E+00
 -1        31 2.29790E-01-1.57679E-02 0.00000E+00
 -1        32 1.25134E-03 1.65873E-03 0.00000E+00
 -1        33 4.09421E-03 3.27654E-03 0.00000E+00
 -1        34 8.78950E-03 4.66145E-03 0.00000E+00
 -1        35 1.51999E-02 5.77835E-03 0.00000E+00
 -1        36 2.32212E-02 6.54939E-03 0.00000E+00
 -1        37 3.26748E-02 6.91442E-03 0.00000E+00
 -1        38 4.33139E-02 6.86447E-03 0.00000E+00
 -1        39 5.49184E-02 6.45199E-03 0.00000E+00
 -1        40 6.73526E-02 5.76082E-03 0.00000E+00
 -1        41 8.06020E-02 4.84178E-03 0.00000E+00
 -1        42 9.46884E-02 3.68893E-03 0.00000E+00
 -1        43 1.09611E-01 2.26128E-03 0.00000E+00
 -1        44 1.25305E-01 5.32533E-04 0.00000E+00
 -1        45 1.41688E-01-1.50559E-03 0.00000E+00
 -1        46 1.58660E-01-3.85248E-03 0.00000E+00
 -1        47 1.76102E-01-6.50034E-03 0.00000E+00
 -1        48 1.93862E-01-9.41083E-03 0.00000E+00
 -1        49 2.11795E-01-1.25228E-02 0.00000E+00
 -1        50 2.29790E-01-1.57679E-02 0.00000E+00
 -1        51 2.23124E-01-5.16281E-02 0.00000E+00
 -1        52 2.05188E-01-4.82161E-02 0.00000E+00
 -1        53 1.87389E-01-4.47495E-02 0.00000E+00
 -1        54 1.69852E-01-4.12456E-02 0.00000E+00
 -1        55 1.52721E-01-3.77439E-02 0.00000E+00
 -1        56 1.36134E-01-3.43013E-02 0.00000E+00
 -1        57 1.20193E-01-3.09729E-02 0.00000E+00
 -1        58 1.04969E-01-2.77955E-02 0.00000E+00
 -1        59 9.05286E-02-2.47986E-02 0.00000E+00
 -1        60 7.69144E-02-2.20105E-02 0.00000E+00
 -1        61 6.41218E-02-1.94372E-02 0.00000E+00
 -1        62 5.21258E-02-1.70374E-02 0.00000E+00
 -1        63 4.09665E-02-1.47380E-02 0.00000E+00
 -1        64 3.07932E-02-1.24796E-02 0.00000E+00
 -1        65 2.18266E-02-1.02500E-02 0.00000E+00
 -1        66 1.42686E-02-8.07279E-03 0.00000E+00
 -1        67 8.26033E-03-5.97116E-03 0.00000E+00
 -1        68 3.86918E-03-3.94379E-03 0.00000E+00
 -1        69 1.23540E-03-1.92704E-03 0.00000E+00
 -1        70 2.23124E-01-5.16281E-02 0.00000E+00
 -1        71 2.05188E-01-4.82161E-02 0.00000E+00
 -1        72 1.87389E-01-4.47495E-02 0.00000E+00
 -1        73 1.69852E-01-4.12456E-02 0.00000E+00
 -1        74 1.52721E-01-3.77439E-02 0.00000E+00
 -1        75 1.36134E-01-3.43013E-02 0.00000E+00
 -1        76 1.20193E-01-3.09729E-02 0.00000E+00
 -1        77 1.04969E-01-2.77955E-02 0.00000E+00
 -1        78 9.05286E-02-2.47986E-02 0.00000E+00
 -1        79 7.69144E-02-2.20105E-02 0.00000E+00
 -1        80 6.41218E-02-1.94372E-02 0.00000E+00
 -1        81 5.21258E-02-1.70374E-02 0.00000E+00
 -1        82 4.09665E-02-1.47380E-02 0.00000E+00
 -1        83 3.07932E-02-1.24796E-02 0.00000E+00
 -1        84 2.18266E-02-1.02500E-02 0.00000E+00
 -1        85 1.42686E-02-8.07279E-03 0.00000E+00
 -1        86 8.26033E-03-5.97116E-03 0.00000E+00
 -1        87 3.86918E-03-3.94379E-03 0.00000E+00
 -1        88 1.23540E-03-1.92704E-03 0.00000E+00
 -1        89 7.71740E-04-1.16454E-04 0.00000E+00
 -1        90 3.61585E-03-3.05705E-04 0.00000E+00
 -1        91 8.16452E-03-6.14976E-04 0.00000E+00
 -1        92 1.44010E-02-1.09958E-03 0.00000E+00
 -1        93 2.22236E-02-1.79820E-03 0.00000E+00
 -1        94 3.14737E-02-2.73002E-03 0.00000E+00
 -1        95 4.19205E-02-3.88775E-03 0.00000E+00
 -1        96 5.33292E-02-5.24737E-03 0.00000E+00
 -1        97 6.55554E-02-6.79304E-03 0.00000E+00
 -1        98 7.85779E-02-8.53563E-03 0.00000E+00
 -1        99 9.24336E-02-1.05032E-02 0.00000E+00
 -1       100 1.07126E-01-1.27152E-02 0.00000E+00
 -1       101 1.22600E-01-1.51705E-02 0.00000E+00
 -1       102 1.38780E-01-1.78573E-02 0.00000E+00
 -1       103 1.55584E-01-2.07588E-02 0.00000E+00
 -1       104 1.72898E-01-2.38432E-02 0.00000E+00
 -1       105 1.90574E-01-2.70604E-02 0.00000E+00
 -1       106 2.08463E-01-3.03578E-02 0.00000E+00
 -1       107 2.26447E-01-3.36923E-02 0.00000E+00
 -1       108 2.26447E-01-3.36923E-02 0.00000E+00
 -1       109 2.08463E-01-3.03578E-02 0.00000E+00
 -1       110 1.90574E-01-2.70604E-02 0.00000E+00
 -1       111 1.72898E-01-2.38432E-02 0.00000E+00
 -1       112 1.55584E-01-2.07588E-02 0.00000E+00
 -1       113 1.38780E-01-1.78573E-02 0.00000E+00
 -1       114 1.22600E-01-1.51705E-02 0.00000E+00
 -1       115 1.07126E-01-1.27152E-02 0.00000E+00
 -1       116 9.24336E-02-1.05032E-02 0.00000E+00
 -1       117 7.85779E-02-8.53563E-03 0.00000E+00
 -1       118 6.55554E-02-6.79304E-03 0.00000E+00
 -1       119 5.33292E-02-5.24737E-03 0.00000E+00
 -1       120 4.19205E-02-3.88775E-03 0.00000E+00
 -1       121 3.14737E-02-2.73002E-03 0.00000E+00
 -1       122 2.22236E-02-1.79820E-03 0.00000E+00
 -1       123 1.44010E-02-1.09958E-03 0.00000E+00
 -1       124 8.16452E-03-6.14976E-04 0.00000E+00
 -1       125 3.61585E-03-3.05705E-04 0.00000E+00
 -1       126 7.71740E-04-1.16454E-04 0.00000E+00
 -3
    1PSTEP                       262          66           1          
  100CL  166 6.60000E-01         126                     1   66           1
 -4  STRESS      6    1
 -5  SXX         1    4    1    1
 -5  SYY         1    4    2    2
 -5  SZZ         1    4    3    3
 -5  SXY         1    4    1    2
 -5  SYZ         1    4    2    3
 -5  SZX         1    4    3    1
 -1         1 7.74931E+03 1.86657E+04 7.60154E+03 4.24651E+03-1.91185E-10-1.15510E-10
 -1         2 7.74931E+03 1.86657E+04 7.60154E+03 4.24651E+03-1.91185E-10-1.15510E-10
 -1         3 1.22648E+02 2.31104E+02 1.06024E+02 1.23407E+02 3.97196E-08 4.08463E-08
 -1         4 1.22648E+02 2.31104E+02 1.06024E+02 1.23407E+02 3.97194E-08 4.08453E-08
 -1         5-6.85913E+01-2.24814E+02-8.80581E+01-4.27709E-01-7.97941E-08 1.07763E-08
 -1         6-6.85913E+01-2.24814E+02-8.80581E+01-4.27709E-01-7.97958E-08 1.07561E-08
 -1         7-8.86782E+03-1.96700E+04-8.99728E+03 3.36172E+03-1.61042E-10 1.09840E-11
 -1         8-8.86782E+03-1.96700E+04-8.99728E+03 3.36172E+03-1.61042E-10 1.09801E-11
 -1         9 5.29636E+01 6.54492E+00 1.78393E+01 8.25646E+01-1.28325E-08 4.02137E-08
 -1        10 5.29636E+01 6.54492E+00 1.78393E+01 8.25646E+01-1.28323E-08 4.02183E-08
 -1        11-4.88517E+02-1.45101E+03-5.10360E+02 2.35498E+03-2.19394E-10-3.21618E-11
 -1        12-4.88517E+02-1.45101E+03-5.10360E+02 2.35498E+03-2.19394E-10-3.21545E-11
 -1        13 3.08772E+03 1.67573E+04 5.71104E+03 1.13350E+03 1.81012E-09-3.37262E-08
 -1        14 3.99635E+03 1.67390E+04 5.97086E+03 1.07220E+03 2.13245E-08-1.97970E-08
 -1        15 3.73846E+03 1.56262E+04 5.58769E+03 1.53887E+03 2.73612E-08 5.19122E-08
 -1        16 3.63936E+03 1.44788E+04 5.23972E+03 1.86251E+03 5.58548E-09 1.20247E-07
 -1        17 3.43032E+03 1.29285E+04 4.74617E+03 2.08371E+03-3.05566E-08 1.46282E-07
 -1        18 3.10349E+03 1.11274E+04 4.14607E+03 2.10658E+03-5.32711E-08 1.19679E-07
 -1        19 2.78655E+03 9.49960E+03 3.59463E+03 1.95010E+03-5.24112E-08 8.69457E-08
 -1        20 2.49192E+03 8.40947E+03 3.19870E+03 1.76131E+03-3.69066E-08 8.10811E-08
 -1        21 2.33524E+03 7.95547E+03 3.02214E+03 1.67547E+03-2.59231E-08 9.23928E-08
 -1        22 2.28742E+03 7.81863E+03 2.96729E+03 1.72652E+03-3.60012E-08 1.26613E-07
 -1        23 2.34221E+03 7.62863E+03 2.92790E+03 1.81844E+03-7.01412E-08 1.44516E-07
 -1        24 2.32075E+03 7.15931E+03 2.78652E+03 1.86336E+03-1.06173E-07 9.80167E-08
 -1        25 2.20888E+03 6.46252E+03 2.55288E+03 1.82097E+03-1.05739E-07-9.77057E-09
 -1        26 1.99290E+03 5.57149E+03 2.23154E+03 1.70554E+03-5.94966E-08-1.22121E-07
 -1        27 1.74079E+03 4.50988E+03 1.84892E+03 1.50131E+03 7.91060E-09-2.06234E-07
 -1        28 1.37696E+03 3.30263E+03 1.38865E+03 1.21612E+03 6.48943E-08-2.23908E-07
 -1        29 9.56726E+02 2.13069E+03 9.19178E+02 8.76103E+02 9.69528E-08-1.78076E-07
 -1        30 5.41836E+02 1.14433E+03 5.03435E+02 5.43899E+02 9.01140E-08-7.54425E-08
 -1        31 2.35166E+02 4.71285E+02 2.11410E+02 2.55795E+02 6.49469E-08 8.66879E-09
 -1        32 3.08772E+03 1.67573E+04 5.71104E+03 1.13350E+03 1.81012E-09-3.37262E-08
 -1        33 3.99635E+03 1.67390E+04 5.97086E+03 1.07220E+03 2.13245E-08-1.97970E-08
 -1        34 3.73846E+03 1.56262E+04 5.58769E+03 1.53887E+03 2.73611E-08 5.19122E-08
 -1        35 3.63936E+03 1.44788E+04 5.23972E+03 1.86251E+03 5.58542E-09 1.20247E-07
 -1        36 3.43032E+03 1.29285E+04 4.74617E+03 2.08371E+03-3.05565E-08 1.46281E-07
 -1        37 3.10349E+03 1.11274E+04 4.14607E+03 2.10658E+03-5.32711E-08 1.19679E-07
 -1        38 2.78655E+03 9.49960E+03 3.59463E+03 1.95010E+03-5.24112E-08 8.69432E-08
 -1        39 2.49192E+03 8.40947E+03 3.19870E+03 1.76131E+03-3.69066E-08 8.10811E-08
 -1        40 2.33524E+03 7.95547E+03 3.02214E+03 1.67547E+03-2.59231E-08 9.23933E-08
 -1        41 2.28742E+03 7.81863E+03 2.96729E+03 1.72652E+03-3.60010E-08 1.26611E-07
 -1        42 2.34221E+03 7.62863E+03 2.92790E+03 1.81844E+03-7.01412E-08 1.44518E-07
 -1        43 2.32075E+03 7.15931E+03 2.78652E+03 1.86336E+03-1.06173E-07 9.80163E-08
 -1        44 2.20888E+03 6.46252E+03 2.55288E+03 1.82097E+03-1.05738E-07-9.77149E-09
 -1        45 1.99290E+03 5.57149E+03 2.23154E+03 1.70554E+03-5.94970E-08-1.22117E-07
 -1        46 1.74079E+03 4.50988E+03 1.84892E+03 1.50131E+03 7.91076E-09-2.06228E-07
 -1        47 1.37696E+03 3.30263E+03 1.38865E+03 1.21612E+03 6.48938E-08-2.23916E-07
 -1        48 9.56726E+02 2.13069E+03 9.19178E+02 8.76103E+02 9.69521E-08-1.78090E-07
 -1        49 5.41836E+02 1.14433E+03 5.03435E+02 5.43899E+02 9.01171E-08-7.54277E-08
 -1        50 2.35166E+02 4.71285E+02 2.11410E+02 2.55795E+02 6.49458E-08 8.67206E-09
 -1        51-1.42769E+02-5.41456E+02-2.05600E+02-2.34231E+01-5.46382E-08-5.20446E-08
 -1        52-3.43237E+02-1.30241E+03-4.95562E+02-1.54455E+02-2.93726E-08-1.33975E-07
 -1        53-6.69131E+02-2.33890E+03-9.08440E+02-3.84544E+02 1.69960E-08-2.06127E-07
 -1        54-1.07213E+03-3.52592E+03-1.39336E+03-6.76428E+02 6.92783E-08-2.15040E-07
 -1        55-1.49444E+03-4.69846E+03-1.88302E+03-9.82378E+02 1.04151E-07-1.70866E-07
 -1        56-1.87108E+03-5.71842E+03-2.31434E+03-1.24124E+03 1.09835E-07-7.94532E-08
 -1        57-2.15126E+03-6.54804E+03-2.65897E+03-1.42499E+03 6.81752E-08 4.91063E-08
 -1        58-2.35177E+03-7.20989E+03-2.92817E+03-1.54347E+03 2.90504E-09 1.34545E-07
 -1        59-2.47301E+03-7.66465E+03-3.10869E+03-1.60613E+03-5.09926E-08 1.55540E-07
 -1        60-2.51349E+03-7.91840E+03-3.20076E+03-1.59367E+03-6.82959E-08 1.18619E-07
 -1        61-2.50187E+03-8.19244E+03-3.28287E+03-1.50980E+03-5.94249E-08 8.26889E-08
 -1        62-2.56646E+03-8.88224E+03-3.52084E+03-1.41263E+03-3.50455E-08 7.72726E-08
 -1        63-2.79962E+03-1.02018E+04-4.01434E+03-1.37656E+03-1.84625E-08 1.05312E-07
 -1        64-3.19371E+03-1.19794E+04-4.71049E+03-1.40649E+03-1.91321E-08 1.26969E-07
 -1        65-3.60934E+03-1.37845E+04-5.42925E+03-1.42772E+03-4.00539E-08 1.41836E-07
 -1        66-3.95985E+03-1.52984E+04-6.03739E+03-1.34941E+03-6.43731E-08 1.08996E-07
 -1        67-4.15448E+03-1.64190E+04-6.46973E+03-1.11051E+03-6.75454E-08 3.36010E-08
 -1        68-4.57892E+03-1.75172E+04-6.96758E+03-8.30366E+02-4.64031E-08-1.66754E-08
 -1        69-3.48418E+03-1.74756E+04-6.61714E+03 1.01516E+02-1.59356E-08-2.92071E-08
 -1        70-1.42769E+02-5.41456E+02-2.05600E+02-2.34231E+01-5.46355E-08-5.20537E-08
 -1        71-3.43237E+02-1.30241E+03-4.95562E+02-1.54455E+02-2.93716E-08-1.33975E-07
 -1        72-6.69131E+02-2.33890E+03-9.08440E+02-3.84544E+02 1.69967E-08-2.06128E-07
 -1        73-1.07213E+03-3.52592E+03-1.39336E+03-6.76428E+02 6.92794E-08-2.15053E-07
 -1        74-1.49444E+03-4.69846E+03-1.88302E+03-9.82378E+02 1.04147E-07-1.70866E-07
 -1        75-1.87108E+03-5.71842E+03-2.31434E+03-1.24124E+03 1.09835E-07-7.94523E-08
 -1        76-2.15126E+03-6.54804E+03-2.65897E+03-1.42499E+03 6.81753E-08 4.91052E-08
 -1        77-2.35177E+03-7.20989E+03-2.92817E+03-1.54347E+03 2.90793E-09 1.34544E-07
 -1        78-2.47301E+03-7.66465E+03-3.10869E+03-1.60613E+03-5.09916E-08 1.55544E-07
 -1        79-2.51349E+03-7.91840E+03-3.20076E+03-1.59367E+03-6.82942E-08 1.18612E-07
 -1        80-2.50187E+03-8.19244E+03-3.28287E+03-1.50980E+03-5.94256E-08 8.26891E-08
 -1        81-2.56646E+03-8.88224E+03-3.52084E+03-1.41263E+03-3.50455E-08 7.72726E-08
 -1        82-2.79962E+03-1.02018E+04-4.01434E+03-1.37656E+03-1.84625E-08 1.05310E-07
 -1        83-3.19371E+03-1.19794E+04-4.71049E+03-1.40649E+03-1.91321E-08 1.26970E-07
 -1        84-3.60934E+03-1.37845E+04-5.42925E+03-1.42772E+03-4.00542E-08 1.41836E-07
 -1        85-3.95985E+03-1.52984E+04-6.03739E+03-1.34941E+03-6.43719E-08 1.08996E-07
 -1        86-4.15448E+03-1.64190E+04-6.46973E+03-1.11051E+03-6.75452E-08 3.36010E-08
 -1        87-4.57892E+03-1.75172E+04-6.96758E+03-8.30366E+02-4.64031E-08-1.66754E-08
 -1        88-3.48418E+03-1.74756E+04-6.61714E+03 1.01516E+02-1.59356E-08-2.92071E-08
 -1        89-8.02826E+01-1.34244E+03-4.03321E+02 1.75778E+01-5.68806E-09-3.69371E-08
 -1        90-1.52371E+02-1.34030E+03-4.07298E+02 2.09911E+02-1.47988E-08-2.31572E-08
 -1        91-9.82385E+01-1.23973E+03-3.69467E+02 1.58515E+02-2.35914E-08 4.20524E-08
 -1        92-5.54030E+01-1.15403E+03-3.35398E+02 2.27197E+02-3.27056E-08 1.19299E-07
 -1        93 8.06332E+00-1.04368E+03-2.88633E+02 3.17723E+02-3.82725E-08 1.49684E-07
 -1        94 4.24574E+01-9.10229E+02-2.42873E+02 3.63988E+02-3.51677E-08 1.28241E-07
 -1        95 5.86839E+01-7.22089E+02-1.84839E+02 2.99067E+02-3.63556E-08 9.45451E-08
 -1        96 6.37724E-01-5.18580E+02-1.43563E+02 1.56819E+02-3.75572E-08 7.34175E-08
 -1        97-6.24559E+01-3.40538E+02-1.10792E+02 3.42967E+01-3.99011E-08 8.77161E-08
 -1        98-9.36468E+01-2.47487E+02-9.35506E+01 9.42366E+00-5.03097E-08 1.27520E-07
 -1        99-4.10820E+01-2.14630E+02-6.87200E+01 6.03354E+01-6.13385E-08 1.58547E-07
 -1       100 1.32367E+01-2.15841E+02-5.35721E+01 1.30052E+02-5.42134E-08 1.25923E-07
 -1       101 6.43367E+01-2.10977E+02-3.80299E+01 1.86046E+02-2.05742E-08 2.22625E-08
 -1       102 1.07011E+02-2.17289E+02-2.88221E+01 2.43322E+02 2.75144E-08-1.03540E-07
 -1       103 1.77838E+02-2.19175E+02-9.71873E+00 2.94405E+02 6.26182E-08-1.96671E-07
 -1       104 2.09812E+02-2.12550E+02 5.89156E-01 3.19779E+02 7.05143E-08-2.30550E-07
 -1       105 1.99307E+02-1.74655E+02 7.93919E+00 2.99822E+02 5.91272E-08-1.98818E-07
 -1       106 1.48398E+02-1.21821E+02 8.07164E+00 2.43611E+02 2.87630E-08-1.06192E-07
 -1       107 8.19314E+01-4.88961E+01 9.91203E+00 1.49301E+02 6.99049E-09-2.57440E-08
 -1       108 8.19314E+01-4.88961E+01 9.91203E+00 1.49301E+02 6.99080E-09-2.57490E-08
 -1       109 1.48398E+02-1.21821E+02 8.07164E+00 2.43611E+02 2.87621E-08-1.06191E-07
 -1       110 1.99307E+02-1.74655E+02 7.93919E+00 2.99822E+02 5.91260E-08-1.98816E-07
 -1       111 2.09812E+02-2.12550E+02 5.89156E-01 3.19779E+02 7.05154E-08-2.30532E-07
 -1       112 1.77838E+02-2.19175E+02-9.71873E+00 2.94405E+02 6.26189E-08-1.96683E-07
 -1       113 1.07011E+02-2.17289E+02-2.88221E+01 2.43322E+02 2.75142E-08-1.03543E-07
 -1       114 6.43367E+01-2.10977E+02-3.80299E+01 1.86046E+02-2.05745E-08 2.22649E-08
 -1       115 1.32367E+01-2.15841E+02-5.35721E+01 1.30052E+02-5.42137E-08 1.25923E-07
 -1       116-4.10820E+01-2.14630E+02-6.87200E+01 6.03354E+01-6.13391E-08 1.58546E-07
 -1       117-9.36468E+01-2.47487E+02-9.35506E+01 9.42366E+00-5.03104E-08 1.27524E-07
 -1       118-6.24559E+01-3.40538E+02-1.10792E+02 3.42967E+01-3.99005E-08 8.77152E-08
 -1       119 6.37724E-01-5.18580E+02-1.43563E+02 1.56819E+02-3.75573E-08 7.34175E-08
 -1       120 5.86839E+01-7.22089E+02-1.84839E+02 2.99067E+02-3.63556E-08 9.45473E-08
 -1       121 4.24574E+01-9.10229E+02-2.42873E+02 3.63988E+02-3.51676E-08 1.28240E-07
 -1       122 8.06332E+00-1.04368E+03-2.88633E+02 3.17723E+02-3.82729E-08 1.49686E-07
 -1       123-5.54030E+01-1.15403E+03-3.35398E+02 2.27197E+02-3.27054E-08 1.19298E-07
 -1       124-9.82385E+01-1.23973E+03-3.69467E+02 1.58515E+02-2.35914E-08 4.20525E-08
 -1       125-1.52371E+02-1.34030E+03-4.07298E+02 2.09911E+02-1.47988E-08-2.31572E-08
 -1       126-8.02826E+01-1.34244E+03-4.03321E+02 1.75778E+01-5.68806E-09-3.69371E-08
 -3
    1PSTEP                       263          66           1          
  100CL  166 6.60000E-01         126                     1   66           1
 -4  TOSTRAIN    6    1
 -5  EXX         1    4    1    1
 -5  EYY         1    4    2    2
 -5  EZZ         1    4    3    3
 -5  EXY         1    4    1    2
 -5  EYZ         1    4    2    3
 -5  EZX         1    4    3    1
 -1         1-1.12555E-04 3.39247E-02-4.00786E-27 1.25133E-02 3.08250E-19-1.34214E-16
 -1         2-1.12555E-04 3.39247E-02-4.00786E-27 1.25133E-02 3.08250E-19-1.34214E-16
 -1         3-1.69463E-04 6.29069E-04 5.34799E-26 1.79129E-04 1.68009E-13 7.74813E-14
 -1         4-1.69463E-04 6.29069E-04 5.34801E-26 1.79129E-04 1.68008E-13 7.74785E-14
 -1         5-1.41723E-06-3.80073E-04 1.02257E-25 1.69422E-04-2.29563E-13 1.25936E-13
 -1         6-1.41723E-06-3.80073E-04 1.02246E-25 1.69422E-04-2.29592E-13 1.25877E-13
 -1         7-1.16604E-04-3.76084E-02-3.87605E-27 1.23539E-02 5.75666E-19-1.92028E-16
 -1         8-1.16604E-04-3.76084E-02-3.87604E-27 1.23539E-02 5.75448E-19-1.92041E-16
 -1         9-8.54400E-05 1.62710E-04 7.00801E-27 2.49569E-04 8.01751E-15 1.36957E-13
 -1        10-8.54400E-05 1.62710E-04 7.00924E-27 2.49569E-04 8.02358E-15 1.36971E-13
 -1        11-1.14580E-04-2.32175E-03-4.81763E-27 7.71731E-03 3.80475E-19-1.08176E-16
 -1        12-1.14580E-04-2.32175E-03-4.81763E-27 7.71731E-03 3.80883E-19-1.08152E-16
 -1        13-9.02634E-03 3.41555E-02 2.13424E-26 1.94110E-03 2.25698E-15-1.09047E-13
 -1        14-7.05722E-03 3.33901E-02 3.02315E-27 4.32069E-04 6.19432E-14-6.87140E-14
 -1        15-6.94460E-03 3.15564E-02 4.32734E-26 7.50023E-04 1.02136E-13 1.57166E-13
 -1        16-6.46845E-03 2.95264E-02 2.88393E-25 9.27566E-04 6.94301E-14 3.82005E-13
 -1        17-5.88077E-03 2.67388E-02 4.67760E-25 1.20703E-03-1.73306E-14 4.82703E-13
 -1        18-5.18004E-03 2.33703E-02 3.57287E-25 1.30205E-03-9.15276E-14 4.13433E-13
 -1        19-4.39429E-03 2.01411E-02 2.13323E-25 1.09314E-03-1.02499E-13 3.11650E-13
 -1        20-3.93091E-03 1.79268E-02 1.66470E-25 6.71078E-04-5.33296E-14 2.83448E-13
 -1        21-3.80394E-03 1.70205E-02 1.91336E-25 2.85111E-04-5.71224E-15 3.10844E-13
 -1        22-3.89669E-03 1.68712E-02 3.61594E-25 1.43163E-04-2.22825E-15 4.26515E-13
 -1        23-3.81918E-03 1.66207E-02 5.37323E-25 2.47522E-04-8.29426E-14 5.13641E-13
 -1        24-3.63832E-03 1.58171E-02 3.99053E-25 4.36593E-04-2.28570E-13 4.06568E-13
 -1        25-3.34644E-03 1.44967E-02 1.51786E-25 5.88899E-04-3.29813E-13 7.83161E-14
 -1        26-3.00801E-03 1.27455E-02 3.06581E-25 7.25210E-04-3.07642E-13-3.10396E-13
 -1        27-2.46406E-03 1.05234E-02 8.60468E-25 8.67660E-04-2.00182E-13-6.37844E-13
 -1        28-1.87773E-03 7.92288E-03 1.13888E-24 9.41561E-04-5.45196E-14-7.54595E-13
 -1        29-1.29325E-03 5.28921E-03 8.40456E-25 8.63672E-04 8.95703E-14-6.52410E-13
 -1        30-8.07706E-04 2.99358E-03 2.43413E-25 6.59174E-04 1.85301E-13-3.33706E-13
 -1        31-3.81283E-04 1.29838E-03 5.81946E-26 3.59051E-04 2.06791E-13-4.95320E-14
 -1        32-9.02634E-03 3.41555E-02 2.13424E-26 1.94110E-03 2.25698E-15-1.09047E-13
 -1        33-7.05722E-03 3.33901E-02 3.02314E-27 4.32069E-04 6.19433E-14-6.87140E-14
 -1        34-6.94460E-03 3.15564E-02 4.32734E-26 7.50023E-04 1.02136E-13 1.57166E-13
 -1        35-6.46845E-03 2.95264E-02 2.88394E-25 9.27566E-04 6.94300E-14 3.82005E-13
 -1        36-5.88077E-03 2.67388E-02 4.67755E-25 1.20703E-03-1.73306E-14 4.82700E-13
 -1        37-5.18004E-03 2.33703E-02 3.57290E-25 1.30205E-03-9.15271E-14 4.13435E-13
 -1        38-4.39429E-03 2.01411E-02 2.13313E-25 1.09314E-03-1.02501E-13 3.11642E-13
 -1        39-3.93091E-03 1.79268E-02 1.66470E-25 6.71078E-04-5.33296E-14 2.83448E-13
 -1        40-3.80394E-03 1.70205E-02 1.91339E-25 2.85111E-04-5.71202E-15 3.10845E-13
 -1        41-3.89669E-03 1.68712E-02 3.61584E-25 1.43163E-04-2.22909E-15 4.26509E-13
 -1        42-3.81918E-03 1.66207E-02 5.37331E-25 2.47522E-04-8.29412E-14 5.13645E-13
 -1        43-3.63832E-03 1.58171E-02 3.99051E-25 4.36593E-04-2.28571E-13 4.06567E-13
 -1        44-3.34644E-03 1.44967E-02 1.51789E-25 5.88899E-04-3.29814E-13 7.83132E-14
 -1        45-3.00801E-03 1.27455E-02 3.06568E-25 7.25210E-04-3.07640E-13-3.10384E-13
 -1        46-2.46406E-03 1.05234E-02 8.60419E-25 8.67660E-04-2.00175E-13-6.37827E-13
 -1        47-1.87773E-03 7.92288E-03 1.13896E-24 9.41561E-04-5.45308E-14-7.54620E-13
 -1        48-1.29325E-03 5.28921E-03 8.40535E-25 8.63672E-04 8.95520E-14-6.52452E-13
 -1        49-8.07706E-04 2.99358E-03 2.43343E-25 6.59174E-04 1.85327E-13-3.33665E-13
 -1        50-3.81283E-04 1.29838E-03 5.81866E-26 3.59051E-04 2.06792E-13-4.95208E-14
 -1        51 8.79464E-05-9.78030E-04 8.37552E-26 3.78606E-04-2.26739E-13-9.40643E-14
 -1        52 4.29767E-04-2.57310E-03 3.57437E-25 6.69984E-04-2.45497E-13-3.72562E-13
 -1        53 9.18165E-04-4.84220E-03 8.79727E-25 8.66742E-04-1.86336E-13-6.46551E-13
 -1        54 1.49567E-03-7.50541E-03 1.06701E-24 9.47339E-04-3.20761E-14-7.34593E-13
 -1        55 2.07135E-03-1.01809E-02 8.19506E-25 8.81819E-04 1.32058E-13-6.38617E-13
 -1        56 2.55100E-03-1.25048E-02 3.22394E-25 7.29363E-04 2.56953E-13-3.62184E-13
 -1        57 2.94634E-03-1.43698E-02 7.34823E-26 5.80883E-04 2.65817E-13 8.15675E-14
 -1        58 3.25724E-03-1.58261E-02 3.46132E-25 4.32576E-04 1.43515E-13 4.15258E-13
 -1        59 3.47375E-03-1.68095E-02 5.56127E-25 2.44922E-04-1.53128E-14 5.33324E-13
 -1        60 3.57325E-03-1.72993E-02 3.90502E-25 1.16785E-04-1.13114E-13 4.32264E-13
 -1        61 3.68912E-03-1.77626E-02 2.16482E-25 2.36218E-04-1.22223E-13 3.09712E-13
 -1        62 3.99221E-03-1.90723E-02 1.49898E-25 6.29971E-04-5.31597E-14 2.71774E-13
 -1        63 4.61052E-03-2.17735E-02 2.36868E-25 1.07065E-03 1.57277E-14 3.48279E-13
 -1        64 5.44228E-03-2.55330E-02 3.44087E-25 1.27722E-03 1.96564E-14 4.18461E-13
 -1        65 6.31030E-03-2.94106E-02 4.53321E-25 1.17350E-03-5.32354E-14 4.78465E-13
 -1        66 6.99688E-03-3.26319E-02 3.28311E-25 9.03040E-04-1.66055E-13 3.81859E-13
 -1        67 7.56143E-03-3.49924E-02 1.11977E-25 7.46142E-04-2.17613E-13 1.32892E-13
 -1        68 7.62033E-03-3.71067E-02 4.84673E-26 3.92966E-04-1.62833E-13-4.33321E-14
 -1        69 9.85699E-03-3.79272E-02 1.92600E-26 2.13347E-03-5.78383E-14-9.32057E-14
 -1        70 8.79464E-05-9.78030E-04 8.37646E-26 3.78606E-04-2.26742E-13-9.40951E-14
 -1        71 4.29767E-04-2.57310E-03 3.57428E-25 6.69984E-04-2.45493E-13-3.72562E-13
 -1        72 9.18165E-04-4.84220E-03 8.79733E-25 8.66742E-04-1.86335E-13-6.46554E-13
 -1        73 1.49567E-03-7.50541E-03 1.06713E-24 9.47339E-04-3.20877E-14-7.34634E-13
 -1        74 2.07135E-03-1.01809E-02 8.19478E-25 8.81819E-04 1.32046E-13-6.38609E-13
 -1        75 2.55100E-03-1.25048E-02 3.22393E-25 7.29363E-04 2.56954E-13-3.62182E-13
 -1        76 2.94634E-03-1.43698E-02 7.34830E-26 5.80883E-04 2.65816E-13 8.15638E-14
 -1        77 3.25724E-03-1.58261E-02 3.46122E-25 4.32576E-04 1.43523E-13 4.15251E-13
 -1        78 3.47375E-03-1.68095E-02 5.56151E-25 2.44922E-04-1.53056E-14 5.33337E-13
 -1        79 3.57325E-03-1.72993E-02 3.90468E-25 1.16785E-04-1.13114E-13 4.32243E-13
 -1        80 3.68912E-03-1.77626E-02 2.16486E-25 2.36218E-04-1.22225E-13 3.09713E-13
 -1        81 3.99221E-03-1.90723E-02 1.49898E-25 6.29971E-04-5.31596E-14 2.71774E-13
 -1        82 4.61052E-03-2.17735E-02 2.36860E-25 1.07065E-03 1.57264E-14 3.48273E-13
 -1        83 5.44228E-03-2.55330E-02 3.44089E-25 1.27722E-03 1.96569E-14 4.18463E-13
 -1        84 6.31030E-03-2.94106E-02 4.53321E-25 1.17350E-03-5.32365E-14 4.78465E-13
 -1        85 6.99688E-03-3.26319E-02 3.28308E-25 9.03040E-04-1.66051E-13 3.81858E-13
 -1        86 7.56143E-03-3.49924E-02 1.11976E-25 7.46142E-04-2.17613E-13 1.32892E-13
 -1        87 7.62033E-03-3.71067E-02 4.84673E-26 3.92966E-04-1.62833E-13-4.33321E-14
 -1        88 9.85699E-03-3.79272E-02 1.92599E-26 2.13347E-03-5.78383E-14-9.32056E-14
 -1        89 4.15329E-04-2.29627E-03 2.62114E-26 2.02268E-04-2.23506E-14-1.19345E-13
 -1        90 2.81557E-04-2.19837E-03 3.41242E-27 9.58987E-04-5.33059E-14-7.15622E-14
 -1        91 3.08414E-04-2.03989E-03 2.21474E-26 8.99450E-04-6.18295E-14 1.44215E-13
 -1        92 2.64215E-04-1.83221E-03 3.06675E-25 1.20443E-03-5.17211E-14 3.98916E-13
 -1        93 2.14763E-04-1.55922E-03 5.02444E-25 1.54540E-03-4.09715E-14 5.00694E-13
 -1        94 1.31120E-04-1.25491E-03 3.70398E-25 1.68759E-03-3.13486E-14 4.31250E-13
 -1        95 1.08113E-04-9.62036E-04 2.13392E-25 1.41910E-03-4.90648E-14 3.25715E-13
 -1        96 3.06525E-05-6.93958E-04 1.42922E-25 8.39493E-04-6.26241E-14 2.60772E-13
 -1        97-5.74080E-05-4.58900E-04 1.91882E-25 3.17404E-04-5.36978E-14 3.08662E-13
 -1        98-1.61723E-04-2.78236E-04 3.91568E-25 1.55020E-04-4.63218E-14 4.43266E-13
 -1        99-1.72716E-04-1.58292E-04 6.07579E-25 3.17941E-04-4.44306E-14 5.50874E-13
 -1       100-1.90537E-04-7.14683E-05 3.64007E-25 5.59557E-04-4.51606E-14 4.43442E-13
 -1       101-2.00050E-04 1.03355E-05-6.24702E-26 7.51960E-04-4.07907E-14 8.98215E-14
 -1       102-2.28505E-04 8.45835E-05 1.66888E-25 9.46914E-04-2.59900E-14-3.47227E-13
 -1       103-1.96354E-04 1.41212E-04 8.72345E-25 1.14789E-03-2.52361E-14-6.70389E-13
 -1       104-1.91031E-04 1.86143E-04 1.22475E-24 1.23495E-03-4.54887E-14-7.82259E-13
 -1       105-1.87542E-04 2.18577E-04 8.84504E-25 1.13221E-03-4.85987E-14-6.72374E-13
 -1       106-1.88969E-04 2.22837E-04 2.11326E-25 8.82354E-04-3.58709E-14-3.55747E-13
 -1       107-1.46668E-04 1.89381E-04-2.12629E-26 5.02509E-04-8.78588E-15-8.62485E-14
 -1       108-1.46668E-04 1.89381E-04-2.12528E-26 5.02509E-04-8.79074E-15-8.62640E-14
 -1       109-1.88969E-04 2.22837E-04 2.11339E-25 8.82354E-04-3.58725E-14-3.55743E-13
 -1       110-1.87542E-04 2.18577E-04 8.84499E-25 1.13221E-03-4.86000E-14-6.72366E-13
 -1       111-1.91031E-04 1.86143E-04 1.22458E-24 1.23495E-03-4.54649E-14-7.82205E-13
 -1       112-1.96354E-04 1.41212E-04 8.72449E-25 1.14789E-03-2.52470E-14-6.70426E-13
 -1       113-2.28505E-04 8.45835E-05 1.66891E-25 9.46914E-04-2.59931E-14-3.47234E-13
 -1       114-2.00050E-04 1.03355E-05-6.24719E-26 7.51960E-04-4.07889E-14 8.98289E-14
 -1       115-1.90537E-04-7.14683E-05 3.64011E-25 5.59557E-04-4.51611E-14 4.43445E-13
 -1       116-1.72716E-04-1.58292E-04 6.07570E-25 3.17941E-04-4.44338E-14 5.50870E-13
 -1       117-1.61723E-04-2.78236E-04 3.91589E-25 1.55020E-04-4.63205E-14 4.43280E-13
 -1       118-5.74080E-05-4.58900E-04 1.91876E-25 3.17404E-04-5.36965E-14 3.08659E-13
 -1       119 3.06525E-05-6.93958E-04 1.42922E-25 8.39493E-04-6.26243E-14 2.60773E-13
 -1       120 1.08113E-04-9.62036E-04 2.13402E-25 1.41910E-03-4.90632E-14 3.25722E-13
 -1       121 1.31120E-04-1.25491E-03 3.70394E-25 1.68759E-03-3.13487E-14 4.31247E-13
 -1       122 2.14763E-04-1.55922E-03 5.02455E-25 1.54540E-03-4.09716E-14 5.00699E-13
 -1       123 2.64215E-04-1.83221E-03 3.06673E-25 1.20443E-03-5.17206E-14 3.98915E-13
 -1       124 3.08414E-04-2.03989E-03 2.21476E-26 8.99450E-04-6.18294E-14 1.44216E-13
 -1       125 2.81557E-04-2.19837E-03 3.41243E-27 9.58987E-04-5.33059E-14-7.15622E-14
 -1       126 4.15329E-04-2.29627E-03 2.62114E-26 2.02268E-04-2.23506E-14-1.19346E-13
 -3
    1PSTEP                       264          66           1          
  100CL  166 6.60000E-01         126                     1   66           1
 -4  ERROR       1    1
 -5  STR(%)      1    1    0    0
 -1         1 6.60507E+01
 -1         2 6.60507E+01
 -1         3 3.21165E+01
 -1         4 3.21165E+01
 -1         5 5.40000E+01
 -1         6 5.40000E+01
 -1         7 5.59584E+01
 -1         8 5.59584E+01
 -1         9 5.40000E+01
 -1        10 5.40000E+01
 -1        11 6.60507E+01
 -1        12 6.60507E+01
 -1        13 6.66937E+01
 -1        14 6.66937E+01
 -1        15 6.65200E+01
 -1        16 6.68131E+01
 -1        17 6.71038E+01
 -1        18 6.71038E+01
 -1        19 6.68414E+01
 -1        20 6.59974E+01
 -1        21 6.41077E+01
 -1        22 6.24210E+01
 -1        23 6.19375E+01
 -1        24 6.20687E+01
 -1        25 6.21639E+01
 -1        26 6.21639E+01
 -1        27 6.19566E+01
 -1        28 6.13578E+01
 -1        29 5.92632E+01
 -1        30 5.50728E+01
 -1        31 4.52317E+01
 -1        32 6.66937E+01
 -1        33 6.66937E+01
 -1        34 6.65200E+01
 -1        35 6.68131E+01
 -1        36 6.71038E+01
 -1        37 6.71038E+01
 -1        38 6.68414E+01
 -1        39 6.59974E+01
 -1        40 6.41077E+01
 -1        41 6.24210E+01
 -1        42 6.19375E+01
 -1        43 6.20687E+01
 -1        44 6.21639E+01
 -1        45 6.21639E+01
 -1        46 6.19566E+01
 -1        47 6.13578E+01
 -1        48 5.92632E+01
 -1        49 5.50728E+01
 -1        50 4.52317E+01
 -1        51 5.40000E+01
 -1        52 6.01507E+01
 -1        53 6.25860E+01
 -1        54 6.29879E+01
 -1        55 6.29879E+01
 -1        56 6.22950E+01
 -1        57 6.11961E+01
 -1        58 6.02755E+01
 -1        59 5.93430E+01
 -1        60 5.83076E+01
 -1        61 5.75834E+01
 -1        62 5.76554E+01
 -1        63 5.76554E+01
 -1        64 5.73417E+01
 -1        65 5.67233E+01
 -1        66 5.59842E+01
 -1        67 5.53438E+01
 -1        68 5.50757E+01
 -1        69 5.59584E+01
 -1        70 5.40000E+01
 -1        71 6.01507E+01
 -1        72 6.25860E+01
 -1        73 6.29879E+01
 -1        74 6.29879E+01
 -1        75 6.22950E+01
 -1        76 6.11961E+01
 -1        77 6.02755E+01
 -1        78 5.93430E+01
 -1        79 5.83076E+01
 -1        80 5.75834E+01
 -1        81 5.76554E+01
 -1        82 5.76554E+01
 -1        83 5.73417E+01
 -1        84 5.67233E+01
 -1        85 5.59842E+01
 -1        86 5.53438E+01
 -1        87 5.50757E+01
 -1        88 5.59584E+01
 -1        89 6.66937E+01
 -1        90 6.66937E+01
 -1        91 6.65200E+01
 -1        92 6.68131E+01
 -1        93 6.71038E+01
 -1        94 6.71038E+01
 -1        95 6.68414E+01
 -1        96 6.59974E+01
 -1        97 6.41077E+01
 -1        98 6.24210E+01
 -1        99 6.19375E+01
 -1       100 6.20687E+01
 -1       101 6.21639E+01
 -1       102 6.22950E+01
 -1       103 6.29879E+01
 -1       104 6.29879E+01
 -1       105 6.25860E+01
 -1       106 6.01507E+01
 -1       107 5.40000E+01
 -1       108 5.40000E+01
 -1       109 6.01507E+01
 -1       110 6.25860E+01
 -1       111 6.29879E+01
 -1       112 6.29879E+01
 -1       113 6.22950E+01
 -1       114 6.21639E+01
 -1       115 6.20687E+01
 -1       116 6.19375E+01
 -1       117 6.24210E+01
 -1       118 6.41077E+01
 -1       119 6.59974E+01
 -1       120 6.68414E+01
 -1       121 6.71038E+01
 -1       122 6.71038E+01
 -1       123 6.68131E+01
 -1       124 6.65200E+01
 -1       125 6.66937E+01
 -1       126 6.66937E+01
 -3
    1PSTEP                       265          67           1          
  100CL  167 6.70000E-01         126                     1   67           1
 -4  DISP        4    1
 -5  D1          1    2    1    0
 -5  D2          1    2    2    0
 -5  D3          1    2    3    0
 -5  ALL         1    2    0    0    1ALL
 -1         1 0.00000E+00 0.00000E+00 0.00000E+00
 -1         2 0.00000E+00 0.00000E+00 0.00000E+00
 -1         3 2.53501E-01-2.05371E-02 0.00000E+00
 -1         4 2.53501E-01-2.05371E-02 0.00000E+00
 -1         5 2.46453E-01-5.73850E-02 0.00000E+00
 -1         6 2.46453E-01-5.73850E-02 0.00000E+00
 -1         7 0.00000E+00 0.00000E+00 0.00000E+00
 -1         8 0.00000E+00 0.00000E+00 0.00000E+00
 -1         9 2.49974E-01-3.89569E-02 0.00000E+00
 -1        10 2.49974E-01-3.89569E-02 0.00000E+00
 -1        11 0.00000E+00 0.00000E+00 0.00000E+00
 -1        12 0.00000E+00 0.00000E+00 0.00000E+00
 -1        13 1.48213E-03 1.75540E-03 0.00000E+00
 -1        14 4.52481E-03 3.35638E-03 0.00000E+00
 -1        15 9.30971E-03 4.67179E-03 0.00000E+00
 -1        16 1.57060E-02 5.74274E-03 0.00000E+00
 -1        17 2.36937E-02 6.51410E-03 0.00000E+00
 -1        18 3.31603E-02 6.90934E-03 0.00000E+00
 -1        19 4.38868E-02 6.89621E-03 0.00000E+00
 -1        20 5.56666E-02 6.50678E-03 0.00000E+00
 -1        21 6.83638E-02 5.80470E-03 0.00000E+00
 -1        22 8.19366E-02 4.83099E-03 0.00000E+00
 -1        23 9.63674E-02 3.59193E-03 0.00000E+00
 -1        24 1.11642E-01 2.06986E-03 0.00000E+00
 -1        25 1.27718E-01 2.46631E-04 0.00000E+00
 -1        26 1.44538E-01-1.90112E-03 0.00000E+00
 -1        27 1.61994E-01-4.39075E-03 0.00000E+00
 -1        28 1.79936E-01-7.21378E-03 0.00000E+00
 -1        29 1.98181E-01-1.03134E-02 0.00000E+00
 -1        30 2.16586E-01-1.36131E-02 0.00000E+00
 -1        31 2.35049E-01-1.70423E-02 0.00000E+00
 -1        32 1.48213E-03 1.75540E-03 0.00000E+00
 -1        33 4.52481E-03 3.35638E-03 0.00000E+00
 -1        34 9.30971E-03 4.67179E-03 0.00000E+00
 -1        35 1.57060E-02 5.74274E-03 0.00000E+00
 -1        36 2.36937E-02 6.51410E-03 0.00000E+00
 -1        37 3.31603E-02 6.90934E-03 0.00000E+00
 -1        38 4.38868E-02 6.89621E-03 0.00000E+00
 -1        39 5.56666E-02 6.50678E-03 0.00000E+00
 -1        40 6.83638E-02 5.80470E-03 0.00000E+00
 -1        41 8.19366E-02 4.83099E-03 0.00000E+00
 -1        42 9.63674E-02 3.59193E-03 0.00000E+00
 -1        43 1.11642E-01 2.06986E-03 0.00000E+00
 -1        44 1.27718E-01 2.46631E-04 0.00000E+00
 -1        45 1.44538E-01-1.90112E-03 0.00000E+00
 -1        46 1.61994E-01-4.39075E-03 0.00000E+00
 -1        47 1.79936E-01-7.21378E-03 0.00000E+00
 -1        48 1.98181E-01-1.03134E-02 0.00000E+00
 -1        49 2.16586E-01-1.36131E-02 0.00000E+00
 -1        50 2.35049E-01-1.70423E-02 0.00000E+00
 -1        51 2.28016E-01-5.38412E-02 0.00000E+00
 -1        52 2.09613E-01-5.02477E-02 0.00000E+00
 -1        53 1.91343E-01-4.66024E-02 0.00000E+00
 -1        54 1.73325E-01-4.29155E-02 0.00000E+00
 -1        55 1.55714E-01-3.92173E-02 0.00000E+00
 -1        56 1.38678E-01-3.55704E-02 0.00000E+00
 -1        57 1.22344E-01-3.20497E-02 0.00000E+00
 -1        58 1.06778E-01-2.87078E-02 0.00000E+00
 -1        59 9.20151E-02-2.55702E-02 0.00000E+00
 -1        60 7.80845E-02-2.26453E-02 0.00000E+00
 -1        61 6.50045E-02-1.99266E-02 0.00000E+00
 -1        62 5.27879E-02-1.73804E-02 0.00000E+00
 -1        63 4.14946E-02-1.49516E-02 0.00000E+00
 -1        64 3.12659E-02-1.25942E-02 0.00000E+00
 -1        65 2.23041E-02-1.03043E-02 0.00000E+00
 -1        66 1.47805E-02-8.11553E-03 0.00000E+00
 -1        67 8.77647E-03-6.05114E-03 0.00000E+00
 -1        68 4.28786E-03-4.07439E-03 0.00000E+00
 -1        69 1.45991E-03-2.04944E-03 0.00000E+00
 -1        70 2.28016E-01-5.38412E-02 0.00000E+00
 -1        71 2.09613E-01-5.02477E-02 0.00000E+00
 -1        72 1.91343E-01-4.66024E-02 0.00000E+00
 -1        73 1.73325E-01-4.29155E-02 0.00000E+00
 -1        74 1.55714E-01-3.92173E-02 0.00000E+00
 -1        75 1.38678E-01-3.55704E-02 0.00000E+00
 -1        76 1.22344E-01-3.20497E-02 0.00000E+00
 -1        77 1.06778E-01-2.87078E-02 0.00000E+00
 -1        78 9.20151E-02-2.55702E-02 0.00000E+00
 -1        79 7.80845E-02-2.26453E-02 0.00000E+00
 -1        80 6.50045E-02-1.99266E-02 0.00000E+00
 -1        81 5.27879E-02-1.73804E-02 0.00000E+00
 -1        82 4.14946E-02-1.49516E-02 0.00000E+00
 -1        83 3.12659E-02-1.25942E-02 0.00000E+00
 -1        84 2.23041E-02-1.03043E-02 0.00000E+00
 -1        85 1.47805E-02-8.11553E-03 0.00000E+00
 -1        86 8.77647E-03-6.05114E-03 0.00000E+00
 -1        87 4.28786E-03-4.07439E-03 0.00000E+00
 -1        88 1.45991E-03-2.04944E-03 0.00000E+00
 -1        89 9.81597E-04-1.25373E-04 0.00000E+00
 -1        90 4.05156E-03-3.29928E-04 0.00000E+00
 -1        91 8.69503E-03-6.50963E-04 0.00000E+00
 -1        92 1.49140E-02-1.13996E-03 0.00000E+00
 -1        93 2.26926E-02-1.84233E-03 0.00000E+00
 -1        94 3.19402E-02-2.78720E-03 0.00000E+00
 -1        95 4.24551E-02-3.97443E-03 0.00000E+00
 -1        96 5.40185E-02-5.38641E-03 0.00000E+00
 -1        97 6.64900E-02-7.01126E-03 0.00000E+00
 -1        98 7.98231E-02-8.85512E-03 0.00000E+00
 -1        99 9.40117E-02-1.09351E-02 0.00000E+00
 -1       100 1.09039E-01-1.32645E-02 0.00000E+00
 -1       101 1.24873E-01-1.58481E-02 0.00000E+00
 -1       102 1.41468E-01-1.86855E-02 0.00000E+00
 -1       103 1.58743E-01-2.17618E-02 0.00000E+00
 -1       104 1.76551E-01-2.50338E-02 0.00000E+00
 -1       105 1.94712E-01-2.84380E-02 0.00000E+00
 -1       106 2.13072E-01-3.19186E-02 0.00000E+00
 -1       107 2.31522E-01-3.54362E-02 0.00000E+00
 -1       108 2.31522E-01-3.54362E-02 0.00000E+00
 -1       109 2.13072E-01-3.19186E-02 0.00000E+00
 -1       110 1.94712E-01-2.84380E-02 0.00000E+00
 -1       111 1.76551E-01-2.50338E-02 0.00000E+00
 -1       112 1.58743E-01-2.17618E-02 0.00000E+00
 -1       113 1.41468E-01-1.86855E-02 0.00000E+00
 -1       114 1.24873E-01-1.58481E-02 0.00000E+00
 -1       115 1.09039E-01-1.32645E-02 0.00000E+00
 -1       116 9.40117E-02-1.09351E-02 0.00000E+00
 -1       117 7.98231E-02-8.85512E-03 0.00000E+00
 -1       118 6.64900E-02-7.01126E-03 0.00000E+00
 -1       119 5.40185E-02-5.38641E-03 0.00000E+00
 -1       120 4.24551E-02-3.97443E-03 0.00000E+00
 -1       121 3.19402E-02-2.78720E-03 0.00000E+00
 -1       122 2.26926E-02-1.84233E-03 0.00000E+00
 -1       123 1.49140E-02-1.13996E-03 0.00000E+00
 -1       124 8.69503E-03-6.50963E-04 0.00000E+00
 -1       125 4.05156E-03-3.29928E-04 0.00000E+00
 -1       126 9.81597E-04-1.25373E-04 0.00000E+00
 -3
    1PSTEP                       266          67           1          
  100CL  167 6.70000E-01         126                     1   67           1
 -4  STRESS      6    1
 -5  SXX         1    4    1    1
 -5  SYY         1    4    2    2
 -5  SZZ         1    4    3    3
 -5  SXY         1    4    1    2
 -5  SYZ         1    4    2    3
 -5  SZX         1    4    3    1
 -1         1 8.28328E+03 1.98520E+04 8.06101E+03 5.06785E+03-3.44581E-11 3.56092E-11
 -1         2 8.28328E+03 1.98520E+04 8.06101E+03 5.06785E+03-3.44581E-11 3.56092E-11
 -1         3 1.15630E+02 2.26938E+02 1.02669E+02 1.26175E+02 1.88017E-08 2.63889E-08
 -1         4 1.15630E+02 2.26938E+02 1.02669E+02 1.26175E+02 1.87997E-08 2.63889E-08
 -1         5-7.78979E+01-2.29476E+02-9.22508E+01-2.43503E-01-2.27327E-10-2.16940E-08
 -1         6-7.78979E+01-2.29476E+02-9.22508E+01-2.43503E-01-2.26403E-10-2.16940E-08
 -1         7-9.36074E+03-2.08045E+04-9.55647E+03 3.93187E+03-4.89603E-11-2.79493E-11
 -1         8-9.36074E+03-2.08045E+04-9.55647E+03 3.93187E+03-4.89603E-11-2.79532E-11
 -1         9 4.28183E+01-2.22895E+00 1.21644E+01 8.27699E+01 1.26604E-08 6.52794E-09
 -1        10 4.28183E+01-2.22895E+00 1.21644E+01 8.27699E+01 1.26639E-08 6.52794E-09
 -1        11-4.73089E+02-1.54008E+03-5.34550E+02 2.99353E+03-6.25132E-11-1.25404E-11
 -1        12-4.73089E+02-1.54008E+03-5.34550E+02 2.99353E+03-6.25133E-11-1.25330E-11
 -1        13 3.16475E+03 1.72162E+04 5.85817E+03 1.51805E+03 1.06948E-08-6.31223E-09
 -1        14 3.98985E+03 1.63885E+04 5.87541E+03 1.20724E+03 2.75208E-08 1.88400E-08
 -1        15 3.63729E+03 1.50721E+04 5.40810E+03 1.49133E+03 2.10008E-08 7.17658E-08
 -1        16 3.57088E+03 1.42348E+04 5.15388E+03 1.75639E+03 3.94863E-09 7.43372E-08
 -1        17 3.45247E+03 1.30913E+04 4.79890E+03 2.03404E+03-1.08808E-08 7.78804E-08
 -1        18 3.21573E+03 1.15757E+04 4.30541E+03 2.13990E+03-1.66180E-08 5.35325E-08
 -1        19 2.95916E+03 1.00796E+04 3.80975E+03 2.04952E+03-6.95544E-09 2.44795E-08
 -1        20 2.69089E+03 8.96599E+03 3.41564E+03 1.90369E+03 1.07560E-08 2.20414E-08
 -1        21 2.52065E+03 8.34629E+03 3.18832E+03 1.82396E+03 1.59385E-08 6.41213E-08
 -1        22 2.42780E+03 8.01106E+03 3.06399E+03 1.83882E+03-6.65781E-09 1.08610E-07
 -1        23 2.44427E+03 7.74634E+03 2.99223E+03 1.88775E+03-4.92083E-08 1.32895E-07
 -1        24 2.42399E+03 7.35745E+03 2.87403E+03 1.93294E+03-7.70985E-08 8.98981E-08
 -1        25 2.34296E+03 6.75954E+03 2.67751E+03 1.93231E+03-7.36779E-08 2.86775E-08
 -1        26 2.14417E+03 5.84384E+03 2.35424E+03 1.84424E+03-4.21125E-08-4.75190E-08
 -1        27 1.86219E+03 4.63946E+03 1.92198E+03 1.61360E+03-1.71612E-09-7.76443E-08
 -1        28 1.43577E+03 3.29329E+03 1.40313E+03 1.26955E+03 2.64208E-08-8.09906E-08
 -1        29 9.64527E+02 2.07384E+03 9.04660E+02 8.85533E+02 3.15524E-08-5.03441E-08
 -1        30 5.35133E+02 1.10891E+03 4.90900E+02 5.40831E+02 3.02839E-08-2.45468E-08
 -1        31 2.31410E+02 4.61816E+02 2.07456E+02 2.55549E+02 2.41659E-08-1.51327E-09
 -1        32 3.16475E+03 1.72162E+04 5.85817E+03 1.51805E+03 1.06948E-08-6.31223E-09
 -1        33 3.98985E+03 1.63885E+04 5.87541E+03 1.20724E+03 2.75207E-08 1.88400E-08
 -1        34 3.63729E+03 1.50721E+04 5.40810E+03 1.49133E+03 2.10008E-08 7.17658E-08
 -1        35 3.57088E+03 1.42348E+04 5.15388E+03 1.75639E+03 3.94860E-09 7.43372E-08
 -1        36 3.45247E+03 1.30913E+04 4.79890E+03 2.03404E+03-1.08808E-08 7.78797E-08
 -1        37 3.21573E+03 1.15757E+04 4.30541E+03 2.13990E+03-1.66185E-08 5.35303E-08
 -1        38 2.95916E+03 1.00796E+04 3.80975E+03 2.04952E+03-6.95532E-09 2.44857E-08
 -1        39 2.69089E+03 8.96599E+03 3.41564E+03 1.90369E+03 1.07560E-08 2.20412E-08
 -1        40 2.52065E+03 8.34629E+03 3.18832E+03 1.82396E+03 1.59385E-08 6.41217E-08
 -1        41 2.42780E+03 8.01106E+03 3.06399E+03 1.83882E+03-6.65781E-09 1.08610E-07
 -1        42 2.44427E+03 7.74634E+03 2.99223E+03 1.88775E+03-4.92084E-08 1.32897E-07
 -1        43 2.42399E+03 7.35745E+03 2.87403E+03 1.93294E+03-7.70985E-08 8.98976E-08
 -1        44 2.34296E+03 6.75954E+03 2.67751E+03 1.93231E+03-7.36784E-08 2.86726E-08
 -1        45 2.14417E+03 5.84384E+03 2.35424E+03 1.84424E+03-4.21123E-08-4.75146E-08
 -1        46 1.86219E+03 4.63946E+03 1.92198E+03 1.61360E+03-1.71670E-09-7.76433E-08
 -1        47 1.43577E+03 3.29329E+03 1.40313E+03 1.26955E+03 2.64208E-08-8.09943E-08
 -1        48 9.64527E+02 2.07384E+03 9.04660E+02 8.85533E+02 3.15517E-08-5.03414E-08
 -1        49 5.35133E+02 1.10891E+03 4.90900E+02 5.40831E+02 3.02846E-08-2.45465E-08
 -1        50 2.31410E+02 4.61816E+02 2.07456E+02 2.55549E+02 2.41657E-08-1.51697E-09
 -1        51-1.46845E+02-5.35927E+02-2.05157E+02-2.73283E+01-6.18874E-09-2.11148E-08
 -1        52-3.47003E+02-1.27759E+03-4.89173E+02-1.59651E+02-1.01995E-09-4.44720E-08
 -1        53-6.75350E+02-2.31974E+03-9.04467E+02-3.88677E+02 1.03995E-08-6.74803E-08
 -1        54-1.09995E+03-3.59817E+03-1.42405E+03-6.96451E+02 3.03156E-08-8.53928E-08
 -1        55-1.57937E+03-4.94078E+03-1.98421E+03-1.04919E+03 5.27868E-08-5.96611E-08
 -1        56-2.02332E+03-6.10357E+03-2.48160E+03-1.36749E+03 5.76215E-08-5.84207E-09
 -1        57-2.32872E+03-6.95196E+03-2.84084E+03-1.58439E+03 3.79981E-08 5.91880E-08
 -1        58-2.50442E+03-7.54579E+03-3.08153E+03-1.69040E+03-3.29622E-09 1.20607E-07
 -1        59-2.59577E+03-7.98887E+03-3.24937E+03-1.72066E+03-4.47353E-08 1.32374E-07
 -1        60-2.64693E+03-8.37427E+03-3.38674E+03-1.69968E+03-6.30974E-08 1.00309E-07
 -1        61-2.68141E+03-8.85059E+03-3.54792E+03-1.64219E+03-5.11641E-08 5.36543E-08
 -1        62-2.79050E+03-9.67101E+03-3.84248E+03-1.57539E+03-2.57757E-08 2.33510E-08
 -1        63-3.02847E+03-1.09745E+04-4.33455E+03-1.54271E+03-3.57308E-09 3.50743E-08
 -1        64-3.37811E+03-1.25922E+04-4.96803E+03-1.54862E+03 1.39450E-09 6.79577E-08
 -1        65-3.70436E+03-1.40901E+04-5.56052E+03-1.53355E+03-4.81260E-09 7.95911E-08
 -1        66-3.94091E+03-1.51852E+04-5.99443E+03-1.40720E+03-1.14568E-08 8.12354E-08
 -1        67-4.04270E+03-1.59915E+04-6.29094E+03-1.09354E+03-2.55094E-08 6.44519E-08
 -1        68-4.52883E+03-1.72693E+04-6.86597E+03-7.26249E+02-2.45315E-08 7.51162E-09
 -1        69-3.51586E+03-1.79588E+04-6.79076E+03 3.47699E+02-9.21410E-09-9.37339E-09
 -1        70-1.46845E+02-5.35927E+02-2.05157E+02-2.73283E+01-6.19390E-09-2.11148E-08
 -1        71-3.47003E+02-1.27759E+03-4.89173E+02-1.59651E+02-1.01903E-09-4.44719E-08
 -1        72-6.75350E+02-2.31974E+03-9.04467E+02-3.88677E+02 1.03993E-08-6.74815E-08
 -1        73-1.09995E+03-3.59817E+03-1.42405E+03-6.96451E+02 3.03192E-08-8.53776E-08
 -1        74-1.57937E+03-4.94078E+03-1.98421E+03-1.04919E+03 5.27849E-08-5.96652E-08
 -1        75-2.02332E+03-6.10357E+03-2.48160E+03-1.36749E+03 5.76215E-08-5.84232E-09
 -1        76-2.32872E+03-6.95196E+03-2.84084E+03-1.58439E+03 3.79980E-08 5.91889E-08
 -1        77-2.50442E+03-7.54579E+03-3.08153E+03-1.69040E+03-3.29790E-09 1.20607E-07
 -1        78-2.59577E+03-7.98887E+03-3.24937E+03-1.72066E+03-4.47350E-08 1.32374E-07
 -1        79-2.64693E+03-8.37427E+03-3.38674E+03-1.69968E+03-6.30973E-08 1.00309E-07
 -1        80-2.68141E+03-8.85059E+03-3.54792E+03-1.64219E+03-5.11642E-08 5.36538E-08
 -1        81-2.79050E+03-9.67101E+03-3.84248E+03-1.57539E+03-2.57757E-08 2.33513E-08
 -1        82-3.02847E+03-1.09745E+04-4.33455E+03-1.54271E+03-3.57307E-09 3.50744E-08
 -1        83-3.37811E+03-1.25922E+04-4.96803E+03-1.54862E+03 1.39345E-09 6.79574E-08
 -1        84-3.70436E+03-1.40901E+04-5.56052E+03-1.53355E+03-4.81215E-09 7.95912E-08
 -1        85-3.94091E+03-1.51852E+04-5.99443E+03-1.40720E+03-1.14569E-08 8.12361E-08
 -1        86-4.04270E+03-1.59915E+04-6.29094E+03-1.09354E+03-2.55090E-08 6.44517E-08
 -1        87-4.52883E+03-1.72693E+04-6.86597E+03-7.26249E+02-2.45315E-08 7.51163E-09
 -1        88-3.51586E+03-1.79588E+04-6.79076E+03 3.47699E+02-9.21410E-09-9.37338E-09
 -1        89-5.49812E+01-1.41846E+03-4.16376E+02 3.45114E+02-2.13433E-09-9.96002E-09
 -1        90-1.31790E+02-1.37511E+03-4.10040E+02 3.75705E+02-8.52791E-10 1.17646E-08
 -1        91-1.06404E+02-1.25987E+03-3.78132E+02 1.38012E+02-2.00478E-09 6.80523E-08
 -1        92-9.13067E+01-1.19614E+03-3.59224E+02 1.20683E+02-3.27115E-09 8.13135E-08
 -1        93-3.41614E+01-1.12489E+03-3.25274E+02 2.11553E+02-3.75016E-09 7.93021E-08
 -1        94 5.26206E+00-1.02506E+03-2.87121E+02 2.85344E+02-3.46477E-09 6.20048E-08
 -1        95 3.28445E+01-8.59913E+02-2.32300E+02 2.47962E+02-2.06087E-09 2.51692E-08
 -1        96-6.47333E+00-6.77536E+02-1.92003E+02 1.38444E+02-5.64379E-09 2.02215E-08
 -1        97-5.20472E+01-5.11970E+02-1.58015E+02 4.34455E+01-1.94554E-08 5.44363E-08
 -1        98-8.50310E+01-4.06044E+02-1.37553E+02 1.49313E+01-3.93603E-08 1.09920E-07
 -1        99-5.30271E+01-3.34354E+02-1.07293E+02 3.21369E+01-5.03542E-08 1.39142E-07
 -1       100-1.68395E+01-2.96275E+02-8.59771E+01 7.82995E+01-4.16305E-08 1.14563E-07
 -1       101 4.16553E+01-2.76513E+02-6.39853E+01 1.51078E+02-1.67648E-08 4.54208E-08
 -1       102 1.13196E+02-2.88683E+02-4.80761E+01 2.47837E+02 1.09482E-08-3.06566E-08
 -1       103 2.06047E+02-2.90387E+02-2.24434E+01 3.22281E+02 2.52859E-08-7.84198E-08
 -1       104 2.32846E+02-2.61856E+02-7.21245E+00 3.41279E+02 2.78997E-08-8.53646E-08
 -1       105 2.02965E+02-1.95110E+02 2.91138E+00 3.03017E+02 1.96085E-08-6.26570E-08
 -1       106 1.42285E+02-1.28483E+02 4.23703E+00 2.37263E+02 1.34596E-08-3.78680E-08
 -1       107 7.58966E+01-5.47085E+01 6.35986E+00 1.45215E+02 8.14092E-09-8.65094E-09
 -1       108 7.58966E+01-5.47085E+01 6.35986E+00 1.45215E+02 8.14092E-09-8.65044E-09
 -1       109 1.42285E+02-1.28483E+02 4.23703E+00 2.37263E+02 1.34590E-08-3.78702E-08
 -1       110 2.02965E+02-1.95110E+02 2.91138E+00 3.03017E+02 1.96082E-08-6.26474E-08
 -1       111 2.32846E+02-2.61856E+02-7.21245E+00 3.41279E+02 2.78991E-08-8.53623E-08
 -1       112 2.06047E+02-2.90387E+02-2.24434E+01 3.22281E+02 2.52876E-08-7.84202E-08
 -1       113 1.13196E+02-2.88683E+02-4.80761E+01 2.47837E+02 1.09481E-08-3.06567E-08
 -1       114 4.16553E+01-2.76513E+02-6.39853E+01 1.51078E+02-1.67644E-08 4.54206E-08
 -1       115-1.68395E+01-2.96275E+02-8.59771E+01 7.82995E+01-4.16303E-08 1.14564E-07
 -1       116-5.30271E+01-3.34354E+02-1.07293E+02 3.21369E+01-5.03540E-08 1.39138E-07
 -1       117-8.50310E+01-4.06044E+02-1.37553E+02 1.49313E+01-3.93604E-08 1.09920E-07
 -1       118-5.20472E+01-5.11970E+02-1.58015E+02 4.34455E+01-1.94551E-08 5.44363E-08
 -1       119-6.47333E+00-6.77536E+02-1.92003E+02 1.38444E+02-5.64385E-09 2.02217E-08
 -1       120 3.28445E+01-8.59913E+02-2.32300E+02 2.47962E+02-2.06090E-09 2.51635E-08
 -1       121 5.26206E+00-1.02506E+03-2.87121E+02 2.85344E+02-3.46418E-09 6.20074E-08
 -1       122-3.41614E+01-1.12489E+03-3.25274E+02 2.11553E+02-3.75025E-09 7.93032E-08
 -1       123-9.13067E+01-1.19614E+03-3.59224E+02 1.20683E+02-3.27108E-09 8.13136E-08
 -1       124-1.06404E+02-1.25987E+03-3.78132E+02 1.38012E+02-2.00490E-09 6.80523E-08
 -1       125-1.31790E+02-1.37511E+03-4.10040E+02 3.75705E+02-8.52736E-10 1.17646E-08
 -1       126-5.49812E+01-1.41846E+03-4.16376E+02 3.45114E+02-2.13433E-09-9.96005E-09
 -3
    1PSTEP                       267          67           1          
  100CL  167 6.70000E-01         126                     1   67           1
 -4  TOSTRAIN    6    1
 -5  EXX         1    4    1    1
 -5  EYY         1    4    2    2
 -5  EZZ         1    4    3    3
 -5  EXY         1    4    1    2
 -5  EYZ         1    4    2    3
 -5  EZX         1    4    3    1
 -1         1-1.26100E-04 3.60366E-02-4.11814E-28 1.48212E-02-1.40776E-19 1.70609E-16
 -1         2-1.26100E-04 3.60366E-02-4.11814E-28 1.48212E-02-1.40776E-19 1.70609E-16
 -1         3-1.89821E-04 6.34875E-04 1.79098E-26 1.74413E-04 8.83296E-14 5.71871E-14
 -1         4-1.89821E-04 6.34875E-04 1.79087E-26 1.74413E-04 8.83236E-14 5.71894E-14
 -1         5-1.98442E-05-3.79799E-04 6.57453E-27 1.68469E-04-2.66781E-14-6.52704E-14
 -1         6-1.98442E-05-3.79799E-04 6.57445E-27 1.68469E-04-2.66753E-14-6.52715E-14
 -1         7-1.31197E-04-3.98526E-02-6.16778E-28 1.45989E-02 1.40643E-19-1.61018E-16
 -1         8-1.31197E-04-3.98526E-02-6.16777E-28 1.45989E-02 1.40370E-19-1.61031E-16
 -1         9-1.04833E-04 1.57508E-04 1.09749E-27 2.45993E-04 4.60645E-14 4.54023E-15
 -1        10-1.04833E-04 1.57508E-04 1.09958E-27 2.45993E-04 4.60752E-14 4.53597E-15
 -1        11-1.28649E-04-2.44016E-03-2.96811E-28 9.81582E-03 8.39075E-20-4.19248E-17
 -1        12-1.28649E-04-2.44016E-03-2.96813E-28 9.81582E-03 8.44157E-20-4.19012E-17
 -1        13-9.37037E-03 3.51554E-02 7.95870E-28 2.95849E-03 3.26384E-14-2.17964E-14
 -1        14-6.80152E-03 3.27085E-02 1.20896E-26 8.29299E-04 8.98695E-14 5.39287E-14
 -1        15-6.63754E-03 3.04455E-02 1.09013E-25 7.20940E-04 8.92850E-14 2.23040E-13
 -1        16-6.31781E-03 2.89903E-02 1.15661E-25 6.85855E-04 4.45069E-14 2.35918E-13
 -1        17-5.92456E-03 2.70147E-02 1.29283E-25 9.84510E-04 7.39109E-15 2.54023E-13
 -1        18-5.35347E-03 2.42492E-02 6.29141E-26 1.16580E-03-1.83731E-14 1.80293E-13
 -1        19-4.63142E-03 2.13293E-02 1.15470E-26 1.04054E-03-4.40872E-15 8.22281E-14
 -1        20-4.16060E-03 1.91139E-02 7.93753E-27 7.17215E-04 4.98540E-14 6.08991E-14
 -1        21-3.95243E-03 1.79013E-02 7.88195E-26 4.15676E-04 1.01318E-13 1.87325E-13
 -1        22-3.94081E-03 1.73408E-02 2.38059E-25 2.66745E-04 7.44794E-14 3.44168E-13
 -1        23-3.82179E-03 1.69061E-02 4.17420E-25 2.72255E-04-2.64227E-14 4.58343E-13
 -1        24-3.70074E-03 1.62644E-02 2.77802E-25 3.80426E-04-1.45382E-13 3.54128E-13
 -1        25-3.49972E-03 1.51979E-02 9.76589E-26 5.61457E-04-1.92665E-13 1.65337E-13
 -1        26-3.17748E-03 1.34538E-02 5.50319E-26 7.97638E-04-1.77758E-13-9.88249E-14
 -1        27-2.56245E-03 1.09423E-02 1.18821E-25 1.00039E-03-9.17976E-14-2.33972E-13
 -1        28-1.89664E-03 8.00531E-03 1.50660E-25 1.04112E-03-1.36471E-14-2.76145E-13
 -1        29-1.28585E-03 5.21853E-03 7.09067E-26 8.89162E-04 3.59017E-14-1.89592E-13
 -1        30-8.07394E-04 2.93870E-03 2.83437E-26 6.45173E-04 6.21090E-14-1.10334E-13
 -1        31-3.89704E-04 1.28963E-03 8.92700E-27 3.47862E-04 7.10948E-14-3.35208E-14
 -1        32-9.37037E-03 3.51554E-02 7.95870E-28 2.95849E-03 3.26384E-14-2.17964E-14
 -1        33-6.80152E-03 3.27085E-02 1.20896E-26 8.29299E-04 8.98695E-14 5.39287E-14
 -1        34-6.63754E-03 3.04455E-02 1.09013E-25 7.20940E-04 8.92851E-14 2.23040E-13
 -1        35-6.31781E-03 2.89903E-02 1.15661E-25 6.85855E-04 4.45068E-14 2.35918E-13
 -1        36-5.92456E-03 2.70147E-02 1.29281E-25 9.84510E-04 7.39072E-15 2.54021E-13
 -1        37-5.35347E-03 2.42492E-02 6.29103E-26 1.16580E-03-1.83760E-14 1.80286E-13
 -1        38-4.63142E-03 2.13293E-02 1.15548E-26 1.04054E-03-4.40411E-15 8.22476E-14
 -1        39-4.16060E-03 1.91139E-02 7.93727E-27 7.17215E-04 4.98539E-14 6.08983E-14
 -1        40-3.95243E-03 1.79013E-02 7.88208E-26 4.15676E-04 1.01318E-13 1.87327E-13
 -1        41-3.94081E-03 1.73408E-02 2.38059E-25 2.66745E-04 7.44793E-14 3.44168E-13
 -1        42-3.82179E-03 1.69061E-02 4.17432E-25 2.72255E-04-2.64205E-14 4.58350E-13
 -1        43-3.70074E-03 1.62644E-02 2.77798E-25 3.80426E-04-1.45382E-13 3.54127E-13
 -1        44-3.49972E-03 1.51979E-02 9.76565E-26 5.61457E-04-1.92671E-13 1.65322E-13
 -1        45-3.17748E-03 1.34538E-02 5.50283E-26 7.97638E-04-1.77753E-13-9.88116E-14
 -1        46-2.56245E-03 1.09423E-02 1.18817E-25 1.00039E-03-9.17983E-14-2.33969E-13
 -1        47-1.89664E-03 8.00531E-03 1.50673E-25 1.04112E-03-1.36513E-14-2.76156E-13
 -1        48-1.28585E-03 5.21853E-03 7.09028E-26 8.89162E-04 3.59031E-14-1.89583E-13
 -1        49-8.07394E-04 2.93870E-03 2.83500E-26 6.45173E-04 6.21114E-14-1.10334E-13
 -1        50-3.89704E-04 1.28963E-03 8.93014E-27 3.47862E-04 7.10898E-14-3.35317E-14
 -1        51 7.84859E-05-9.66655E-04 7.97269E-27 3.69256E-04-4.40160E-14-5.63894E-14
 -1        52 4.07146E-04-2.52290E-03 3.87648E-26 6.55922E-04-5.62493E-14-1.33282E-13
 -1        53 8.87392E-04-4.79419E-03 9.56917E-26 8.87493E-04-4.84589E-14-2.16768E-13
 -1        54 1.50984E-03-7.65083E-03 1.70244E-25 1.04011E-03-7.15385E-15-2.94837E-13
 -1        55 2.18192E-03-1.07238E-02 1.24114E-25 1.00835E-03 9.46350E-14-2.42195E-13
 -1        56 2.75172E-03-1.34186E-02 5.09516E-26 7.91817E-04 1.73093E-13-8.14280E-14
 -1        57 3.18152E-03-1.53786E-02 7.90779E-26 5.36838E-04 1.82872E-13 1.42367E-13
 -1        58 3.47100E-03-1.66908E-02 2.90097E-25 3.59044E-04 1.13030E-13 3.77248E-13
 -1        59 3.67804E-03-1.76097E-02 4.05832E-25 2.58753E-04-1.40288E-14 4.55286E-13
 -1        60 3.83945E-03-1.83527E-02 2.89409E-25 2.37650E-04-1.10486E-13 3.70983E-13
 -1        61 4.06273E-03-1.92576E-02 1.07944E-25 3.70992E-04-1.19047E-13 2.11993E-13
 -1        62 4.42794E-03-2.08666E-02 2.10033E-26 6.83440E-04-6.49947E-14 9.40632E-14
 -1        63 5.03033E-03-2.35415E-02 2.29258E-26 1.02459E-03 1.42771E-14 1.14112E-13
 -1        64 5.78467E-03-2.69548E-02 9.52828E-26 1.14589E-03 4.95906E-14 2.16459E-13
 -1        65 6.51229E-03-3.01603E-02 1.33404E-25 9.57207E-04 2.94733E-14 2.58651E-13
 -1        66 6.98405E-03-3.24399E-02 1.40080E-25 6.68566E-04-2.28437E-16 2.67815E-13
 -1        67 7.37390E-03-3.40624E-02 9.34391E-26 7.29023E-04-6.31008E-14 2.18255E-13
 -1        68 7.43887E-03-3.65031E-02 7.25578E-27 8.09463E-04-8.20532E-14 3.05901E-14
 -1        69 1.02304E-02-3.90217E-02 2.51829E-27 3.18755E-03-3.27677E-14-2.92399E-14
 -1        70 7.84859E-05-9.66655E-04 7.97313E-27 3.69256E-04-4.40316E-14-5.63832E-14
 -1        71 4.07146E-04-2.52290E-03 3.87647E-26 6.55922E-04-5.62464E-14-1.33283E-13
 -1        72 8.87392E-04-4.79419E-03 9.56945E-26 8.87493E-04-4.84611E-14-2.16771E-13
 -1        73 1.50984E-03-7.65083E-03 1.70198E-25 1.04011E-03-7.12506E-15-2.94795E-13
 -1        74 2.18192E-03-1.07238E-02 1.24125E-25 1.00835E-03 9.46243E-14-2.42205E-13
 -1        75 2.75172E-03-1.34186E-02 5.09513E-26 7.91817E-04 1.73093E-13-8.14288E-14
 -1        76 3.18152E-03-1.53786E-02 7.90792E-26 5.36838E-04 1.82872E-13 1.42370E-13
 -1        77 3.47100E-03-1.66908E-02 2.90098E-25 3.59044E-04 1.13025E-13 3.77250E-13
 -1        78 3.67804E-03-1.76097E-02 4.05831E-25 2.58753E-04-1.40278E-14 4.55286E-13
 -1        79 3.83945E-03-1.83527E-02 2.89409E-25 2.37650E-04-1.10486E-13 3.70982E-13
 -1        80 4.06273E-03-1.92576E-02 1.07943E-25 3.70992E-04-1.19048E-13 2.11992E-13
 -1        81 4.42794E-03-2.08666E-02 2.10039E-26 6.83440E-04-6.49943E-14 9.40643E-14
 -1        82 5.03033E-03-2.35415E-02 2.29262E-26 1.02459E-03 1.42772E-14 1.14113E-13
 -1        83 5.78467E-03-2.69548E-02 9.52825E-26 1.14589E-03 4.95870E-14 2.16459E-13
 -1        84 6.51229E-03-3.01603E-02 1.33404E-25 9.57207E-04 2.94748E-14 2.58651E-13
 -1        85 6.98405E-03-3.24399E-02 1.40082E-25 6.68566E-04-2.28508E-16 2.67818E-13
 -1        86 7.37390E-03-3.40624E-02 9.34379E-26 7.29023E-04-6.30995E-14 2.18254E-13
 -1        87 7.43887E-03-3.65031E-02 7.25582E-27 8.09463E-04-8.20532E-14 3.05901E-14
 -1        88 1.02304E-02-3.90217E-02 2.51829E-27 3.18755E-03-3.27677E-14-2.92399E-14
 -1        89 4.30013E-04-2.37422E-03 8.82198E-28 1.29175E-03-7.99312E-15-3.20603E-14
 -1        90 3.18674E-04-2.24348E-03-5.91059E-27 1.51719E-03 1.09092E-16 3.83730E-14
 -1        91 3.68179E-04-2.12939E-03 9.01082E-26 8.42322E-04 1.72775E-14 2.20627E-13
 -1        92 3.33122E-04-2.00124E-03 1.39297E-25 8.73976E-04 2.62230E-14 2.63163E-13
 -1        93 2.93865E-04-1.79987E-03 1.32433E-25 1.24114E-03 3.14545E-14 2.56083E-13
 -1        94 2.15600E-04-1.53742E-03 7.79682E-26 1.50240E-03 2.84513E-14 1.99774E-13
 -1        95 1.99457E-04-1.26633E-03 1.09580E-26 1.35104E-03 1.15579E-14 8.12434E-14
 -1        96 1.33669E-04-1.01349E-03 5.82344E-27 9.06120E-04-1.99545E-15 6.81861E-14
 -1        97 5.51528E-05-7.81036E-04 5.80655E-26 4.94449E-04-1.55629E-14 1.87264E-13
 -1        98-5.06795E-05-5.83071E-04 2.77590E-25 3.16618E-04-2.48826E-14 3.78737E-13
 -1        99-7.18757E-05-4.28492E-04 4.60517E-25 3.41482E-04-2.47263E-14 4.80414E-13
 -1       100-1.14871E-04-2.90024E-04 2.98081E-25 4.72047E-04-1.42249E-14 3.95993E-13
 -1       101-1.59096E-04-1.46010E-04 1.68604E-26 7.04491E-04-3.96447E-15 1.57365E-13
 -1       102-2.12880E-04-1.69611E-05-3.66132E-27 1.03676E-03-1.53542E-16-1.05832E-13
 -1       103-1.90267E-04 7.86623E-05 1.36183E-25 1.31964E-03-1.18115E-14-2.67549E-13
 -1       104-1.93400E-04 1.54381E-04 1.69556E-25 1.36201E-03-1.43983E-14-2.91534E-13
 -1       105-1.99228E-04 2.08520E-04 8.82553E-26 1.16233E-03-1.45410E-14-2.12880E-13
 -1       106-2.00124E-04 2.17420E-04 3.02074E-26 8.63678E-04-4.39203E-15-1.30555E-13
 -1       107-1.55609E-04 1.82934E-04-9.59867E-29 4.89134E-04 1.42510E-14-3.58974E-14
 -1       108-1.55609E-04 1.82934E-04-9.68425E-29 4.89134E-04 1.42516E-14-3.58959E-14
 -1       109-2.00124E-04 2.17420E-04 3.02115E-26 8.63678E-04-4.39651E-15-1.30561E-13
 -1       110-1.99228E-04 2.08520E-04 8.82304E-26 1.16233E-03-1.45307E-14-2.12851E-13
 -1       111-1.93400E-04 1.54381E-04 1.69547E-25 1.36201E-03-1.43975E-14-2.91527E-13
 -1       112-1.90267E-04 7.86623E-05 1.36187E-25 1.31964E-03-1.18070E-14-2.67553E-13
 -1       113-2.12880E-04-1.69611E-05-3.66020E-27 1.03676E-03-1.53997E-16-1.05832E-13
 -1       114-1.59096E-04-1.46010E-04 1.68618E-26 7.04491E-04-3.96356E-15 1.57364E-13
 -1       115-1.14871E-04-2.90024E-04 2.98089E-25 4.72047E-04-1.42236E-14 3.95995E-13
 -1       116-7.18757E-05-4.28492E-04 4.60492E-25 3.41482E-04-2.47298E-14 4.80400E-13
 -1       117-5.06795E-05-5.83071E-04 2.77591E-25 3.16618E-04-2.48828E-14 3.78738E-13
 -1       118 5.51528E-05-7.81036E-04 5.80643E-26 4.94449E-04-1.55617E-14 1.87264E-13
 -1       119 1.33669E-04-1.01349E-03 5.82347E-27 9.06120E-04-1.99554E-15 6.81868E-14
 -1       120 1.99457E-04-1.26633E-03 1.09504E-26 1.35104E-03 1.15538E-14 8.12252E-14
 -1       121 2.15600E-04-1.53742E-03 7.79733E-26 1.50240E-03 2.84549E-14 1.99782E-13
 -1       122 2.93865E-04-1.79987E-03 1.32436E-25 1.24114E-03 3.14548E-14 2.56087E-13
 -1       123 3.33122E-04-2.00124E-03 1.39298E-25 8.73976E-04 2.62232E-14 2.63164E-13
 -1       124 3.68179E-04-2.12939E-03 9.01084E-26 8.42322E-04 1.72771E-14 2.20627E-13
 -1       125 3.18674E-04-2.24348E-03-5.91065E-27 1.51719E-03 1.09262E-16 3.83729E-14
 -1       126 4.30013E-04-2.37422E-03 8.82206E-28 1.29175E-03-7.99313E-15-3.20604E-14
 -3
    1PSTEP                       268          67           1          
  100CL  167 6.70000E-01         126                     1   67           1
 -4  ERROR       1    1
 -5  STR(%)      1    1    0    0
 -1         1 6.76010E+01
 -1         2 6.76010E+01
 -1         3 3.35613E+01
 -1         4 3.35613E+01
 -1         5 5.08630E+01
 -1         6 5.08630E+01
 -1         7 5.71089E+01
 -1         8 5.71089E+01
 -1         9 5.08630E+01
 -1        10 5.08630E+01
 -1        11 6.76010E+01
 -1        12 6.76010E+01
 -1        13 6.76754E+01
 -1        14 6.76754E+01
 -1        15 6.69796E+01
 -1        16 6.69388E+01
 -1        17 6.75202E+01
 -1        18 6.75202E+01
 -1        19 6.74765E+01
 -1        20 6.68636E+01
 -1        21 6.54991E+01
 -1        22 6.42000E+01
 -1        23 6.32548E+01
 -1        24 6.29353E+01
 -1        25 6.28301E+01
 -1        26 6.28301E+01
 -1        27 6.26254E+01
 -1        28 6.16624E+01
 -1        29 5.91928E+01
 -1        30 5.51577E+01
 -1        31 4.60548E+01
 -1        32 6.76754E+01
 -1        33 6.76754E+01
 -1        34 6.69796E+01
 -1        35 6.69388E+01
 -1        36 6.75202E+01
 -1        37 6.75202E+01
 -1        38 6.74765E+01
 -1        39 6.68636E+01
 -1        40 6.54991E+01
 -1        41 6.42000E+01
 -1        42 6.32548E+01
 -1        43 6.29353E+01
 -1        44 6.28301E+01
 -1        45 6.28301E+01
 -1        46 6.26254E+01
 -1        47 6.16624E+01
 -1        48 5.91928E+01
 -1        49 5.51577E+01
 -1        50 4.60548E+01
 -1        51 5.29035E+01
 -1        52 5.99395E+01
 -1        53 6.17561E+01
 -1        54 6.22121E+01
 -1        55 6.22121E+01
 -1        56 6.17160E+01
 -1        57 6.03347E+01
 -1        58 5.90332E+01
 -1        59 5.81022E+01
 -1        60 5.73972E+01
 -1        61 5.68268E+01
 -1        62 5.66684E+01
 -1        63 5.66619E+01
 -1        64 5.64625E+01
 -1        65 5.59116E+01
 -1        66 5.51996E+01
 -1        67 5.50680E+01
 -1        68 5.55603E+01
 -1        69 5.71089E+01
 -1        70 5.29035E+01
 -1        71 5.99395E+01
 -1        72 6.17561E+01
 -1        73 6.22121E+01
 -1        74 6.22121E+01
 -1        75 6.17160E+01
 -1        76 6.03347E+01
 -1        77 5.90332E+01
 -1        78 5.81022E+01
 -1        79 5.73972E+01
 -1        80 5.68268E+01
 -1        81 5.66684E+01
 -1        82 5.66619E+01
 -1        83 5.64625E+01
 -1        84 5.59116E+01
 -1        85 5.51996E+01
 -1        86 5.50680E+01
 -1        87 5.55603E+01
 -1        88 5.71089E+01
 -1        89 6.76754E+01
 -1        90 6.76754E+01
 -1        91 6.69796E+01
 -1        92 6.69388E+01
 -1        93 6.75202E+01
 -1        94 6.75202E+01
 -1        95 6.74765E+01
 -1        96 6.68636E+01
 -1        97 6.54991E+01
 -1        98 6.42000E+01
 -1        99 6.32548E+01
 -1       100 6.29353E+01
 -1       101 6.28301E+01
 -1       102 6.28301E+01
 -1       103 6.26254E+01
 -1       104 6.22121E+01
 -1       105 6.17561E+01
 -1       106 5.99395E+01
 -1       107 5.29035E+01
 -1       108 5.29035E+01
 -1       109 5.99395E+01
 -1       110 6.17561E+01
 -1       111 6.22121E+01
 -1       112 6.26254E+01
 -1       113 6.28301E+01
 -1       114 6.28301E+01
 -1       115 6.29353E+01
 -1       116 6.32548E+01
 -1       117 6.42000E+01
 -1       118 6.54991E+01
 -1       119 6.68636E+01
 -1       120 6.74765E+01
 -1       121 6.75202E+01
 -1       122 6.75202E+01
 -1       123 6.69388E+01
 -1       124 6.69796E+01
 -1       125 6.76754E+01
 -1       126 6.76754E+01
 -3
    1PSTEP                       269          68           1          
  100CL  168 6.80000E-01         126                     1   68           1
 -4  DISP        4    1
 -5  D1          1    2    1    0
 -5  D2          1    2    2    0
 -5  D3          1    2    3    0
 -5  ALL         1    2    0    0    1ALL
 -1         1 0.00000E+00 0.00000E+00 0.00000E+00
 -1         2 0.00000E+00 0.00000E+00 0.00000E+00
 -1         3 2.59075E-01-2.20120E-02 0.00000E+00
 -1         4 2.59075E-01-2.20120E-02 0.00000E+00
 -1         5 2.51694E-01-5.96943E-02 0.00000E+00
 -1         6 2.51694E-01-5.96943E-02 0.00000E+00
 -1         7 0.00000E+00 0.00000E+00 0.00000E+00
 -1         8 0.00000E+00 0.00000E+00 0.00000E+00
 -1         9 2.55383E-01-4.08491E-02 0.00000E+00
 -1        10 2.55383E-01-4.08491E-02 0.00000E+00
 -1        11 0.00000E+00 0.00000E+00 0.00000E+00
 -1        12 0.00000E+00 0.00000E+00 0.00000E+00
 -1        13 1.61116E-03 1.84986E-03 0.00000E+00
 -1        14 4.83489E-03 3.48776E-03 0.00000E+00
 -1        15 9.80434E-03 4.77364E-03 0.00000E+00
 -1        16 1.63068E-02 5.77735E-03 0.00000E+00
 -1        17 2.42902E-02 6.49680E-03 0.00000E+00
 -1        18 3.36952E-02 6.90155E-03 0.00000E+00
 -1        19 4.44195E-02 6.95600E-03 0.00000E+00
 -1        20 5.63519E-02 6.63561E-03 0.00000E+00
 -1        21 6.93570E-02 5.94120E-03 0.00000E+00
 -1        22 8.33103E-02 4.89838E-03 0.00000E+00
 -1        23 9.81190E-02 3.54928E-03 0.00000E+00
 -1        24 1.13767E-01 1.91207E-03 0.00000E+00
 -1        25 1.30246E-01-3.28917E-05 0.00000E+00
 -1        26 1.47500E-01-2.32472E-03 0.00000E+00
 -1        27 1.65393E-01-4.97530E-03 0.00000E+00
 -1        28 1.83767E-01-7.96238E-03 0.00000E+00
 -1        29 2.02458E-01-1.12342E-02 0.00000E+00
 -1        30 2.21315E-01-1.47220E-02 0.00000E+00
 -1        31 2.40210E-01-1.83414E-02 0.00000E+00
 -1        32 1.61116E-03 1.84986E-03 0.00000E+00
 -1        33 4.83489E-03 3.48776E-03 0.00000E+00
 -1        34 9.80434E-03 4.77364E-03 0.00000E+00
 -1        35 1.63068E-02 5.77735E-03 0.00000E+00
 -1        36 2.42902E-02 6.49680E-03 0.00000E+00
 -1        37 3.36952E-02 6.90155E-03 0.00000E+00
 -1        38 4.44195E-02 6.95600E-03 0.00000E+00
 -1        39 5.63519E-02 6.63561E-03 0.00000E+00
 -1        40 6.93570E-02 5.94120E-03 0.00000E+00
 -1        41 8.33103E-02 4.89838E-03 0.00000E+00
 -1        42 9.81190E-02 3.54928E-03 0.00000E+00
 -1        43 1.13767E-01 1.91207E-03 0.00000E+00
 -1        44 1.30246E-01-3.28917E-05 0.00000E+00
 -1        45 1.47500E-01-2.32472E-03 0.00000E+00
 -1        46 1.65393E-01-4.97530E-03 0.00000E+00
 -1        47 1.83767E-01-7.96238E-03 0.00000E+00
 -1        48 2.02458E-01-1.12342E-02 0.00000E+00
 -1        49 2.21315E-01-1.47220E-02 0.00000E+00
 -1        50 2.40210E-01-1.83414E-02 0.00000E+00
 -1        51 2.32837E-01-5.59880E-02 0.00000E+00
 -1        52 2.13996E-01-5.22288E-02 0.00000E+00
 -1        53 1.95277E-01-4.84027E-02 0.00000E+00
 -1        54 1.76824E-01-4.45305E-02 0.00000E+00
 -1        55 1.58795E-01-4.06567E-02 0.00000E+00
 -1        56 1.41341E-01-3.68372E-02 0.00000E+00
 -1        57 1.24600E-01-3.31396E-02 0.00000E+00
 -1        58 1.08663E-01-2.96308E-02 0.00000E+00
 -1        59 9.35549E-02-2.63474E-02 0.00000E+00
 -1        60 7.92710E-02-2.32785E-02 0.00000E+00
 -1        61 6.58500E-02-2.03893E-02 0.00000E+00
 -1        62 5.33849E-02-1.76524E-02 0.00000E+00
 -1        63 4.19969E-02-1.50612E-02 0.00000E+00
 -1        64 3.18013E-02-1.26200E-02 0.00000E+00
 -1        65 2.29003E-02-1.03352E-02 0.00000E+00
 -1        66 1.53643E-02-8.20256E-03 0.00000E+00
 -1        67 9.24188E-03-6.18989E-03 0.00000E+00
 -1        68 4.57032E-03-4.22151E-03 0.00000E+00
 -1        69 1.57403E-03-2.14711E-03 0.00000E+00
 -1        70 2.32837E-01-5.59880E-02 0.00000E+00
 -1        71 2.13996E-01-5.22288E-02 0.00000E+00
 -1        72 1.95277E-01-4.84027E-02 0.00000E+00
 -1        73 1.76824E-01-4.45305E-02 0.00000E+00
 -1        74 1.58795E-01-4.06567E-02 0.00000E+00
 -1        75 1.41341E-01-3.68372E-02 0.00000E+00
 -1        76 1.24600E-01-3.31396E-02 0.00000E+00
 -1        77 1.08663E-01-2.96308E-02 0.00000E+00
 -1        78 9.35549E-02-2.63474E-02 0.00000E+00
 -1        79 7.92710E-02-2.32785E-02 0.00000E+00
 -1        80 6.58500E-02-2.03893E-02 0.00000E+00
 -1        81 5.33849E-02-1.76524E-02 0.00000E+00
 -1        82 4.19969E-02-1.50612E-02 0.00000E+00
 -1        83 3.18013E-02-1.26200E-02 0.00000E+00
 -1        84 2.29003E-02-1.03352E-02 0.00000E+00
 -1        85 1.53643E-02-8.20256E-03 0.00000E+00
 -1        86 9.24188E-03-6.18989E-03 0.00000E+00
 -1        87 4.57032E-03-4.22151E-03 0.00000E+00
 -1        88 1.57403E-03-2.14711E-03 0.00000E+00
 -1        89 1.08257E-03-1.24826E-04 0.00000E+00
 -1        90 4.34665E-03-3.35091E-04 0.00000E+00
 -1        91 9.18464E-03-6.68276E-04 0.00000E+00
 -1        92 1.55204E-02-1.16738E-03 0.00000E+00
 -1        93 2.32958E-02-1.86804E-03 0.00000E+00
 -1        94 3.24669E-02-2.80251E-03 0.00000E+00
 -1        95 4.29508E-02-3.99336E-03 0.00000E+00
 -1        96 5.46355E-02-5.44989E-03 0.00000E+00
 -1        97 6.73936E-02-7.16752E-03 0.00000E+00
 -1        98 8.10974E-02-9.13426E-03 0.00000E+00
 -1        99 9.56547E-02-1.13432E-02 0.00000E+00
 -1       100 1.11039E-01-1.38028E-02 0.00000E+00
 -1       101 1.27260E-01-1.65304E-02 0.00000E+00
 -1       102 1.44279E-01-1.95289E-02 0.00000E+00
 -1       103 1.61982E-01-2.27726E-02 0.00000E+00
 -1       104 1.80215E-01-2.62141E-02 0.00000E+00
 -1       105 1.98816E-01-2.97977E-02 0.00000E+00
 -1       106 2.17630E-01-3.34644E-02 0.00000E+00
 -1       107 2.36515E-01-3.71599E-02 0.00000E+00
 -1       108 2.36515E-01-3.71599E-02 0.00000E+00
 -1       109 2.17630E-01-3.34644E-02 0.00000E+00
 -1       110 1.98816E-01-2.97977E-02 0.00000E+00
 -1       111 1.80215E-01-2.62141E-02 0.00000E+00
 -1       112 1.61982E-01-2.27726E-02 0.00000E+00
 -1       113 1.44279E-01-1.95289E-02 0.00000E+00
 -1       114 1.27260E-01-1.65304E-02 0.00000E+00
 -1       115 1.11039E-01-1.38028E-02 0.00000E+00
 -1       116 9.56547E-02-1.13432E-02 0.00000E+00
 -1       117 8.10974E-02-9.13426E-03 0.00000E+00
 -1       118 6.73936E-02-7.16752E-03 0.00000E+00
 -1       119 5.46355E-02-5.44989E-03 0.00000E+00
 -1       120 4.29508E-02-3.99336E-03 0.00000E+00
 -1       121 3.24669E-02-2.80251E-03 0.00000E+00
 -1       122 2.32958E-02-1.86804E-03 0.00000E+00
 -1       123 1.55204E-02-1.16738E-03 0.00000E+00
 -1       124 9.18464E-03-6.68276E-04 0.00000E+00
 -1       125 4.34665E-03-3.35091E-04 0.00000E+00
 -1       126 1.08257E-03-1.24826E-04 0.00000E+00
 -3
    1PSTEP                       270          68           1          
  100CL  168 6.80000E-01         126                     1   68           1
 -4  STRESS      6    1
 -5  SXX         1    4    1    1
 -5  SYY         1    4    2    2
 -5  SZZ         1    4    3    3
 -5  SXY         1    4    1    2
 -5  SYZ         1    4    2    3
 -5  SZX         1    4    3    1
 -1         1 8.76673E+03 2.09943E+04 8.49944E+03 5.54251E+03 2.86805E-10 2.72670E-10
 -1         2 8.76673E+03 2.09943E+04 8.49944E+03 5.54251E+03 2.86805E-10 2.72670E-10
 -1         3 9.15079E+01 1.49302E+02 7.21845E+01 1.04320E+02-4.91521E-09-3.55054E-08
 -1         4 9.15079E+01 1.49302E+02 7.21845E+01 1.04320E+02-4.91533E-09-3.55054E-08
 -1         5-5.14486E+01-1.75570E+02-6.81301E+01 1.21941E+01 3.53053E-08-1.08857E-09
 -1         6-5.14486E+01-1.75570E+02-6.81301E+01 1.21941E+01 3.52985E-08-1.08117E-09
 -1         7-9.77882E+03-2.17212E+04-1.00102E+04 4.20848E+03 2.77589E-10-1.79529E-10
 -1         8-9.77882E+03-2.17212E+04-1.00102E+04 4.20848E+03 2.77589E-10-1.79533E-10
 -1         9 4.30248E+01-9.85752E+00 9.93365E+00 7.58086E+01 6.63049E-09-2.28513E-08
 -1        10 4.30248E+01-9.85752E+00 9.93365E+00 7.58086E+01 6.63153E-09-2.28523E-08
 -1        11-4.40841E+02-1.54274E+03-5.22348E+02 3.30083E+03 2.75170E-10 5.63591E-11
 -1        12-4.40841E+02-1.54274E+03-5.22348E+02 3.30083E+03 2.75170E-10 5.63665E-11
 -1        13 3.27153E+03 1.79418E+04 6.08437E+03 1.74860E+03 1.54486E-08 4.47763E-08
 -1        14 4.05149E+03 1.65515E+04 5.93639E+03 1.38156E+03 2.16661E-09 5.72775E-08
 -1        15 3.58888E+03 1.47105E+04 5.29426E+03 1.57326E+03-6.57053E-09 2.46272E-08
 -1        16 3.46309E+03 1.37027E+04 4.97673E+03 1.69548E+03-1.33290E-09-1.04505E-08
 -1        17 3.36409E+03 1.28635E+04 4.71204E+03 1.88662E+03 1.39630E-08-4.59940E-08
 -1        18 3.24463E+03 1.19546E+04 4.42145E+03 2.04692E+03 3.04112E-08-4.89093E-08
 -1        19 3.15243E+03 1.09441E+04 4.10991E+03 2.12259E+03 3.98425E-08-3.12389E-08
 -1        20 2.98483E+03 9.86179E+03 3.75490E+03 2.12103E+03 3.81859E-08-2.28601E-08
 -1        21 2.79305E+03 8.88048E+03 3.42010E+03 2.05213E+03 2.07545E-08 7.93142E-09
 -1        22 2.60122E+03 8.16217E+03 3.15891E+03 1.96866E+03 6.37151E-09 2.23517E-08
 -1        23 2.53756E+03 7.76787E+03 3.02682E+03 1.93426E+03 8.32825E-09 8.91086E-09
 -1        24 2.50320E+03 7.42517E+03 2.91701E+03 1.98056E+03 2.07950E-08 1.17811E-08
 -1        25 2.43933E+03 6.83542E+03 2.72748E+03 2.00750E+03 2.26583E-08 4.00573E-08
 -1        26 2.22931E+03 5.85778E+03 2.38335E+03 1.90726E+03 4.98222E-09 8.98249E-08
 -1        27 1.91569E+03 4.62895E+03 1.93484E+03 1.64796E+03-1.71919E-08 1.09263E-07
 -1        28 1.47832E+03 3.29225E+03 1.41536E+03 1.29876E+03-3.37848E-08 1.13327E-07
 -1        29 1.00283E+03 2.02572E+03 9.01667E+02 9.09391E+02-4.28057E-08 8.49418E-08
 -1        30 5.40496E+02 9.85456E+02 4.55696E+02 5.35848E+02-3.75339E-08 3.23780E-08
 -1        31 2.07205E+02 3.46211E+02 1.65651E+02 2.32697E+02-1.60684E-08-1.77086E-08
 -1        32 3.27153E+03 1.79418E+04 6.08437E+03 1.74860E+03 1.54486E-08 4.47763E-08
 -1        33 4.05149E+03 1.65515E+04 5.93639E+03 1.38156E+03 2.16661E-09 5.72774E-08
 -1        34 3.58888E+03 1.47105E+04 5.29426E+03 1.57326E+03-6.57055E-09 2.46277E-08
 -1        35 3.46309E+03 1.37027E+04 4.97673E+03 1.69548E+03-1.33292E-09-1.04507E-08
 -1        36 3.36409E+03 1.28635E+04 4.71204E+03 1.88662E+03 1.39631E-08-4.59936E-08
 -1        37 3.24463E+03 1.19546E+04 4.42145E+03 2.04692E+03 3.04108E-08-4.89105E-08
 -1        38 3.15243E+03 1.09441E+04 4.10991E+03 2.12259E+03 3.98426E-08-3.12346E-08
 -1        39 2.98483E+03 9.86179E+03 3.75490E+03 2.12103E+03 3.81859E-08-2.28601E-08
 -1        40 2.79305E+03 8.88048E+03 3.42010E+03 2.05213E+03 2.07545E-08 7.93093E-09
 -1        41 2.60122E+03 8.16217E+03 3.15891E+03 1.96866E+03 6.37151E-09 2.23536E-08
 -1        42 2.53756E+03 7.76787E+03 3.02682E+03 1.93426E+03 8.32850E-09 8.91369E-09
 -1        43 2.50320E+03 7.42517E+03 2.91701E+03 1.98056E+03 2.07948E-08 1.17770E-08
 -1        44 2.43933E+03 6.83542E+03 2.72748E+03 2.00750E+03 2.26591E-08 4.00582E-08
 -1        45 2.22931E+03 5.85778E+03 2.38335E+03 1.90726E+03 4.98201E-09 8.98247E-08
 -1        46 1.91569E+03 4.62895E+03 1.93484E+03 1.64796E+03-1.71920E-08 1.09264E-07
 -1        47 1.47832E+03 3.29225E+03 1.41536E+03 1.29876E+03-3.37848E-08 1.13327E-07
 -1        48 1.00283E+03 2.02572E+03 9.01667E+02 9.09391E+02-4.28048E-08 8.49480E-08
 -1        49 5.40496E+02 9.85456E+02 4.55696E+02 5.35848E+02-3.75340E-08 3.23745E-08
 -1        50 2.07205E+02 3.46211E+02 1.65651E+02 2.32697E+02-1.60690E-08-1.77081E-08
 -1        51-1.18628E+02-4.75839E+02-1.78611E+02-4.49454E+00 3.35895E-08 2.07354E-08
 -1        52-3.15659E+02-1.25504E+03-4.73009E+02-1.38016E+02 2.27894E-08 6.33681E-08
 -1        53-6.75707E+02-2.38285E+03-9.24018E+02-4.04809E+02-4.32158E-09 1.10061E-07
 -1        54-1.14473E+03-3.69798E+03-1.46852E+03-7.48848E+02-2.74418E-08 1.16743E-07
 -1        55-1.64020E+03-5.04862E+03-2.03635E+03-1.11122E+03-4.47094E-08 1.00621E-07
 -1        56-2.09752E+03-6.28126E+03-2.56031E+03-1.44262E+03-4.86013E-08 7.01267E-08
 -1        57-2.43402E+03-7.21639E+03-2.95736E+03-1.69544E+03-3.15786E-08 2.86702E-08
 -1        58-2.62120E+03-7.81141E+03-3.20252E+03-1.82225E+03-7.52999E-09-7.86922E-10
 -1        59-2.69388E+03-8.25316E+03-3.36399E+03-1.83160E+03 3.41929E-09 5.34534E-09
 -1        60-2.76679E+03-8.83935E+03-3.57191E+03-1.79422E+03 8.79951E-10 1.28352E-08
 -1        61-2.89740E+03-9.70284E+03-3.88767E+03-1.78340E+03-2.29978E-09 3.69445E-09
 -1        62-3.10466E+03-1.07808E+04-4.29793E+03-1.79914E+03 6.25160E-09-1.92367E-08
 -1        63-3.33571E+03-1.19092E+04-4.73406E+03-1.79762E+03 1.70013E-08-4.22507E-08
 -1        64-3.54733E+03-1.29544E+04-5.13928E+03-1.73833E+03 2.70940E-08-4.85574E-08
 -1        65-3.68527E+03-1.38346E+04-5.46945E+03-1.60140E+03 3.94805E-08-3.41759E-08
 -1        66-3.81128E+03-1.46417E+04-5.77237E+03-1.36978E+03 4.21367E-08-4.14268E-09
 -1        67-3.93597E+03-1.56060E+04-6.12801E+03-1.00961E+03 3.71396E-08 3.29127E-08
 -1        68-4.56736E+03-1.73577E+04-6.90718E+03-6.50718E+02 1.97278E-08 5.73767E-08
 -1        69-3.62212E+03-1.85380E+04-7.02074E+03 4.43645E+02-1.03736E-09 3.92634E-08
 -1        70-1.18628E+02-4.75839E+02-1.78611E+02-4.49454E+00 3.35902E-08 2.07354E-08
 -1        71-3.15659E+02-1.25504E+03-4.73009E+02-1.38016E+02 2.27899E-08 6.33635E-08
 -1        72-6.75707E+02-2.38285E+03-9.24018E+02-4.04809E+02-4.32169E-09 1.10064E-07
 -1        73-1.14473E+03-3.69798E+03-1.46852E+03-7.48848E+02-2.74383E-08 1.16747E-07
 -1        74-1.64020E+03-5.04862E+03-2.03635E+03-1.11122E+03-4.47109E-08 1.00608E-07
 -1        75-2.09752E+03-6.28126E+03-2.56031E+03-1.44262E+03-4.86011E-08 7.01265E-08
 -1        76-2.43402E+03-7.21639E+03-2.95736E+03-1.69544E+03-3.15793E-08 2.86702E-08
 -1        77-2.62120E+03-7.81141E+03-3.20252E+03-1.82225E+03-7.52820E-09-7.93697E-10
 -1        78-2.69388E+03-8.25316E+03-3.36399E+03-1.83160E+03 3.41888E-09 5.34626E-09
 -1        79-2.76679E+03-8.83935E+03-3.57191E+03-1.79422E+03 8.80358E-10 1.28348E-08
 -1        80-2.89740E+03-9.70284E+03-3.88767E+03-1.78340E+03-2.30130E-09 3.69630E-09
 -1        81-3.10466E+03-1.07808E+04-4.29793E+03-1.79914E+03 6.25168E-09-1.92368E-08
 -1        82-3.33571E+03-1.19092E+04-4.73406E+03-1.79762E+03 1.70009E-08-4.22504E-08
 -1        83-3.54733E+03-1.29544E+04-5.13928E+03-1.73833E+03 2.70939E-08-4.85574E-08
 -1        84-3.68527E+03-1.38346E+04-5.46945E+03-1.60140E+03 3.94805E-08-3.41758E-08
 -1        85-3.81128E+03-1.46417E+04-5.77237E+03-1.36978E+03 4.21367E-08-4.14294E-09
 -1        86-3.93597E+03-1.56060E+04-6.12801E+03-1.00961E+03 3.71396E-08 3.29136E-08
 -1        87-4.56736E+03-1.73577E+04-6.90718E+03-6.50718E+02 1.97278E-08 5.73767E-08
 -1        88-3.62212E+03-1.85380E+04-7.02074E+03 4.43645E+02-1.03736E-09 3.92634E-08
 -1        89-4.25317E+01-1.42301E+03-4.13093E+02 5.00245E+02 7.96466E-09 4.16915E-08
 -1        90-1.06310E+02-1.35283E+03-3.95003E+02 5.42304E+02 1.26476E-08 6.18474E-08
 -1        91-7.94227E+01-1.22201E+03-3.59165E+02 2.46563E+02 1.67372E-08 2.92987E-08
 -1        92-9.20234E+01-1.14723E+03-3.44892E+02 1.12384E+02 2.08226E-08-8.21028E-09
 -1        93-8.52642E+01-1.08023E+03-3.26493E+02 7.54480E+01 2.47100E-08-4.19882E-08
 -1        94-7.82734E+01-1.02344E+03-3.10350E+02 9.62579E+01 2.53518E-08-5.18620E-08
 -1        95-2.69551E+01-9.42976E+02-2.73585E+02 1.17108E+02 2.60602E-08-3.96102E-08
 -1        96-6.01325E+00-8.51937E+02-2.42665E+02 1.22781E+02 2.09861E-08-1.91657E-08
 -1        97-8.31656E+00-7.30690E+02-2.09053E+02 9.61304E+01 7.82058E-09 6.84214E-09
 -1        98-5.11967E+01-6.01024E+02-1.84583E+02 4.09895E+01 3.26457E-09 1.68418E-08
 -1        99-5.84954E+01-4.72905E+02-1.49662E+02-4.30833E+00 8.00968E-09 6.52316E-09
 -1       100-3.85141E+01-4.03076E+02-1.24270E+02 2.75598E+01 8.56933E-09 3.57054E-09
 -1       101 4.02725E+01-3.79718E+02-9.52606E+01 1.30346E+02-3.62751E-09 3.18431E-08
 -1       102 1.23669E+02-3.78078E+02-7.14771E+01 2.42525E+02-2.31009E-08 8.00506E-08
 -1       103 2.05480E+02-3.50472E+02-4.04207E+01 3.07063E+02-3.15148E-08 1.11032E-07
 -1       104 2.34540E+02-3.13461E+02-2.22072E+01 3.28436E+02-3.06373E-08 1.18209E-07
 -1       105 2.26605E+02-2.57980E+02-8.95554E+00 3.09573E+02-2.23544E-08 1.01706E-07
 -1       106 1.65022E+02-1.82692E+02-5.26450E+00 2.48380E+02-4.69908E-09 5.15156E-08
 -1       107 7.89501E+01-7.92547E+01-1.23889E-01 1.44443E+02 7.80508E-09-9.69365E-10
 -1       108 7.89501E+01-7.92547E+01-1.23889E-01 1.44443E+02 7.80507E-09-9.76698E-10
 -1       109 1.65022E+02-1.82692E+02-5.26450E+00 2.48380E+02-4.69990E-09 5.15212E-08
 -1       110 2.26605E+02-2.57980E+02-8.95554E+00 3.09573E+02-2.23543E-08 1.01707E-07
 -1       111 2.34540E+02-3.13461E+02-2.22072E+01 3.28436E+02-3.06380E-08 1.18209E-07
 -1       112 2.05480E+02-3.50472E+02-4.04207E+01 3.07063E+02-3.15134E-08 1.11030E-07
 -1       113 1.23669E+02-3.78078E+02-7.14771E+01 2.42525E+02-2.31013E-08 8.00511E-08
 -1       114 4.02725E+01-3.79718E+02-9.52606E+01 1.30346E+02-3.62628E-09 3.18429E-08
 -1       115-3.85141E+01-4.03076E+02-1.24270E+02 2.75598E+01 8.56941E-09 3.57900E-09
 -1       116-5.84954E+01-4.72905E+02-1.49662E+02-4.30833E+00 8.00917E-09 6.51938E-09
 -1       117-5.11967E+01-6.01024E+02-1.84583E+02 4.09895E+01 3.26458E-09 1.68383E-08
 -1       118-8.31656E+00-7.30690E+02-2.09053E+02 9.61304E+01 7.82054E-09 6.84261E-09
 -1       119-6.01325E+00-8.51937E+02-2.42665E+02 1.22781E+02 2.09861E-08-1.91656E-08
 -1       120-2.69551E+01-9.42976E+02-2.73585E+02 1.17108E+02 2.60602E-08-3.96112E-08
 -1       121-7.82734E+01-1.02344E+03-3.10350E+02 9.62579E+01 2.53520E-08-5.18618E-08
 -1       122-8.52642E+01-1.08023E+03-3.26493E+02 7.54480E+01 2.47099E-08-4.19893E-08
 -1       123-9.20234E+01-1.14723E+03-3.44892E+02 1.12384E+02 2.08227E-08-8.20985E-09
 -1       124-7.94227E+01-1.22201E+03-3.59165E+02 2.46563E+02 1.67371E-08 2.92977E-08
 -1       125-1.06310E+02-1.35283E+03-3.95003E+02 5.42304E+02 1.26476E-08 6.18475E-08
 -1       126-4.25317E+01-1.42301E+03-4.13093E+02 5.00245E+02 7.96466E-09 4.16915E-08
 -3
    1PSTEP                       271          68           1          
  100CL  168 6.80000E-01         126                     1   68           1
 -4  TOSTRAIN    6    1
 -5  EXX         1    4    1    1
 -5  EYY         1    4    2    2
 -5  EZZ         1    4    3    3
 -5  EXY         1    4    1    2
 -5  EYZ         1    4    2    3
 -5  EZX         1    4    3    1
 -1         1-1.39123E-04 3.80606E-02-7.67928E-27 1.61113E-02-5.74863E-19 5.47247E-16
 -1         2-1.39123E-04 3.80606E-02-7.67928E-27 1.61113E-02-5.74863E-19 5.47247E-16
 -1         3-1.47326E-04 4.60199E-04 2.46308E-26 1.76930E-04-5.82411E-14-1.00849E-13
 -1         4-1.47326E-04 4.60199E-04 2.46308E-26 1.76930E-04-5.82414E-14-1.00849E-13
 -1         5-3.08829E-05-2.64288E-04 2.01448E-26 1.69383E-04 1.04983E-13-4.65700E-14
 -1         6-3.08829E-05-2.64288E-04 2.01400E-26 1.69383E-04 1.04971E-13-4.65393E-14
 -1         7-1.44547E-04-4.16680E-02-5.28952E-27 1.57400E-02-2.60412E-19-2.38749E-16
 -1         8-1.44547E-04-4.16680E-02-5.28952E-27 1.57400E-02-2.60710E-19-2.38762E-16
 -1         9-8.91042E-05 1.32130E-04 7.52563E-27 2.36310E-04-8.03023E-15-7.69151E-14
 -1        10-8.91042E-05 1.32130E-04 7.52625E-27 2.36310E-04-8.02831E-15-7.69193E-14
 -1        11-1.41835E-04-2.40075E-03-6.26792E-27 1.08255E-02-4.66328E-19 1.74861E-16
 -1        12-1.41835E-04-2.40075E-03-6.26791E-27 1.08255E-02-4.65771E-19 1.74885E-16
 -1        13-9.86227E-03 3.66594E-02 4.17921E-26 3.48322E-03 5.30416E-14 1.42199E-13
 -1        14-6.89501E-03 3.30786E-02 6.63810E-26 1.21961E-03 2.03063E-14 1.83615E-13
 -1        15-6.47612E-03 2.97770E-02 7.63122E-27 9.83354E-04-1.20065E-14 8.13873E-14
 -1        16-6.02969E-03 2.79127E-02-4.20093E-27 6.46135E-04-8.66412E-15-3.28162E-14
 -1        17-5.76061E-03 2.64634E-02 4.54286E-26 6.24274E-04 1.89704E-14-1.54183E-13
 -1        18-5.48756E-03 2.48970E-02 6.83482E-26 6.87900E-04 6.38086E-14-1.74383E-13
 -1        19-5.01353E-03 2.30405E-02 5.08013E-26 7.53442E-04 1.00940E-13-1.27054E-13
 -1        20-4.56690E-03 2.10203E-02 3.69168E-26 7.78338E-04 9.95288E-14-1.01979E-13
 -1        21-4.16106E-03 1.91332E-02 6.18619E-27 6.89389E-04 6.99535E-14 6.97817E-15
 -1        22-3.92383E-03 1.77419E-02 1.00466E-26 4.75613E-04 3.94226E-14 6.36378E-14
 -1        23-3.73980E-03 1.69757E-02 2.40756E-27 2.99414E-04 3.37870E-14 1.94710E-14
 -1        24-3.68934E-03 1.64413E-02 9.01663E-27 3.52301E-04 7.46180E-14 1.49364E-14
 -1        25-3.52380E-03 1.54412E-02 3.42947E-26 6.08166E-04 1.10290E-13 9.80575E-14
 -1        26-3.17053E-03 1.35744E-02 1.60097E-25 8.74492E-04 1.13890E-13 2.67597E-13
 -1        27-2.54877E-03 1.09847E-02 2.55437E-25 1.02664E-03 7.34303E-14 3.50858E-13
 -1        28-1.90195E-03 8.06382E-03 2.93662E-25 1.06539E-03 3.21439E-14 3.82394E-13
 -1        29-1.26155E-03 5.18129E-03 1.82756E-25 9.79426E-04-2.63511E-14 3.07800E-13
 -1        30-7.35197E-04 2.71361E-03 3.68349E-26 7.43139E-04-7.33396E-14 1.43361E-13
 -1        31-3.29104E-04 1.04758E-03 3.10228E-27 3.82800E-04-6.99468E-14-3.36098E-14
 -1        32-9.86227E-03 3.66594E-02 4.17921E-26 3.48322E-03 5.30416E-14 1.42199E-13
 -1        33-6.89501E-03 3.30786E-02 6.63809E-26 1.21961E-03 2.03063E-14 1.83615E-13
 -1        34-6.47612E-03 2.97770E-02 7.63175E-27 9.83354E-04-1.20064E-14 8.13888E-14
 -1        35-6.02969E-03 2.79127E-02-4.20081E-27 6.46135E-04-8.66425E-15-3.28168E-14
 -1        36-5.76061E-03 2.64634E-02 4.54280E-26 6.24274E-04 1.89708E-14-1.54181E-13
 -1        37-5.48756E-03 2.48970E-02 6.83496E-26 6.87900E-04 6.38068E-14-1.74387E-13
 -1        38-5.01353E-03 2.30405E-02 5.07947E-26 7.53442E-04 1.00943E-13-1.27041E-13
 -1        39-4.56690E-03 2.10203E-02 3.69168E-26 7.78338E-04 9.95288E-14-1.01979E-13
 -1        40-4.16106E-03 1.91332E-02 6.18586E-27 6.89389E-04 6.99531E-14 6.97663E-15
 -1        41-3.92383E-03 1.77419E-02 1.00478E-26 4.75613E-04 3.94242E-14 6.36436E-14
 -1        42-3.73980E-03 1.69757E-02 2.40840E-27 2.99414E-04 3.37906E-14 1.94795E-14
 -1        43-3.68934E-03 1.64413E-02 9.01554E-27 3.52301E-04 7.46133E-14 1.49237E-14
 -1        44-3.52380E-03 1.54412E-02 3.42969E-26 6.08166E-04 1.10293E-13 9.80592E-14
 -1        45-3.17053E-03 1.35744E-02 1.60096E-25 8.74492E-04 1.13889E-13 2.67596E-13
 -1        46-2.54877E-03 1.09847E-02 2.55442E-25 1.02664E-03 7.34311E-14 3.50860E-13
 -1        47-1.90195E-03 8.06382E-03 2.93661E-25 1.06539E-03 3.21437E-14 3.82394E-13
 -1        48-1.26155E-03 5.18129E-03 1.82770E-25 9.79426E-04-2.63408E-14 3.07817E-13
 -1        49-7.35197E-04 2.71361E-03 3.68172E-26 7.43139E-04-7.33438E-14 1.43350E-13
 -1        50-3.29104E-04 1.04758E-03 3.10061E-27 3.82800E-04-6.99481E-14-3.36075E-14
 -1        51 3.99520E-05-8.13250E-04 2.47873E-26 3.95829E-04 1.26654E-13 2.12314E-14
 -1        52 3.90941E-04-2.43663E-03 8.43468E-26 7.44352E-04 1.46431E-13 1.63015E-13
 -1        53 9.39528E-04-4.93019E-03 2.48840E-25 9.74221E-04 1.20768E-13 3.37404E-13
 -1        54 1.57951E-03-7.91121E-03 3.01630E-25 1.06122E-03 5.63692E-14 3.86216E-13
 -1        55 2.24948E-03-1.10139E-02 2.52434E-25 1.02647E-03-1.93190E-14 3.58100E-13
 -1        56 2.86770E-03-1.38691E-02 1.46549E-25 8.59449E-04-7.09507E-14 2.69187E-13
 -1        57 3.37003E-03-1.60615E-02 3.01401E-26 5.73367E-04-6.75261E-14 1.22270E-13
 -1        58 3.68058E-03-1.74128E-02-2.50355E-27 3.17424E-04-2.45538E-14 5.31621E-15
 -1        59 3.88449E-03-1.83007E-02 4.78980E-28 2.77018E-04 1.63427E-14 1.32872E-14
 -1        60 4.12213E-03-1.94176E-02 3.20232E-27 4.49413E-04 1.49575E-14 3.93426E-14
 -1        61 4.53165E-03-2.11606E-02-1.19639E-27 6.55667E-04-4.18361E-15 1.35990E-14
 -1        62 5.03795E-03-2.33956E-02 5.68876E-27 7.58608E-04 4.64996E-15-6.58458E-14
 -1        63 5.55197E-03-2.57425E-02 4.21816E-26 7.50391E-04 2.45602E-14-1.46699E-13
 -1        64 5.99421E-03-2.78827E-02 6.50627E-26 6.76316E-04 5.78708E-14-1.72755E-13
 -1        65 6.39333E-03-2.96620E-02 5.75928E-26 6.04197E-04 1.12557E-13-1.31800E-13
 -1        66 6.70689E-03-3.12385E-02 3.75456E-26 6.43520E-04 1.40041E-13-3.27983E-14
 -1        67 7.15881E-03-3.31704E-02 5.16832E-26 1.01369E-03 1.38326E-13 9.32218E-14
 -1        68 7.39992E-03-3.66332E-02 7.59546E-26 1.21773E-03 8.25427E-14 1.81808E-13
 -1        69 1.05637E-02-4.03085E-02 2.76550E-26 3.70697E-03 1.45179E-15 1.28079E-13
 -1        70 3.99520E-05-8.13250E-04 2.47965E-26 3.95829E-04 1.26656E-13 2.12306E-14
 -1        71 3.90941E-04-2.43663E-03 8.43390E-26 7.44352E-04 1.46426E-13 1.63000E-13
 -1        72 9.39528E-04-4.93019E-03 2.48851E-25 9.74221E-04 1.20771E-13 3.37413E-13
 -1        73 1.57951E-03-7.91121E-03 3.01641E-25 1.06122E-03 5.63840E-14 3.86222E-13
 -1        74 2.24948E-03-1.10139E-02 2.52382E-25 1.02647E-03-1.93379E-14 3.58065E-13
 -1        75 2.86770E-03-1.38691E-02 1.46548E-25 8.59449E-04-7.09502E-14 2.69186E-13
 -1        76 3.37003E-03-1.60615E-02 3.01406E-26 5.73367E-04-6.75284E-14 1.22271E-13
 -1        77 3.68058E-03-1.74128E-02-2.50406E-27 3.17424E-04-2.45552E-14 5.29344E-15
 -1        78 3.88449E-03-1.83007E-02 4.78870E-28 2.77018E-04 1.63424E-14 1.32905E-14
 -1        79 4.12213E-03-1.94176E-02 3.20223E-27 4.49413E-04 1.49585E-14 3.93411E-14
 -1        80 4.53165E-03-2.11606E-02-1.19585E-27 6.55667E-04-4.18685E-15 1.36062E-14
 -1        81 5.03795E-03-2.33956E-02 5.68893E-27 7.58608E-04 4.65018E-15-6.58461E-14
 -1        82 5.55197E-03-2.57425E-02 4.21810E-26 7.50391E-04 2.45591E-14-1.46698E-13
 -1        83 5.99421E-03-2.78827E-02 6.50626E-26 6.76316E-04 5.78706E-14-1.72755E-13
 -1        84 6.39333E-03-2.96620E-02 5.75926E-26 6.04197E-04 1.12557E-13-1.31799E-13
 -1        85 6.70689E-03-3.12385E-02 3.75454E-26 6.43520E-04 1.40041E-13-3.27992E-14
 -1        86 7.15881E-03-3.31704E-02 5.16842E-26 1.01369E-03 1.38326E-13 9.32246E-14
 -1        87 7.39992E-03-3.66332E-02 7.59546E-26 1.21773E-03 8.25426E-14 1.81808E-13
 -1        88 1.05637E-02-4.03085E-02 2.76550E-26 3.70697E-03 1.45179E-15 1.28079E-13
 -1        89 3.50726E-04-2.29118E-03 3.38203E-26 1.80719E-03 3.09680E-14 1.34282E-13
 -1        90 2.52455E-04-2.11540E-03 8.08432E-26 2.06624E-03 5.64433E-14 1.97093E-13
 -1        91 3.41342E-04-2.01499E-03 1.75686E-26 1.19321E-03 6.46772E-14 8.85402E-14
 -1        92 3.38599E-04-1.93695E-03 4.12447E-27 8.29932E-04 6.34632E-14-3.59906E-14
 -1        93 3.16359E-04-1.82418E-03 4.72495E-26 7.71130E-04 5.63433E-14-1.48174E-13
 -1        94 2.53325E-04-1.68013E-03 7.01669E-26 8.80480E-04 4.80311E-14-1.81525E-13
 -1        95 2.69216E-04-1.52519E-03 4.61945E-26 9.86275E-04 5.44109E-14-1.44333E-13
 -1        96 2.35524E-04-1.34561E-03 1.40976E-26 1.00248E-03 5.10982E-14-7.71378E-14
 -1        97 1.85296E-04-1.13949E-03 1.65480E-28 8.67376E-04 3.03880E-14 1.47057E-14
 -1        98 9.91511E-05-9.39926E-04 5.71628E-27 5.96011E-04 2.56890E-14 4.95303E-14
 -1        99 7.23438E-05-7.57890E-04 2.03859E-27 3.72685E-04 3.13186E-14 1.24326E-14
 -1       100-4.37831E-06-5.68101E-04-5.82113E-28 4.26211E-04 3.01997E-14 2.20689E-15
 -1       101-7.68860E-05-3.65365E-04 1.26402E-26 7.57234E-04 2.31547E-14 1.01524E-13
 -1       102-1.51416E-04-1.80804E-04 1.37354E-25 1.12884E-03 1.93425E-14 2.70111E-13
 -1       103-1.49646E-04-4.03246E-05 2.78754E-25 1.34609E-03 3.31042E-14 3.73631E-13
 -1       104-1.61219E-04 5.69366E-05 3.14232E-25 1.38794E-03 4.78266E-14 3.93920E-13
 -1       105-1.61012E-04 1.18771E-04 2.21453E-25 1.27125E-03 5.54187E-14 3.33776E-13
 -1       106-1.72128E-04 1.48299E-04 4.22736E-26 9.72755E-04 4.86468E-14 1.60861E-13
 -1       107-1.44576E-04 1.43861E-04-8.10185E-27 5.15528E-04 2.23109E-14-1.24971E-14
 -1       108-1.44576E-04 1.43861E-04-8.10585E-27 5.15528E-04 2.23019E-14-1.25192E-14
 -1       109-1.72128E-04 1.48299E-04 4.22807E-26 9.72755E-04 4.86511E-14 1.60879E-13
 -1       110-1.61012E-04 1.18771E-04 2.21460E-25 1.27125E-03 5.54208E-14 3.33780E-13
 -1       111-1.61219E-04 5.69366E-05 3.14235E-25 1.38794E-03 4.78248E-14 3.93922E-13
 -1       112-1.49646E-04-4.03246E-05 2.78739E-25 1.34609E-03 3.31052E-14 3.73620E-13
 -1       113-1.51416E-04-1.80804E-04 1.37356E-25 1.12884E-03 1.93416E-14 2.70113E-13
 -1       114-7.68860E-05-3.65365E-04 1.26391E-26 7.57234E-04 2.31583E-14 1.01522E-13
 -1       115-4.37831E-06-5.68101E-04-5.80075E-28 4.26211E-04 3.02085E-14 2.23305E-15
 -1       116 7.23438E-05-7.57890E-04 2.03749E-27 3.72685E-04 3.13132E-14 1.24214E-14
 -1       117 9.91511E-05-9.39926E-04 5.71397E-27 5.96011E-04 2.56859E-14 4.95192E-14
 -1       118 1.85296E-04-1.13949E-03 1.65869E-28 8.67376E-04 3.03883E-14 1.47072E-14
 -1       119 2.35524E-04-1.34561E-03 1.40975E-26 1.00248E-03 5.10984E-14-7.71374E-14
 -1       120 2.69216E-04-1.52519E-03 4.61962E-26 9.86275E-04 5.44104E-14-1.44337E-13
 -1       121 2.53325E-04-1.68013E-03 7.01669E-26 8.80480E-04 4.80318E-14-1.81525E-13
 -1       122 3.16359E-04-1.82418E-03 4.72510E-26 7.71130E-04 5.63424E-14-1.48178E-13
 -1       123 3.38599E-04-1.93695E-03 4.12422E-27 8.29932E-04 6.34636E-14-3.59893E-14
 -1       124 3.41342E-04-2.01499E-03 1.75674E-26 1.19321E-03 6.46767E-14 8.85371E-14
 -1       125 2.52455E-04-2.11540E-03 8.08433E-26 2.06624E-03 5.64434E-14 1.97093E-13
 -1       126 3.50726E-04-2.29118E-03 3.38202E-26 1.80719E-03 3.09680E-14 1.34282E-13
 -3
    1PSTEP                       272          68           1          
  100CL  168 6.80000E-01         126                     1   68           1
 -4  ERROR       1    1
 -5  STR(%)      1    1    0    0
 -1         1 6.77057E+01
 -1         2 6.77057E+01
 -1         3 3.06220E+01
 -1         4 3.06220E+01
 -1         5 4.53703E+01
 -1         6 4.53703E+01
 -1         7 5.75832E+01
 -1         8 5.75832E+01
 -1         9 4.53703E+01
 -1        10 4.53703E+01
 -1        11 6.77057E+01
 -1        12 6.77057E+01
 -1        13 6.77057E+01
 -1        14 6.76413E+01
 -1        15 6.73172E+01
 -1        16 6.68770E+01
 -1        17 6.68677E+01
 -1        18 6.69414E+01
 -1        19 6.70872E+01
 -1        20 6.70872E+01
 -1        21 6.69366E+01
 -1        22 6.63850E+01
 -1        23 6.50782E+01
 -1        24 6.40760E+01
 -1        25 6.40198E+01
 -1        26 6.40198E+01
 -1        27 6.36090E+01
 -1        28 6.26149E+01
 -1        29 6.00456E+01
 -1        30 5.43892E+01
 -1        31 4.22263E+01
 -1        32 6.77057E+01
 -1        33 6.76413E+01
 -1        34 6.73172E+01
 -1        35 6.68770E+01
 -1        36 6.68677E+01
 -1        37 6.69414E+01
 -1        38 6.70872E+01
 -1        39 6.70872E+01
 -1        40 6.69366E+01
 -1        41 6.63850E+01
 -1        42 6.50782E+01
 -1        43 6.40760E+01
 -1        44 6.40198E+01
 -1        45 6.40198E+01
 -1        46 6.36090E+01
 -1        47 6.26149E+01
 -1        48 6.00456E+01
 -1        49 5.43892E+01
 -1        50 4.22263E+01
 -1        51 4.53703E+01
 -1        52 5.56467E+01
 -1        53 6.04142E+01
 -1        54 6.13925E+01
 -1        55 6.13925E+01
 -1        56 6.08296E+01
 -1        57 5.94851E+01
 -1        58 5.78642E+01
 -1        59 5.66799E+01
 -1        60 5.63869E+01
 -1        61 5.63217E+01
 -1        62 5.60993E+01
 -1        63 5.57772E+01
 -1        64 5.54997E+01
 -1        65 5.51527E+01
 -1        66 5.50972E+01
 -1        67 5.57302E+01
 -1        68 5.60862E+01
 -1        69 5.75832E+01
 -1        70 4.53703E+01
 -1        71 5.56467E+01
 -1        72 6.04142E+01
 -1        73 6.13925E+01
 -1        74 6.13925E+01
 -1        75 6.08296E+01
 -1        76 5.94851E+01
 -1        77 5.78642E+01
 -1        78 5.66799E+01
 -1        79 5.63869E+01
 -1        80 5.63217E+01
 -1        81 5.60993E+01
 -1        82 5.57772E+01
 -1        83 5.54997E+01
 -1        84 5.51527E+01
 -1        85 5.50972E+01
 -1        86 5.57302E+01
 -1        87 5.60862E+01
 -1        88 5.75832E+01
 -1        89 6.77057E+01
 -1        90 6.76413E+01
 -1        91 6.73172E+01
 -1        92 6.68770E+01
 -1        93 6.68677E+01
 -1        94 6.69414E+01
 -1        95 6.70872E+01
 -1        96 6.70872E+01
 -1        97 6.69366E+01
 -1        98 6.63850E+01
 -1        99 6.50782E+01
 -1       100 6.40760E+01
 -1       101 6.40198E+01
 -1       102 6.40198E+01
 -1       103 6.36090E+01
 -1       104 6.26149E+01
 -1       105 6.04142E+01
 -1       106 5.56467E+01
 -1       107 4.53703E+01
 -1       108 4.53703E+01
 -1       109 5.56467E+01
 -1       110 6.04142E+01
 -1       111 6.26149E+01
 -1       112 6.36090E+01
 -1       113 6.40198E+01
 -1       114 6.40198E+01
 -1       115 6.40760E+01
 -1       116 6.50782E+01
 -1       117 6.63850E+01
 -1       118 6.69366E+01
 -1       119 6.70872E+01
 -1       120 6.70872E+01
 -1       121 6.69414E+01
 -1       122 6.68677E+01
 -1       123 6.68770E+01
 -1       124 6.73172E+01
 -1       125 6.76413E+01
 -1       126 6.77057E+01
 -3
    1PSTEP                       273          69           1          
  100CL  169 6.90000E-01         126                     1   69           1
 -4  DISP        4    1
 -5  D1          1    2    1    0
 -5  D2          1    2    2    0
 -5  D3          1    2    3    0
 -5  ALL         1    2    0    0    1ALL
 -1         1 0.00000E+00 0.00000E+00 0.00000E+00
 -1         2 0.00000E+00 0.00000E+00 0.00000E+00
 -1         3 2.64536E-01-2.34643E-02 0.00000E+00
 -1         4 2.64536E-01-2.34643E-02 0.00000E+00
 -1         5 2.56824E-01-6.19497E-02 0.00000E+00
 -1         6 2.56824E-01-6.19497E-02 0.00000E+00
 -1         7 0.00000E+00 0.00000E+00 0.00000E+00
 -1         8 0.00000E+00 0.00000E+00 0.00000E+00
 -1         9 2.60678E-01-4.27040E-02 0.00000E+00
 -1        10 2.60678E-01-4.27040E-02 0.00000E+00
 -1        11 0.00000E+00 0.00000E+00 0.00000E+00
 -1        12 0.00000E+00 0.00000E+00 0.00000E+00
 -1        13 1.63915E-03 1.92884E-03 0.00000E+00
 -1        14 5.00010E-03 3.64131E-03 0.00000E+00
 -1        15 1.01986E-02 4.93874E-03 0.00000E+00
 -1        16 1.68955E-02 5.88159E-03 0.00000E+00
 -1        17 2.49381E-02 6.52733E-03 0.00000E+00
 -1        18 3.42985E-02 6.91705E-03 0.00000E+00
 -1        19 4.50066E-02 7.02645E-03 0.00000E+00
 -1        20 5.70610E-02 6.77833E-03 0.00000E+00
 -1        21 7.03409E-02 6.11338E-03 0.00000E+00
 -1        22 8.46718E-02 5.03380E-03 0.00000E+00
 -1        23 9.99082E-02 3.58893E-03 0.00000E+00
 -1        24 1.15999E-01 1.81117E-03 0.00000E+00
 -1        25 1.32909E-01-3.02044E-04 0.00000E+00
 -1        26 1.50568E-01-2.76887E-03 0.00000E+00
 -1        27 1.68846E-01-5.58669E-03 0.00000E+00
 -1        28 1.87610E-01-8.73521E-03 0.00000E+00
 -1        29 2.06704E-01-1.21724E-02 0.00000E+00
 -1        30 2.25970E-01-1.58325E-02 0.00000E+00
 -1        31 2.45269E-01-1.96250E-02 0.00000E+00
 -1        32 1.63915E-03 1.92884E-03 0.00000E+00
 -1        33 5.00010E-03 3.64131E-03 0.00000E+00
 -1        34 1.01986E-02 4.93874E-03 0.00000E+00
 -1        35 1.68955E-02 5.88159E-03 0.00000E+00
 -1        36 2.49381E-02 6.52733E-03 0.00000E+00
 -1        37 3.42985E-02 6.91705E-03 0.00000E+00
 -1        38 4.50066E-02 7.02645E-03 0.00000E+00
 -1        39 5.70610E-02 6.77833E-03 0.00000E+00
 -1        40 7.03409E-02 6.11338E-03 0.00000E+00
 -1        41 8.46718E-02 5.03380E-03 0.00000E+00
 -1        42 9.99082E-02 3.58893E-03 0.00000E+00
 -1        43 1.15999E-01 1.81117E-03 0.00000E+00
 -1        44 1.32909E-01-3.02044E-04 0.00000E+00
 -1        45 1.50568E-01-2.76887E-03 0.00000E+00
 -1        46 1.68846E-01-5.58669E-03 0.00000E+00
 -1        47 1.87610E-01-8.73521E-03 0.00000E+00
 -1        48 2.06704E-01-1.21724E-02 0.00000E+00
 -1        49 2.25970E-01-1.58325E-02 0.00000E+00
 -1        50 2.45269E-01-1.96250E-02 0.00000E+00
 -1        51 2.37568E-01-5.80777E-02 0.00000E+00
 -1        52 2.18324E-01-5.41488E-02 0.00000E+00
 -1        53 1.99203E-01-5.01466E-02 0.00000E+00
 -1        54 1.80361E-01-4.60978E-02 0.00000E+00
 -1        55 1.61956E-01-4.20573E-02 0.00000E+00
 -1        56 1.44122E-01-3.80844E-02 0.00000E+00
 -1        57 1.26981E-01-3.42384E-02 0.00000E+00
 -1        58 1.10624E-01-3.05730E-02 0.00000E+00
 -1        59 9.50966E-02-2.71194E-02 0.00000E+00
 -1        60 8.04268E-02-2.38677E-02 0.00000E+00
 -1        61 6.66858E-02-2.07860E-02 0.00000E+00
 -1        62 5.40104E-02-1.78628E-02 0.00000E+00
 -1        63 4.25540E-02-1.51311E-02 0.00000E+00
 -1        64 3.23970E-02-1.26384E-02 0.00000E+00
 -1        65 2.35291E-02-1.03942E-02 0.00000E+00
 -1        66 1.59113E-02-8.33946E-03 0.00000E+00
 -1        67 9.58718E-03-6.36586E-03 0.00000E+00
 -1        68 4.69827E-03-4.36423E-03 0.00000E+00
 -1        69 1.58231E-03-2.21239E-03 0.00000E+00
 -1        70 2.37568E-01-5.80777E-02 0.00000E+00
 -1        71 2.18324E-01-5.41488E-02 0.00000E+00
 -1        72 1.99203E-01-5.01466E-02 0.00000E+00
 -1        73 1.80361E-01-4.60978E-02 0.00000E+00
 -1        74 1.61956E-01-4.20573E-02 0.00000E+00
 -1        75 1.44122E-01-3.80844E-02 0.00000E+00
 -1        76 1.26981E-01-3.42384E-02 0.00000E+00
 -1        77 1.10624E-01-3.05730E-02 0.00000E+00
 -1        78 9.50966E-02-2.71194E-02 0.00000E+00
 -1        79 8.04268E-02-2.38677E-02 0.00000E+00
 -1        80 6.66858E-02-2.07860E-02 0.00000E+00
 -1        81 5.40104E-02-1.78628E-02 0.00000E+00
 -1        82 4.25540E-02-1.51311E-02 0.00000E+00
 -1        83 3.23970E-02-1.26384E-02 0.00000E+00
 -1        84 2.35291E-02-1.03942E-02 0.00000E+00
 -1        85 1.59113E-02-8.33946E-03 0.00000E+00
 -1        86 9.58718E-03-6.36586E-03 0.00000E+00
 -1        87 4.69827E-03-4.36423E-03 0.00000E+00
 -1        88 1.58231E-03-2.21239E-03 0.00000E+00
 -1        89 1.08036E-03-1.17670E-04 0.00000E+00
 -1        90 4.48155E-03-3.25872E-04 0.00000E+00
 -1        91 9.55788E-03-6.70519E-04 0.00000E+00
 -1        92 1.61043E-02-1.18372E-03 0.00000E+00
 -1        93 2.39473E-02-1.88417E-03 0.00000E+00
 -1        94 3.30636E-02-2.80390E-03 0.00000E+00
 -1        95 4.35043E-02-3.98848E-03 0.00000E+00
 -1        96 5.52788E-02-5.47572E-03 0.00000E+00
 -1        97 6.82835E-02-7.27179E-03 0.00000E+00
 -1        98 8.23434E-02-9.35511E-03 0.00000E+00
 -1        99 9.73144E-02-1.17052E-02 0.00000E+00
 -1       100 1.13136E-01-1.43220E-02 0.00000E+00
 -1       101 1.29785E-01-1.72136E-02 0.00000E+00
 -1       102 1.47205E-01-2.03744E-02 0.00000E+00
 -1       103 1.65289E-01-2.37781E-02 0.00000E+00
 -1       104 1.83903E-01-2.73836E-02 0.00000E+00
 -1       105 2.02901E-01-3.11385E-02 0.00000E+00
 -1       106 2.22121E-01-3.49800E-02 0.00000E+00
 -1       107 2.41410E-01-3.88473E-02 0.00000E+00
 -1       108 2.41410E-01-3.88473E-02 0.00000E+00
 -1       109 2.22121E-01-3.49800E-02 0.00000E+00
 -1       110 2.02901E-01-3.11385E-02 0.00000E+00
 -1       111 1.83903E-01-2.73836E-02 0.00000E+00
 -1       112 1.65289E-01-2.37781E-02 0.00000E+00
 -1       113 1.47205E-01-2.03744E-02 0.00000E+00
 -1       114 1.29785E-01-1.72136E-02 0.00000E+00
 -1       115 1.13136E-01-1.43220E-02 0.00000E+00
 -1       116 9.73144E-02-1.17052E-02 0.00000E+00
 -1       117 8.23434E-02-9.35511E-03 0.00000E+00
 -1       118 6.82835E-02-7.27179E-03 0.00000E+00
 -1       119 5.52788E-02-5.47572E-03 0.00000E+00
 -1       120 4.35043E-02-3.98848E-03 0.00000E+00
 -1       121 3.30636E-02-2.80390E-03 0.00000E+00
 -1       122 2.39473E-02-1.88417E-03 0.00000E+00
 -1       123 1.61043E-02-1.18372E-03 0.00000E+00
 -1       124 9.55788E-03-6.70519E-04 0.00000E+00
 -1       125 4.48155E-03-3.25872E-04 0.00000E+00
 -1       126 1.08036E-03-1.17670E-04 0.00000E+00
 -3
    1PSTEP                       274          69           1          
  100CL  169 6.90000E-01         126                     1   69           1
 -4  STRESS      6    1
 -5  SXX         1    4    1    1
 -5  SYY         1    4    2    2
 -5  SZZ         1    4    3    3
 -5  SXY         1    4    1    2
 -5  SYZ         1    4    2    3
 -5  SZX         1    4    3    1
 -1         1 9.12840E+03 2.19281E+04 8.85460E+03 5.66208E+03 2.33238E-10 1.65231E-10
 -1         2 9.12840E+03 2.19281E+04 8.85460E+03 5.66208E+03 2.33238E-10 1.65231E-10
 -1         3 8.18842E+01 1.20772E+02 6.07504E+01 9.81581E+01-4.78637E-08-7.11054E-08
 -1         4 8.18842E+01 1.20772E+02 6.07504E+01 9.81581E+01-4.78618E-08-7.11053E-08
 -1         5-5.51572E+01-1.82280E+02-7.12592E+01 9.98900E+00 8.27886E-08 4.46799E-09
 -1         6-5.51572E+01-1.82280E+02-7.12592E+01 9.98900E+00 8.27889E-08 4.47539E-09
 -1         7-1.00939E+04-2.23550E+04-1.03239E+04 4.21319E+03 2.25625E-10-8.46626E-11
 -1         8-1.00939E+04-2.23550E+04-1.03239E+04 4.21319E+03 2.25625E-10-8.46626E-11
 -1         9 3.51387E+01-2.98363E+01 1.57519E+00 7.07129E+01 2.90558E-08-2.86148E-08
 -1        10 3.51387E+01-2.98363E+01 1.57519E+00 7.07129E+01 2.90519E-08-2.86158E-08
 -1        11-4.13316E+02-1.49105E+03-4.89460E+02 3.29417E+03 2.73701E-10 2.57586E-11
 -1        12-4.13316E+02-1.49105E+03-4.89460E+02 3.29417E+03 2.73701E-10 2.57586E-11
 -1        13 3.37538E+03 1.87713E+04 6.33670E+03 1.81309E+03 1.95091E-09 3.57413E-08
 -1        14 4.15575E+03 1.71271E+04 6.11970E+03 1.54756E+03-1.76566E-08 3.34689E-08
 -1        15 3.60019E+03 1.46586E+04 5.28119E+03 1.73437E+03-2.58241E-08-2.92978E-08
 -1        16 3.36554E+03 1.31839E+04 4.80498E+03 1.69742E+03-8.19819E-09-8.71937E-08
 -1        17 3.23650E+03 1.24638E+04 4.56528E+03 1.73776E+03 2.16429E-08-1.16625E-07
 -1        18 3.21485E+03 1.21547E+04 4.46971E+03 1.91625E+03 4.62673E-08-1.14536E-07
 -1        19 3.29415E+03 1.17215E+04 4.36897E+03 2.16112E+03 4.89119E-08-8.21149E-08
 -1        20 3.26433E+03 1.08217E+04 4.10629E+03 2.32365E+03 3.20971E-08-5.16405E-08
 -1        21 3.10301E+03 9.65153E+03 3.72886E+03 2.30561E+03 2.38057E-08-6.78024E-08
 -1        22 2.84850E+03 8.60254E+03 3.35671E+03 2.17910E+03 3.83457E-08-1.01983E-07
 -1        23 2.69391E+03 7.89659E+03 3.10952E+03 2.07010E+03 7.67815E-08-1.20112E-07
 -1        24 2.58091E+03 7.31823E+03 2.90952E+03 2.03914E+03 1.05071E-07-5.63688E-08
 -1        25 2.45754E+03 6.60927E+03 2.66848E+03 2.00043E+03 9.90137E-08 4.57945E-08
 -1        26 2.21989E+03 5.64794E+03 2.32065E+03 1.86923E+03 4.96038E-08 1.67841E-07
 -1        27 1.91880E+03 4.51274E+03 1.90244E+03 1.61902E+03-1.96132E-08 2.27068E-07
 -1        28 1.50371E+03 3.24461E+03 1.40911E+03 1.29441E+03-8.23583E-08 2.27687E-07
 -1        29 1.02907E+03 1.98398E+03 8.97169E+02 9.13986E+02-1.01266E-07 1.51469E-07
 -1        30 5.51305E+02 9.31457E+02 4.42863E+02 5.31524E+02-8.96542E-08 7.36085E-08
 -1        31 2.05859E+02 3.05422E+02 1.53060E+02 2.23599E+02-7.15604E-08 1.07816E-08
 -1        32 3.37538E+03 1.87713E+04 6.33670E+03 1.81309E+03 1.95091E-09 3.57413E-08
 -1        33 4.15575E+03 1.71271E+04 6.11970E+03 1.54756E+03-1.76566E-08 3.34689E-08
 -1        34 3.60019E+03 1.46586E+04 5.28119E+03 1.73437E+03-2.58241E-08-2.92978E-08
 -1        35 3.36554E+03 1.31839E+04 4.80498E+03 1.69742E+03-8.19819E-09-8.71937E-08
 -1        36 3.23650E+03 1.24638E+04 4.56528E+03 1.73776E+03 2.16428E-08-1.16625E-07
 -1        37 3.21485E+03 1.21547E+04 4.46971E+03 1.91625E+03 4.62674E-08-1.14535E-07
 -1        38 3.29415E+03 1.17215E+04 4.36897E+03 2.16112E+03 4.89125E-08-8.21148E-08
 -1        39 3.26433E+03 1.08217E+04 4.10629E+03 2.32365E+03 3.20971E-08-5.16405E-08
 -1        40 3.10301E+03 9.65153E+03 3.72886E+03 2.30561E+03 2.38057E-08-6.78029E-08
 -1        41 2.84850E+03 8.60254E+03 3.35671E+03 2.17910E+03 3.83457E-08-1.01981E-07
 -1        42 2.69391E+03 7.89659E+03 3.10952E+03 2.07010E+03 7.67817E-08-1.20115E-07
 -1        43 2.58091E+03 7.31823E+03 2.90952E+03 2.03914E+03 1.05071E-07-5.63697E-08
 -1        44 2.45754E+03 6.60927E+03 2.66848E+03 2.00043E+03 9.90135E-08 4.57900E-08
 -1        45 2.21989E+03 5.64794E+03 2.32065E+03 1.86923E+03 4.96043E-08 1.67849E-07
 -1        46 1.91880E+03 4.51274E+03 1.90244E+03 1.61902E+03-1.96127E-08 2.27069E-07
 -1        47 1.50371E+03 3.24461E+03 1.40911E+03 1.29441E+03-8.23584E-08 2.27687E-07
 -1        48 1.02907E+03 1.98398E+03 8.97169E+02 9.13986E+02-1.01266E-07 1.51472E-07
 -1        49 5.51305E+02 9.31457E+02 4.42863E+02 5.31524E+02-8.96531E-08 7.36083E-08
 -1        50 2.05859E+02 3.05422E+02 1.53060E+02 2.23599E+02-7.15619E-08 1.07779E-08
 -1        51-1.19043E+02-4.91820E+02-1.83563E+02-1.24106E+01 6.43101E-08 5.95927E-08
 -1        52-3.27582E+02-1.31303E+03-4.94216E+02-1.60154E+02 3.52077E-08 1.42223E-07
 -1        53-7.08258E+02-2.49106E+03-9.67047E+02-4.53830E+02-6.65747E-09 1.99662E-07
 -1        54-1.19101E+03-3.81054E+03-1.51760E+03-8.23284E+02-6.33841E-08 2.34264E-07
 -1        55-1.67894E+03-5.10313E+03-2.06564E+03-1.18744E+03-1.07926E-07 1.97609E-07
 -1        56-2.11512E+03-6.27530E+03-2.56446E+03-1.49982E+03-1.13370E-07 9.44573E-08
 -1        57-2.44162E+03-7.23104E+03-2.96500E+03-1.73995E+03-7.80346E-08-2.32225E-08
 -1        58-2.66163E+03-7.96562E+03-3.26452E+03-1.87974E+03-1.71386E-08-1.05096E-07
 -1        59-2.80486E+03-8.63937E+03-3.52161E+03-1.92658E+03 3.72129E-08-1.31050E-07
 -1        60-2.96405E+03-9.51554E+03-3.84936E+03-1.93840E+03 5.94709E-08-1.00813E-07
 -1        61-3.17937E+03-1.06592E+04-4.28328E+03-1.98030E+03 4.86035E-08-6.53026E-08
 -1        62-3.43436E+03-1.18250E+04-4.73990E+03-2.03828E+03 2.64845E-08-5.81045E-08
 -1        63-3.60479E+03-1.26368E+04-5.05641E+03-2.03295E+03 2.01966E-08-7.99685E-08
 -1        64-3.63922E+03-1.30065E+04-5.18530E+03-1.89272E+03 3.80037E-08-1.21243E-07
 -1        65-3.58999E+03-1.32695E+04-5.25252E+03-1.62249E+03 5.80862E-08-1.21397E-07
 -1        66-3.65885E+03-1.39814E+04-5.50456E+03-1.28661E+03 7.10782E-08-8.35526E-08
 -1        67-3.88484E+03-1.54054E+04-6.04441E+03-9.18007E+02 6.34563E-08-2.18618E-08
 -1        68-4.68896E+03-1.77402E+04-7.07482E+03-6.32068E+02 3.56004E-08 2.99307E-08
 -1        69-3.78280E+03-1.91291E+04-7.27163E+03 3.98283E+02 7.69556E-09 3.25976E-08
 -1        70-1.19043E+02-4.91820E+02-1.83563E+02-1.24106E+01 6.43058E-08 5.95791E-08
 -1        71-3.27582E+02-1.31303E+03-4.94216E+02-1.60154E+02 3.52085E-08 1.42227E-07
 -1        72-7.08258E+02-2.49106E+03-9.67047E+02-4.53830E+02-6.65690E-09 1.99664E-07
 -1        73-1.19101E+03-3.81054E+03-1.51760E+03-8.23284E+02-6.33866E-08 2.34278E-07
 -1        74-1.67894E+03-5.10313E+03-2.06564E+03-1.18744E+03-1.07928E-07 1.97605E-07
 -1        75-2.11512E+03-6.27530E+03-2.56446E+03-1.49982E+03-1.13371E-07 9.44573E-08
 -1        76-2.44162E+03-7.23104E+03-2.96500E+03-1.73995E+03-7.80304E-08-2.32226E-08
 -1        77-2.66163E+03-7.96562E+03-3.26452E+03-1.87974E+03-1.71432E-08-1.05103E-07
 -1        78-2.80486E+03-8.63937E+03-3.52161E+03-1.92658E+03 3.72152E-08-1.31047E-07
 -1        79-2.96405E+03-9.51554E+03-3.84936E+03-1.93840E+03 5.94714E-08-1.00820E-07
 -1        80-3.17937E+03-1.06592E+04-4.28328E+03-1.98030E+03 4.86020E-08-6.53011E-08
 -1        81-3.43436E+03-1.18250E+04-4.73990E+03-2.03828E+03 2.64845E-08-5.81044E-08
 -1        82-3.60479E+03-1.26368E+04-5.05641E+03-2.03295E+03 2.01966E-08-7.99685E-08
 -1        83-3.63922E+03-1.30065E+04-5.18530E+03-1.89272E+03 3.80041E-08-1.21245E-07
 -1        84-3.58999E+03-1.32695E+04-5.25252E+03-1.62249E+03 5.80848E-08-1.21394E-07
 -1        85-3.65885E+03-1.39814E+04-5.50456E+03-1.28661E+03 7.10773E-08-8.35530E-08
 -1        86-3.88484E+03-1.54054E+04-6.04441E+03-9.18007E+02 6.34567E-08-2.18626E-08
 -1        87-4.68896E+03-1.77402E+04-7.07482E+03-6.32068E+02 3.56004E-08 2.99307E-08
 -1        88-3.78280E+03-1.91291E+04-7.27163E+03 3.98283E+02 7.69557E-09 3.25976E-08
 -1        89-5.25414E+01-1.38231E+03-4.03747E+02 4.85251E+02 3.10199E-09 3.97658E-08
 -1        90-9.10065E+01-1.29739E+03-3.73273E+02 6.62708E+02 1.00100E-08 3.54629E-08
 -1        91-3.97096E+01-1.14673E+03-3.24951E+02 4.12975E+02 2.08937E-08-2.33374E-08
 -1        92-7.19172E+01-1.03788E+03-3.06015E+02 1.76309E+02 3.22277E-08-8.90462E-08
 -1        93-1.21208E+02-9.55933E+02-2.99608E+02-2.92402E+01 4.16040E-08-1.24032E-07
 -1        94-1.58170E+02-9.40964E+02-3.08937E+02-9.42926E+01 4.54792E-08-1.20709E-07
 -1        95-9.71535E+01-9.54292E+02-2.96900E+02-2.72395E+01 3.52673E-08-8.07270E-08
 -1        96-2.52351E+01-9.60442E+02-2.79196E+02 7.94143E+01 2.74237E-08-5.30652E-08
 -1        97 1.69765E+01-8.91526E+02-2.47775E+02 1.18616E+02 3.59886E-08-6.48272E-08
 -1        98-1.38956E+01-7.67498E+02-2.21924E+02 7.82884E+01 5.15114E-08-1.01623E-07
 -1        99-2.49357E+01-6.28396E+02-1.85578E+02 2.38828E+01 5.92282E-08-1.32510E-07
 -1       100-1.33018E+01-5.46401E+02-1.59506E+02 3.53404E+01 4.31380E-08-9.26131E-08
 -1       101 4.63888E+01-5.03270E+02-1.30444E+02 1.07126E+02 7.15233E-09 1.00510E-08
 -1       102 1.06268E+02-4.77776E+02-1.06597E+02 1.91169E+02-3.53555E-08 1.35025E-07
 -1       103 1.82472E+02-4.35128E+02-7.27303E+01 2.47827E+02-6.73886E-08 2.24494E-07
 -1       104 2.22542E+02-3.95990E+02-5.05803E+01 2.85073E+02-7.54816E-08 2.40170E-07
 -1       105 2.26502E+02-3.35652E+02-3.22951E+01 2.87550E+02-5.45787E-08 1.84294E-07
 -1       106 1.67348E+02-2.41003E+02-2.20648E+01 2.36040E+02-3.01161E-08 1.05433E-07
 -1       107 7.80481E+01-1.10018E+02-9.62799E+00 1.35484E+02-1.25387E-09 3.87146E-08
 -1       108 7.80481E+01-1.10018E+02-9.62799E+00 1.35484E+02-1.25096E-09 3.87133E-08
 -1       109 1.67348E+02-2.41003E+02-2.20648E+01 2.36040E+02-3.01169E-08 1.05436E-07
 -1       110 2.26502E+02-3.35652E+02-3.22951E+01 2.87550E+02-5.45784E-08 1.84289E-07
 -1       111 2.22542E+02-3.95990E+02-5.05803E+01 2.85073E+02-7.54811E-08 2.40168E-07
 -1       112 1.82472E+02-4.35128E+02-7.27303E+01 2.47827E+02-6.73893E-08 2.24493E-07
 -1       113 1.06268E+02-4.77776E+02-1.06597E+02 1.91169E+02-3.53548E-08 1.35017E-07
 -1       114 4.63888E+01-5.03270E+02-1.30444E+02 1.07126E+02 7.15040E-09 1.00533E-08
 -1       115-1.33018E+01-5.46401E+02-1.59506E+02 3.53404E+01 4.31386E-08-9.26104E-08
 -1       116-2.49357E+01-6.28396E+02-1.85578E+02 2.38828E+01 5.92280E-08-1.32506E-07
 -1       117-1.38956E+01-7.67498E+02-2.21924E+02 7.82884E+01 5.15113E-08-1.01625E-07
 -1       118 1.69765E+01-8.91526E+02-2.47775E+02 1.18616E+02 3.59885E-08-6.48259E-08
 -1       119-2.52351E+01-9.60442E+02-2.79196E+02 7.94143E+01 2.74238E-08-5.30653E-08
 -1       120-9.71535E+01-9.54292E+02-2.96900E+02-2.72395E+01 3.52672E-08-8.07270E-08
 -1       121-1.58170E+02-9.40964E+02-3.08937E+02-9.42926E+01 4.54788E-08-1.20712E-07
 -1       122-1.21208E+02-9.55933E+02-2.99608E+02-2.92402E+01 4.16043E-08-1.24032E-07
 -1       123-7.19172E+01-1.03788E+03-3.06015E+02 1.76309E+02 3.22278E-08-8.90459E-08
 -1       124-3.97096E+01-1.14673E+03-3.24951E+02 4.12975E+02 2.08937E-08-2.33373E-08
 -1       125-9.10065E+01-1.29739E+03-3.73273E+02 6.62708E+02 1.00100E-08 3.54629E-08
 -1       126-5.25414E+01-1.38231E+03-4.03747E+02 4.85251E+02 3.10197E-09 3.97658E-08
 -3
    1PSTEP                       275          69           1          
  100CL  169 6.90000E-01         126                     1   69           1
 -4  TOSTRAIN    6    1
 -5  EXX         1    4    1    1
 -5  EYY         1    4    2    2
 -5  EZZ         1    4    3    3
 -5  EXY         1    4    1    2
 -5  EYZ         1    4    2    3
 -5  EZX         1    4    3    1
 -1         1-1.49835E-04 3.97073E-02-4.51715E-27 1.63913E-02-3.27710E-19 2.43509E-16
 -1         2-1.49835E-04 3.97073E-02-4.51715E-27 1.63913E-02-3.27710E-19 2.43509E-16
 -1         3-1.39362E-04 4.02663E-04 1.02337E-25 1.79380E-04-2.32395E-13-1.53350E-13
 -1         4-1.39362E-04 4.02663E-04 1.02338E-25 1.79380E-04-2.32390E-13-1.53352E-13
 -1         5-3.20685E-05-2.76650E-04 1.19676E-25 1.69814E-04 2.54023E-13-9.02704E-14
 -1         6-3.20685E-05-2.76650E-04 1.19689E-25 1.69814E-04 2.54033E-13-9.02485E-14
 -1         7-1.54839E-04-4.29217E-02-3.85271E-27 1.58229E-02-3.21139E-19 9.81552E-18
 -1         8-1.54839E-04-4.29217E-02-3.85271E-27 1.58229E-02-3.21139E-19 9.81552E-18
 -1         9-8.57154E-05 9.25220E-05-4.47218E-27 2.36696E-04 5.13512E-14-1.22214E-13
 -1        10-8.57154E-05 9.25220E-05-4.47532E-27 2.36696E-04 5.13383E-14-1.22212E-13
 -1        11-1.52337E-04-2.26944E-03-5.54971E-27 1.08034E-02-2.25799E-19 7.31117E-17
 -1        12-1.52337E-04-2.26944E-03-5.54971E-27 1.08034E-02-2.25799E-19 7.31117E-17
 -1        13-1.04119E-02 3.83393E-02 2.44382E-26 3.51074E-03 1.02214E-14 1.14919E-13
 -1        14-7.27598E-03 3.42851E-02 2.01361E-26 1.48732E-03-4.65812E-14 1.12305E-13
 -1        15-6.51979E-03 2.97658E-02 9.57683E-27 1.36564E-03-9.06720E-14-8.43837E-14
 -1        16-5.78249E-03 2.69026E-02 1.46495E-25 7.55854E-04-6.44978E-14-2.75011E-13
 -1        17-5.52977E-03 2.55806E-02 2.92416E-25 3.04784E-04 4.89615E-15-3.83356E-13
 -1        18-5.55264E-03 2.51764E-02 3.18984E-25 1.69276E-04 7.20690E-14-3.92445E-13
 -1        19-5.38445E-03 2.45606E-02 1.86945E-25 3.96158E-04 9.26338E-14-2.94088E-13
 -1        20-5.02578E-03 2.30362E-02 7.48364E-26 7.34810E-04 5.78918E-14-1.87562E-13
 -1        21-4.50955E-03 2.08477E-02 1.05624E-25 8.56996E-04 1.48956E-14-2.32097E-13
 -1        22-4.10842E-03 1.87997E-02 2.45370E-25 6.95122E-04 2.30782E-14-3.52040E-13
 -1        23-3.77611E-03 1.73761E-02 4.16862E-25 4.96857E-04 1.15089E-13-4.46691E-13
 -1        24-3.59636E-03 1.63144E-02 2.49722E-25 5.00198E-04 2.58275E-13-2.83210E-13
 -1        25-3.35501E-03 1.50117E-02 1.55504E-25 6.73028E-04 3.46375E-13 3.02680E-14
 -1        26-3.00754E-03 1.31349E-02 5.61444E-25 8.52709E-04 3.37622E-13 4.51807E-13
 -1        27-2.43726E-03 1.07302E-02 1.06578E-24 9.75309E-04 2.06839E-13 7.08631E-13
 -1        28-1.84118E-03 7.97517E-03 1.22332E-24 1.05221E-03 2.79028E-14 7.85284E-13
 -1        29-1.22135E-03 5.12130E-03 6.70309E-25 1.01115E-03-1.16717E-13 5.80144E-13
 -1        30-6.92277E-04 2.61487E-03 2.50273E-25 7.77283E-04-1.76864E-13 3.32792E-13
 -1        31-2.97153E-04 9.60965E-04 7.01812E-26 3.95437E-04-2.00974E-13 1.21934E-13
 -1        32-1.04119E-02 3.83393E-02 2.44382E-26 3.51074E-03 1.02214E-14 1.14919E-13
 -1        33-7.27598E-03 3.42851E-02 2.01361E-26 1.48732E-03-4.65812E-14 1.12305E-13
 -1        34-6.51979E-03 2.97658E-02 9.57682E-27 1.36564E-03-9.06721E-14-8.43836E-14
 -1        35-5.78249E-03 2.69026E-02 1.46495E-25 7.55854E-04-6.44978E-14-2.75011E-13
 -1        36-5.52977E-03 2.55806E-02 2.92417E-25 3.04784E-04 4.89576E-15-3.83357E-13
 -1        37-5.55264E-03 2.51764E-02 3.18979E-25 1.69276E-04 7.20696E-14-3.92442E-13
 -1        38-5.38445E-03 2.45606E-02 1.86946E-25 3.96158E-04 9.26356E-14-2.94089E-13
 -1        39-5.02578E-03 2.30362E-02 7.48364E-26 7.34810E-04 5.78918E-14-1.87562E-13
 -1        40-4.50955E-03 2.08477E-02 1.05626E-25 8.56996E-04 1.48952E-14-2.32099E-13
 -1        41-4.10842E-03 1.87997E-02 2.45363E-25 6.95122E-04 2.30799E-14-3.52034E-13
 -1        42-3.77611E-03 1.73761E-02 4.16880E-25 4.96857E-04 1.15087E-13-4.46701E-13
 -1        43-3.59636E-03 1.63144E-02 2.49724E-25 5.00198E-04 2.58274E-13-2.83213E-13
 -1        44-3.35501E-03 1.50117E-02 1.55487E-25 6.73028E-04 3.46370E-13 3.02544E-14
 -1        45-3.00754E-03 1.31349E-02 5.61484E-25 8.52709E-04 3.37632E-13 4.51831E-13
 -1        46-2.43726E-03 1.07302E-02 1.06579E-24 9.75309E-04 2.06842E-13 7.08634E-13
 -1        47-1.84118E-03 7.97517E-03 1.22332E-24 1.05221E-03 2.79025E-14 7.85284E-13
 -1        48-1.22135E-03 5.12130E-03 6.70318E-25 1.01115E-03-1.16710E-13 5.80153E-13
 -1        49-6.92277E-04 2.61487E-03 2.50251E-25 7.77283E-04-1.76861E-13 3.32790E-13
 -1        50-2.97153E-04 9.60965E-04 7.01737E-26 3.95437E-04-2.00983E-13 1.21924E-13
 -1        51 5.85367E-05-8.53221E-04 1.26746E-25 4.03139E-04 2.67743E-13 9.82246E-14
 -1        52 4.36845E-04-2.57393E-03 4.11939E-25 7.71529E-04 2.83799E-13 3.82895E-13
 -1        53 1.03227E-03-5.20787E-03 8.17946E-25 9.98368E-04 2.28031E-13 6.08689E-13
 -1        54 1.70656E-03-8.24850E-03 1.22946E-24 1.04142E-03 9.44598E-14 7.84176E-13
 -1        55 2.36234E-03-1.12516E-02 1.03907E-24 9.71180E-04-9.38230E-14 7.27520E-13
 -1        56 2.94326E-03-1.39616E-02 3.94041E-25 8.34578E-04-2.40918E-13 4.18718E-13
 -1        57 3.45156E-03-1.61743E-02 7.42911E-26 6.38978E-04-2.70129E-13 1.54375E-14
 -1        58 3.81880E-03-1.78127E-02 2.04129E-25 4.72015E-04-1.67293E-13-3.05865E-13
 -1        59 4.12002E-03-1.92024E-02 3.80258E-25 4.81346E-04-1.58537E-14-4.43821E-13
 -1        60 4.49139E-03-2.09582E-02 2.85603E-25 6.74798E-04 9.33693E-14-3.70821E-13
 -1        61 5.04156E-03-2.33370E-02 1.38161E-25 8.34832E-04 9.84334E-14-2.47891E-13
 -1        62 5.59163E-03-2.58065E-02 8.45568E-26 7.31868E-04 3.83086E-14-2.05016E-13
 -1        63 5.94942E-03-2.74919E-02 1.38005E-25 4.08459E-04 6.55126E-15-2.69066E-13
 -1        64 6.04033E-03-2.81224E-02 3.35652E-25 1.70022E-04 4.57598E-14-4.12279E-13
 -1        65 6.09400E-03-2.84574E-02 3.80408E-25 2.96906E-04 1.24273E-13-4.22611E-13
 -1        66 6.32102E-03-2.97366E-02 2.48811E-25 7.65883E-04 1.98400E-13-3.03259E-13
 -1        67 6.99049E-03-3.26544E-02 8.78763E-26 1.40850E-03 2.06514E-13-9.49109E-14
 -1        68 7.49447E-03-3.74197E-02 4.03930E-26 1.49144E-03 1.29983E-13 8.78538E-14
 -1        69 1.08250E-02-4.16092E-02 1.96767E-26 3.69403E-03 3.06962E-14 1.05077E-13
 -1        70 5.85367E-05-8.53221E-04 1.26710E-25 4.03139E-04 2.67713E-13 9.81894E-14
 -1        71 4.36845E-04-2.57393E-03 4.11964E-25 7.71529E-04 2.83807E-13 3.82908E-13
 -1        72 1.03227E-03-5.20787E-03 8.17964E-25 9.98368E-04 2.28036E-13 6.08696E-13
 -1        73 1.70656E-03-8.24850E-03 1.22960E-24 1.04142E-03 9.44695E-14 7.84222E-13
 -1        74 2.36234E-03-1.12516E-02 1.03904E-24 9.71180E-04-9.38348E-14 7.27512E-13
 -1        75 2.94326E-03-1.39616E-02 3.94042E-25 8.34578E-04-2.40919E-13 4.18718E-13
 -1        76 3.45156E-03-1.61743E-02 7.42830E-26 6.38978E-04-2.70116E-13 1.54329E-14
 -1        77 3.81880E-03-1.78127E-02 2.04162E-25 4.72015E-04-1.67314E-13-3.05882E-13
 -1        78 4.12002E-03-1.92024E-02 3.80244E-25 4.81346E-04-1.58431E-14-4.43814E-13
 -1        79 4.49139E-03-2.09582E-02 2.85633E-25 6.74798E-04 9.33642E-14-3.70844E-13
 -1        80 5.04156E-03-2.33370E-02 1.38151E-25 8.34832E-04 9.84299E-14-2.47885E-13
 -1        81 5.59163E-03-2.58065E-02 8.45566E-26 7.31868E-04 3.83086E-14-2.05016E-13
 -1        82 5.94942E-03-2.74919E-02 1.38006E-25 4.08459E-04 6.55122E-15-2.69066E-13
 -1        83 6.04033E-03-2.81224E-02 3.35666E-25 1.70022E-04 4.57595E-14-4.12287E-13
 -1        84 6.09400E-03-2.84574E-02 3.80391E-25 2.96906E-04 1.24270E-13-4.22602E-13
 -1        85 6.32102E-03-2.97366E-02 2.48811E-25 7.65883E-04 1.98397E-13-3.03259E-13
 -1        86 6.99049E-03-3.26544E-02 8.78786E-26 1.40850E-03 2.06515E-13-9.49138E-14
 -1        87 7.49447E-03-3.74197E-02 4.03930E-26 1.49144E-03 1.29983E-13 8.78538E-14
 -1        88 1.08250E-02-4.16092E-02 1.96767E-26 3.69403E-03 3.06962E-14 1.05077E-13
 -1        89 2.06575E-04-2.11848E-03 3.05818E-26 1.75624E-03 1.49613E-14 1.28707E-13
 -1        90 1.09244E-04-1.88716E-03 1.94404E-26 2.45315E-03 4.15390E-14 1.12176E-13
 -1        91 2.35351E-04-1.75958E-03-8.76568E-28 1.72005E-03 5.89306E-14-8.32416E-14
 -1        92 2.69263E-04-1.69140E-03 1.73578E-25 9.96600E-04 6.25319E-14-3.01519E-13
 -1        93 2.82115E-04-1.66715E-03 3.58123E-25 3.64849E-04 6.50597E-14-4.20268E-13
 -1        94 2.43842E-04-1.66604E-03 3.48631E-25 2.05980E-04 6.81843E-14-4.13747E-13
 -1        95 2.82487E-04-1.64868E-03 1.59055E-25 5.24073E-04 5.35602E-14-2.81366E-13
 -1        96 2.82925E-04-1.56313E-03 7.37383E-26 9.55964E-04 4.39355E-14-1.89197E-13
 -1        97 2.66003E-04-1.39765E-03 1.12661E-25 1.09803E-03 5.61799E-14-2.34523E-13
 -1        98 1.91484E-04-1.19998E-03 2.69871E-25 8.91779E-04 6.51553E-14-3.64735E-13
 -1        99 1.71957E-04-1.01586E-03 4.39648E-25 6.37127E-04 5.13012E-14-4.69102E-13
 -1       100 1.11221E-04-8.36883E-04 1.82065E-25 6.22303E-04 3.54429E-14-3.30261E-13
 -1       101 4.82732E-05-6.42359E-04-7.94957E-26 8.39058E-04 3.31719E-14 2.27892E-14
 -1       102-3.21388E-05-4.51608E-04 3.37548E-25 1.09445E-03 4.76438E-14 4.51139E-13
 -1       103-3.74580E-05-2.92371E-04 1.13717E-24 1.27356E-03 6.22477E-14 7.59183E-13
 -1       104-6.73119E-05-1.60084E-04 1.33239E-24 1.36506E-03 6.41156E-14 8.15635E-13
 -1       105-9.45398E-05-4.89726E-05 7.52160E-25 1.30710E-03 6.33537E-14 6.21375E-13
 -1       106-1.27716E-04 3.10610E-05 2.14814E-25 1.01165E-03 4.08672E-14 3.53979E-13
 -1       107-1.19308E-04 7.74157E-05-5.53185E-27 5.27017E-04 4.46065E-14 1.17684E-13
 -1       108-1.19308E-04 7.74157E-05-5.53489E-27 5.27017E-04 4.46136E-14 1.17676E-13
 -1       109-1.27716E-04 3.10610E-05 2.14837E-25 1.01165E-03 4.08694E-14 3.53991E-13
 -1       110-9.45398E-05-4.89726E-05 7.52131E-25 1.30710E-03 6.33483E-14 6.21360E-13
 -1       111-6.73119E-05-1.60084E-04 1.33236E-24 1.36506E-03 6.41136E-14 8.15627E-13
 -1       112-3.74580E-05-2.92371E-04 1.13716E-24 1.27356E-03 6.22441E-14 7.59180E-13
 -1       113-3.21388E-05-4.51608E-04 3.37510E-25 1.09445E-03 4.76376E-14 4.51115E-13
 -1       114 4.82732E-05-6.42359E-04-7.94826E-26 8.39058E-04 3.31686E-14 2.27984E-14
 -1       115 1.11221E-04-8.36883E-04 1.82055E-25 6.22303E-04 3.54478E-14-3.30253E-13
 -1       116 1.71957E-04-1.01586E-03 4.39631E-25 6.37127E-04 5.13035E-14-4.69092E-13
 -1       117 1.91484E-04-1.19998E-03 2.69878E-25 8.91779E-04 6.51533E-14-3.64741E-13
 -1       118 2.66003E-04-1.39765E-03 1.12657E-25 1.09803E-03 5.61809E-14-2.34519E-13
 -1       119 2.82925E-04-1.56313E-03 7.37386E-26 9.55964E-04 4.39355E-14-1.89197E-13
 -1       120 2.82487E-04-1.64868E-03 1.59054E-25 5.24073E-04 5.35599E-14-2.81366E-13
 -1       121 2.43842E-04-1.66604E-03 3.48645E-25 2.05980E-04 6.81812E-14-4.13756E-13
 -1       122 2.82115E-04-1.66715E-03 3.58124E-25 3.64849E-04 6.50609E-14-4.20268E-13
 -1       123 2.69263E-04-1.69140E-03 1.73577E-25 9.96600E-04 6.25325E-14-3.01518E-13
 -1       124 2.35351E-04-1.75958E-03-8.76689E-28 1.72005E-03 5.89306E-14-8.32414E-14
 -1       125 1.09244E-04-1.88716E-03 1.94404E-26 2.45315E-03 4.15390E-14 1.12176E-13
 -1       126 2.06575E-04-2.11848E-03 3.05818E-26 1.75624E-03 1.49613E-14 1.28707E-13
 -3
    1PSTEP                       276          69           1          
  100CL  169 6.90000E-01         126                     1   69           1
 -4  ERROR       1    1
 -5  STR(%)      1    1    0    0
 -1         1 6.70469E+01
 -1         2 6.70469E+01
 -1         3 5.57723E+01
 -1         4 5.57723E+01
 -1         5 3.88880E+01
 -1         6 3.88880E+01
 -1         7 5.75902E+01
 -1         8 5.75902E+01
 -1         9 5.57723E+01
 -1        10 5.57723E+01
 -1        11 6.70469E+01
 -1        12 6.70469E+01
 -1        13 6.70469E+01
 -1        14 6.71557E+01
 -1        15 6.71557E+01
 -1        16 6.69566E+01
 -1        17 6.61491E+01
 -1        18 6.56965E+01
 -1        19 6.66921E+01
 -1        20 6.74326E+01
 -1        21 6.74896E+01
 -1        22 6.74896E+01
 -1        23 6.65559E+01
 -1        24 6.57504E+01
 -1        25 6.56856E+01
 -1        26 6.56856E+01
 -1        27 6.53873E+01
 -1        28 6.47794E+01
 -1        29 6.23463E+01
 -1        30 5.61636E+01
 -1        31 5.57723E+01
 -1        32 6.70469E+01
 -1        33 6.71557E+01
 -1        34 6.71557E+01
 -1        35 6.69566E+01
 -1        36 6.61491E+01
 -1        37 6.56965E+01
 -1        38 6.66921E+01
 -1        39 6.74326E+01
 -1        40 6.74896E+01
 -1        41 6.74896E+01
 -1        42 6.65559E+01
 -1        43 6.57504E+01
 -1        44 6.56856E+01
 -1        45 6.56856E+01
 -1        46 6.53873E+01
 -1        47 6.47794E+01
 -1        48 6.23463E+01
 -1        49 5.61636E+01
 -1        50 5.57723E+01
 -1        51 4.18057E+01
 -1        52 5.29301E+01
 -1        53 5.83288E+01
 -1        54 5.95518E+01
 -1        55 5.95518E+01
 -1        56 5.91613E+01
 -1        57 5.81318E+01
 -1        58 5.69780E+01
 -1        59 5.61692E+01
 -1        60 5.60192E+01
 -1        61 5.59907E+01
 -1        62 5.57614E+01
 -1        63 5.52383E+01
 -1        64 5.46868E+01
 -1        65 5.52501E+01
 -1        66 5.60838E+01
 -1        67 5.66375E+01
 -1        68 5.66375E+01
 -1        69 5.75902E+01
 -1        70 4.18057E+01
 -1        71 5.29301E+01
 -1        72 5.83288E+01
 -1        73 5.95518E+01
 -1        74 5.95518E+01
 -1        75 5.91613E+01
 -1        76 5.81318E+01
 -1        77 5.69780E+01
 -1        78 5.61692E+01
 -1        79 5.60192E+01
 -1        80 5.59907E+01
 -1        81 5.57614E+01
 -1        82 5.52383E+01
 -1        83 5.46868E+01
 -1        84 5.52501E+01
 -1        85 5.60838E+01
 -1        86 5.66375E+01
 -1        87 5.66375E+01
 -1        88 5.75902E+01
 -1        89 6.70469E+01
 -1        90 6.71557E+01
 -1        91 6.71557E+01
 -1        92 6.69566E+01
 -1        93 6.61491E+01
 -1        94 6.56965E+01
 -1        95 6.66921E+01
 -1        96 6.74326E+01
 -1        97 6.74896E+01
 -1        98 6.74896E+01
 -1        99 6.65559E+01
 -1       100 6.57504E+01
 -1       101 6.56856E+01
 -1       102 6.56856E+01
 -1       103 6.53873E+01
 -1       104 6.47794E+01
 -1       105 6.23463E+01
 -1       106 5.61636E+01
 -1       107 5.57723E+01
 -1       108 5.57723E+01
 -1       109 5.61636E+01
 -1       110 6.23463E+01
 -1       111 6.47794E+01
 -1       112 6.53873E+01
 -1       113 6.56856E+01
 -1       114 6.56856E+01
 -1       115 6.57504E+01
 -1       116 6.65559E+01
 -1       117 6.74896E+01
 -1       118 6.74896E+01
 -1       119 6.74326E+01
 -1       120 6.66921E+01
 -1       121 6.56965E+01
 -1       122 6.61491E+01
 -1       123 6.69566E+01
 -1       124 6.71557E+01
 -1       125 6.71557E+01
 -1       126 6.70469E+01
 -3
    1PSTEP                       277          70           1          
  100CL  170 7.00000E-01         126                     1   70           1
 -4  DISP        4    1
 -5  D1          1    2    1    0
 -5  D2          1    2    2    0
 -5  D3          1    2    3    0
 -5  ALL         1    2    0    0    1ALL
 -1         1 0.00000E+00 0.00000E+00 0.00000E+00
 -1         2 0.00000E+00 0.00000E+00 0.00000E+00
 -1         3 2.69893E-01-2.48731E-02 0.00000E+00
 -1         4 2.69893E-01-2.48731E-02 0.00000E+00
 -1         5 2.61851E-01-6.41416E-02 0.00000E+00
 -1         6 2.61851E-01-6.41416E-02 0.00000E+00
 -1         7 0.00000E+00 0.00000E+00 0.00000E+00
 -1         8 0.00000E+00 0.00000E+00 0.00000E+00
 -1         9 2.65869E-01-4.45046E-02 0.00000E+00
 -1        10 2.65869E-01-4.45046E-02 0.00000E+00
 -1        11 0.00000E+00 0.00000E+00 0.00000E+00
 -1        12 0.00000E+00 0.00000E+00 0.00000E+00
 -1        13 1.64400E-03 1.98464E-03 0.00000E+00
 -1        14 5.08849E-03 3.76279E-03 0.00000E+00
 -1        15 1.04549E-02 5.09516E-03 0.00000E+00
 -1        16 1.73400E-02 6.02551E-03 0.00000E+00
 -1        17 2.55273E-02 6.63047E-03 0.00000E+00
 -1        18 3.49703E-02 6.98733E-03 0.00000E+00
 -1        19 4.57317E-02 7.09820E-03 0.00000E+00
 -1        20 5.78744E-02 6.88824E-03 0.00000E+00
 -1        21 7.13461E-02 6.27342E-03 0.00000E+00
 -1        22 8.60153E-02 5.20879E-03 0.00000E+00
 -1        23 1.01717E-01 3.69728E-03 0.00000E+00
 -1        24 1.18314E-01 1.76443E-03 0.00000E+00
 -1        25 1.35681E-01-5.49399E-04 0.00000E+00
 -1        26 1.53728E-01-3.21270E-03 0.00000E+00
 -1        27 1.72366E-01-6.20852E-03 0.00000E+00
 -1        28 1.91484E-01-9.52547E-03 0.00000E+00
 -1        29 2.10928E-01-1.31221E-02 0.00000E+00
 -1        30 2.30551E-01-1.69306E-02 0.00000E+00
 -1        31 2.50231E-01-2.08729E-02 0.00000E+00
 -1        32 1.64400E-03 1.98464E-03 0.00000E+00
 -1        33 5.08849E-03 3.76279E-03 0.00000E+00
 -1        34 1.04549E-02 5.09516E-03 0.00000E+00
 -1        35 1.73400E-02 6.02551E-03 0.00000E+00
 -1        36 2.55273E-02 6.63047E-03 0.00000E+00
 -1        37 3.49703E-02 6.98733E-03 0.00000E+00
 -1        38 4.57317E-02 7.09820E-03 0.00000E+00
 -1        39 5.78744E-02 6.88824E-03 0.00000E+00
 -1        40 7.13461E-02 6.27342E-03 0.00000E+00
 -1        41 8.60153E-02 5.20879E-03 0.00000E+00
 -1        42 1.01717E-01 3.69728E-03 0.00000E+00
 -1        43 1.18314E-01 1.76443E-03 0.00000E+00
 -1        44 1.35681E-01-5.49399E-04 0.00000E+00
 -1        45 1.53728E-01-3.21270E-03 0.00000E+00
 -1        46 1.72366E-01-6.20852E-03 0.00000E+00
 -1        47 1.91484E-01-9.52547E-03 0.00000E+00
 -1        48 2.10928E-01-1.31221E-02 0.00000E+00
 -1        49 2.30551E-01-1.69306E-02 0.00000E+00
 -1        50 2.50231E-01-2.08729E-02 0.00000E+00
 -1        51 2.42207E-01-6.00955E-02 0.00000E+00
 -1        52 2.22599E-01-5.59893E-02 0.00000E+00
 -1        53 2.03136E-01-5.18215E-02 0.00000E+00
 -1        54 1.83950E-01-4.76165E-02 0.00000E+00
 -1        55 1.65192E-01-4.34252E-02 0.00000E+00
 -1        56 1.46995E-01-3.93144E-02 0.00000E+00
 -1        57 1.29452E-01-3.53390E-02 0.00000E+00
 -1        58 1.12633E-01-3.15228E-02 0.00000E+00
 -1        59 9.66275E-02-2.78723E-02 0.00000E+00
 -1        60 8.15556E-02-2.43947E-02 0.00000E+00
 -1        61 6.75527E-02-2.11074E-02 0.00000E+00
 -1        62 5.47459E-02-1.80407E-02 0.00000E+00
 -1        63 4.32315E-02-1.52397E-02 0.00000E+00
 -1        64 3.30258E-02-1.27388E-02 0.00000E+00
 -1        65 2.40685E-02-1.05188E-02 0.00000E+00
 -1        66 1.63014E-02-8.48528E-03 0.00000E+00
 -1        67 9.79593E-03-6.50222E-03 0.00000E+00
 -1        68 4.75396E-03-4.45590E-03 0.00000E+00
 -1        69 1.56883E-03-2.24668E-03 0.00000E+00
 -1        70 2.42207E-01-6.00955E-02 0.00000E+00
 -1        71 2.22599E-01-5.59893E-02 0.00000E+00
 -1        72 2.03136E-01-5.18215E-02 0.00000E+00
 -1        73 1.83950E-01-4.76165E-02 0.00000E+00
 -1        74 1.65192E-01-4.34252E-02 0.00000E+00
 -1        75 1.46995E-01-3.93144E-02 0.00000E+00
 -1        76 1.29452E-01-3.53390E-02 0.00000E+00
 -1        77 1.12633E-01-3.15228E-02 0.00000E+00
 -1        78 9.66275E-02-2.78723E-02 0.00000E+00
 -1        79 8.15556E-02-2.43947E-02 0.00000E+00
 -1        80 6.75527E-02-2.11074E-02 0.00000E+00
 -1        81 5.47459E-02-1.80407E-02 0.00000E+00
 -1        82 4.32315E-02-1.52397E-02 0.00000E+00
 -1        83 3.30258E-02-1.27388E-02 0.00000E+00
 -1        84 2.40685E-02-1.05188E-02 0.00000E+00
 -1        85 1.63014E-02-8.48528E-03 0.00000E+00
 -1        86 9.79593E-03-6.50222E-03 0.00000E+00
 -1        87 4.75396E-03-4.45590E-03 0.00000E+00
 -1        88 1.56883E-03-2.24668E-03 0.00000E+00
 -1        89 1.06213E-03-1.07925E-04 0.00000E+00
 -1        90 4.54186E-03-3.08860E-04 0.00000E+00
 -1        91 9.78626E-03-6.58072E-04 0.00000E+00
 -1        92 1.65260E-02-1.18367E-03 0.00000E+00
 -1        93 2.45192E-02-1.89516E-03 0.00000E+00
 -1        94 3.37172E-02-2.81915E-03 0.00000E+00
 -1        95 4.41995E-02-4.00523E-03 0.00000E+00
 -1        96 5.60366E-02-5.50481E-03 0.00000E+00
 -1        97 6.91963E-02-7.34421E-03 0.00000E+00
 -1        98 8.35585E-02-9.52153E-03 0.00000E+00
 -1        99 9.89741E-02-1.20203E-02 0.00000E+00
 -1       100 1.15300E-01-1.48176E-02 0.00000E+00
 -1       101 1.32414E-01-1.78880E-02 0.00000E+00
 -1       102 1.50229E-01-2.12123E-02 0.00000E+00
 -1       103 1.68670E-01-2.47732E-02 0.00000E+00
 -1       104 1.87636E-01-2.85381E-02 0.00000E+00
 -1       105 2.06979E-01-3.24505E-02 0.00000E+00
 -1       106 2.26546E-01-3.64485E-02 0.00000E+00
 -1       107 2.46208E-01-4.04797E-02 0.00000E+00
 -1       108 2.46208E-01-4.04797E-02 0.00000E+00
 -1       109 2.26546E-01-3.64485E-02 0.00000E+00
 -1       110 2.06979E-01-3.24505E-02 0.00000E+00
 -1       111 1.87636E-01-2.85381E-02 0.00000E+00
 -1       112 1.68670E-01-2.47732E-02 0.00000E+00
 -1       113 1.50229E-01-2.12123E-02 0.00000E+00
 -1       114 1.32414E-01-1.78880E-02 0.00000E+00
 -1       115 1.15300E-01-1.48176E-02 0.00000E+00
 -1       116 9.89741E-02-1.20203E-02 0.00000E+00
 -1       117 8.35585E-02-9.52153E-03 0.00000E+00
 -1       118 6.91963E-02-7.34421E-03 0.00000E+00
 -1       119 5.60366E-02-5.50481E-03 0.00000E+00
 -1       120 4.41995E-02-4.00523E-03 0.00000E+00
 -1       121 3.37172E-02-2.81915E-03 0.00000E+00
 -1       122 2.45192E-02-1.89516E-03 0.00000E+00
 -1       123 1.65260E-02-1.18367E-03 0.00000E+00
 -1       124 9.78626E-03-6.58072E-04 0.00000E+00
 -1       125 4.54186E-03-3.08860E-04 0.00000E+00
 -1       126 1.06213E-03-1.07925E-04 0.00000E+00
 -3
    1PSTEP                       278          70           1          
  100CL  170 7.00000E-01         126                     1   70           1
 -4  STRESS      6    1
 -5  SXX         1    4    1    1
 -5  SYY         1    4    2    2
 -5  SZZ         1    4    3    3
 -5  SXY         1    4    1    2
 -5  SYZ         1    4    2    3
 -5  SZX         1    4    3    1
 -1         1 9.37526E+03 2.25860E+04 9.10308E+03 5.69431E+03-1.65384E-10-2.09243E-10
 -1         2 9.37526E+03 2.25860E+04 9.10308E+03 5.69431E+03-1.65384E-10-2.09243E-10
 -1         3 1.05129E+02 1.65998E+02 8.12695E+01 1.17281E+02-4.44829E-08-2.20437E-08
 -1         4 1.05129E+02 1.65998E+02 8.12695E+01 1.17281E+02-4.44834E-08-2.20181E-08
 -1         5-9.53756E+01-2.71692E+02-1.10184E+02-1.36907E+01 1.00730E-07 2.25392E-08
 -1         6-9.53756E+01-2.71692E+02-1.10184E+02-1.36907E+01 1.00730E-07 2.25392E-08
 -1         7-1.02692E+04-2.26949E+04-1.04916E+04 4.16909E+03-1.87175E-10 2.21461E-10
 -1         8-1.02692E+04-2.26949E+04-1.04916E+04 4.16909E+03-1.87175E-10 2.21457E-10
 -1         9 2.94027E+01-5.63778E+01-8.10312E+00 7.08964E+01 2.34966E-08-6.25140E-09
 -1        10 2.94027E+01-5.63778E+01-8.10312E+00 7.08964E+01 2.34977E-08-6.29921E-09
 -1        11-3.78048E+02-1.40670E+03-4.46207E+02 3.23919E+03-1.53287E-10-7.34178E-12
 -1        12-3.78048E+02-1.40670E+03-4.46207E+02 3.23919E+03-1.53287E-10-7.33444E-12
 -1        13 3.45326E+03 1.94252E+04 6.53383E+03 1.82886E+03-1.65277E-08-2.40498E-08
 -1        14 4.25605E+03 1.77448E+04 6.31354E+03 1.65449E+03-1.71061E-08-4.95156E-08
 -1        15 3.66345E+03 1.49514E+04 5.37794E+03 1.87750E+03-1.12445E-08-6.87145E-08
 -1        16 3.35955E+03 1.31243E+04 4.78564E+03 1.78280E+03 2.43762E-09-9.33576E-08
 -1        17 3.18214E+03 1.22767E+04 4.49709E+03 1.73573E+03 1.93584E-08-1.06967E-07
 -1        18 3.17302E+03 1.21455E+04 4.45514E+03 1.87037E+03 3.09706E-08-1.03646E-07
 -1        19 3.33608E+03 1.21025E+04 4.48790E+03 2.15178E+03 2.81056E-08-8.77122E-08
 -1        20 3.43217E+03 1.16121E+04 4.37664E+03 2.42324E+03 1.97422E-08-9.31882E-08
 -1        21 3.38774E+03 1.06447E+04 4.09081E+03 2.53839E+03 2.80620E-08-1.29775E-07
 -1        22 3.17703E+03 9.42506E+03 3.68430E+03 2.48695E+03 6.12370E-08-1.66343E-07
 -1        23 2.95124E+03 8.22994E+03 3.27872E+03 2.32232E+03 9.32211E-08-1.36508E-07
 -1        24 2.68007E+03 7.14604E+03 2.88934E+03 2.12970E+03 1.07795E-07-7.16211E-08
 -1        25 2.41530E+03 6.20316E+03 2.54006E+03 1.94285E+03 8.92833E-08 2.56177E-08
 -1        26 2.13208E+03 5.27791E+03 2.18852E+03 1.76453E+03 4.56806E-08 1.15969E-07
 -1        27 1.85779E+03 4.25818E+03 1.81082E+03 1.53780E+03-1.40908E-08 1.77237E-07
 -1        28 1.47612E+03 3.09206E+03 1.35664E+03 1.23983E+03-6.37619E-08 1.83180E-07
 -1        29 1.02567E+03 1.94618E+03 8.85336E+02 8.83409E+02-8.80824E-08 1.48290E-07
 -1        30 5.73729E+02 9.89143E+02 4.66865E+02 5.35864E+02-8.84247E-08 9.62255E-08
 -1        31 2.37592E+02 3.72353E+02 1.82593E+02 2.45206E+02-7.53941E-08 4.30813E-08
 -1        32 3.45326E+03 1.94252E+04 6.53383E+03 1.82886E+03-1.65277E-08-2.40498E-08
 -1        33 4.25605E+03 1.77448E+04 6.31354E+03 1.65449E+03-1.71061E-08-4.95156E-08
 -1        34 3.66345E+03 1.49514E+04 5.37794E+03 1.87750E+03-1.12444E-08-6.87142E-08
 -1        35 3.35955E+03 1.31243E+04 4.78564E+03 1.78280E+03 2.43759E-09-9.33575E-08
 -1        36 3.18214E+03 1.22767E+04 4.49709E+03 1.73573E+03 1.93583E-08-1.06968E-07
 -1        37 3.17302E+03 1.21455E+04 4.45514E+03 1.87037E+03 3.09705E-08-1.03647E-07
 -1        38 3.33608E+03 1.21025E+04 4.48790E+03 2.15178E+03 2.81056E-08-8.77047E-08
 -1        39 3.43217E+03 1.16121E+04 4.37664E+03 2.42324E+03 1.97422E-08-9.31884E-08
 -1        40 3.38774E+03 1.06447E+04 4.09081E+03 2.53839E+03 2.80621E-08-1.29776E-07
 -1        41 3.17703E+03 9.42506E+03 3.68430E+03 2.48695E+03 6.12370E-08-1.66343E-07
 -1        42 2.95124E+03 8.22994E+03 3.27872E+03 2.32232E+03 9.32209E-08-1.36509E-07
 -1        43 2.68007E+03 7.14604E+03 2.88934E+03 2.12970E+03 1.07795E-07-7.16216E-08
 -1        44 2.41530E+03 6.20316E+03 2.54006E+03 1.94285E+03 8.92829E-08 2.56196E-08
 -1        45 2.13208E+03 5.27791E+03 2.18852E+03 1.76453E+03 4.56803E-08 1.15972E-07
 -1        46 1.85779E+03 4.25818E+03 1.81082E+03 1.53780E+03-1.40908E-08 1.77237E-07
 -1        47 1.47612E+03 3.09206E+03 1.35664E+03 1.23983E+03-6.37619E-08 1.83176E-07
 -1        48 1.02567E+03 1.94618E+03 8.85336E+02 8.83409E+02-8.80832E-08 1.48304E-07
 -1        49 5.73729E+02 9.89143E+02 4.66865E+02 5.35864E+02-8.84252E-08 9.62218E-08
 -1        50 2.37592E+02 3.72353E+02 1.82593E+02 2.45206E+02-7.53906E-08 4.30848E-08
 -1        51-1.72980E+02-6.19845E+02-2.38332E+02-6.16268E+01 5.77853E-08 8.97433E-08
 -1        52-4.04102E+02-1.46419E+03-5.63058E+02-2.42953E+02 1.45487E-08 1.33812E-07
 -1        53-7.74577E+02-2.59257E+03-1.01817E+03-5.35320E+02-2.51733E-08 1.75079E-07
 -1        54-1.22816E+03-3.85290E+03-1.54228E+03-8.89922E+02-6.46379E-08 1.82191E-07
 -1        55-1.68864E+03-5.06222E+03-2.05659E+03-1.24254E+03-9.15016E-08 1.48096E-07
 -1        56-2.08905E+03-6.11430E+03-2.50674E+03-1.52600E+03-9.36434E-08 6.98964E-08
 -1        57-2.38957E+03-7.05909E+03-2.89505E+03-1.72685E+03-6.42474E-08-3.81052E-08
 -1        58-2.66142E+03-8.06232E+03-3.29519E+03-1.87804E+03-1.90785E-08-1.19192E-07
 -1        59-2.95360E+03-9.20628E+03-3.74891E+03-2.01888E+03 2.82764E-08-1.62632E-07
 -1        60-3.27033E+03-1.04455E+04-4.24387E+03-2.14811E+03 6.06003E-08-1.62186E-07
 -1        61-3.53658E+03-1.16070E+04-4.70173E+03-2.24185E+03 6.51552E-08-1.28699E-07
 -1        62-3.71453E+03-1.24660E+04-5.03615E+03-2.25920E+03 4.39653E-08-9.30577E-08
 -1        63-3.74381E+03-1.28285E+04-5.16203E+03-2.16257E+03 2.45790E-08-9.20293E-08
 -1        64-3.64923E+03-1.28100E+04-5.12304E+03-1.92940E+03 1.91486E-08-9.92008E-08
 -1        65-3.53368E+03-1.29083E+04-5.11507E+03-1.59233E+03 2.97778E-08-1.11126E-07
 -1        66-3.62326E+03-1.37494E+04-5.41553E+03-1.23195E+03 3.65432E-08-9.04927E-08
 -1        67-3.93283E+03-1.54997E+04-6.08976E+03-8.84779E+02 3.06339E-08-6.08681E-08
 -1        68-4.82706E+03-1.81220E+04-7.24672E+03-6.48584E+02 2.34385E-08-4.73857E-08
 -1        69-3.91396E+03-1.95211E+04-7.44520E+03 3.39029E+02 1.48426E-08-2.17539E-08
 -1        70-1.72980E+02-6.19845E+02-2.38332E+02-6.16268E+01 5.77881E-08 8.97507E-08
 -1        71-4.04102E+02-1.46419E+03-5.63058E+02-2.42953E+02 1.45484E-08 1.33809E-07
 -1        72-7.74577E+02-2.59257E+03-1.01817E+03-5.35320E+02-2.51742E-08 1.75080E-07
 -1        73-1.22816E+03-3.85290E+03-1.54228E+03-8.89922E+02-6.46411E-08 1.82206E-07
 -1        74-1.68864E+03-5.06222E+03-2.05659E+03-1.24254E+03-9.15015E-08 1.48088E-07
 -1        75-2.08905E+03-6.11430E+03-2.50674E+03-1.52600E+03-9.36432E-08 6.98966E-08
 -1        76-2.38957E+03-7.05909E+03-2.89505E+03-1.72685E+03-6.42471E-08-3.81052E-08
 -1        77-2.66142E+03-8.06232E+03-3.29519E+03-1.87804E+03-1.90784E-08-1.19193E-07
 -1        78-2.95360E+03-9.20628E+03-3.74891E+03-2.01888E+03 2.82761E-08-1.62628E-07
 -1        79-3.27033E+03-1.04455E+04-4.24387E+03-2.14811E+03 6.06007E-08-1.62178E-07
 -1        80-3.53658E+03-1.16070E+04-4.70173E+03-2.24185E+03 6.51536E-08-1.28706E-07
 -1        81-3.71453E+03-1.24660E+04-5.03615E+03-2.25920E+03 4.39653E-08-9.30578E-08
 -1        82-3.74381E+03-1.28285E+04-5.16203E+03-2.16257E+03 2.45791E-08-9.20284E-08
 -1        83-3.64923E+03-1.28100E+04-5.12304E+03-1.92940E+03 1.91477E-08-9.92005E-08
 -1        84-3.53368E+03-1.29083E+04-5.11507E+03-1.59233E+03 2.97780E-08-1.11127E-07
 -1        85-3.62326E+03-1.37494E+04-5.41553E+03-1.23195E+03 3.65431E-08-9.04926E-08
 -1        86-3.93283E+03-1.54997E+04-6.08976E+03-8.84779E+02 3.06342E-08-6.08680E-08
 -1        87-4.82706E+03-1.81220E+04-7.24672E+03-6.48584E+02 2.34386E-08-4.73857E-08
 -1        88-3.91396E+03-1.95211E+04-7.44520E+03 3.39029E+02 1.48426E-08-2.17539E-08
 -1        89-6.76742E+01-1.31373E+03-3.87245E+02 4.40362E+02-1.43589E-10-2.17275E-08
 -1        90-9.18099E+01-1.22350E+03-3.50164E+02 7.15146E+02 3.88959E-09-4.81771E-08
 -1        91-2.19263E+01-1.07040E+03-2.96200E+02 5.20298E+02 1.06329E-08-6.36856E-08
 -1        92-5.43354E+01-9.46516E+02-2.73149E+02 2.63888E+02 1.98847E-08-9.52169E-08
 -1        93-1.25461E+02-8.48629E+02-2.68544E+02-1.33998E+01 2.88480E-08-1.09333E-07
 -1        94-1.95135E+02-8.32943E+02-2.87076E+02-1.54203E+02 2.77293E-08-1.00797E-07
 -1        95-1.58642E+02-8.69370E+02-2.88535E+02-1.32239E+02 2.50551E-08-8.86165E-08
 -1        96-9.02019E+01-9.24175E+02-2.85763E+02-2.30253E+01 3.09525E-08-9.05008E-08
 -1        97-1.66096E+01-9.26430E+02-2.66275E+02 7.32211E+01 4.77874E-08-1.28722E-07
 -1        98 1.39670E+01-8.82695E+02-2.46727E+02 1.21297E+02 6.28856E-08-1.71031E-07
 -1        99 5.23855E+01-7.94071E+02-2.11318E+02 1.20187E+02 6.01493E-08-1.59806E-07
 -1       100 5.18904E+01-7.04188E+02-1.86919E+02 1.01345E+02 4.23842E-08-1.01471E-07
 -1       101 5.24915E+01-6.19476E+02-1.63493E+02 9.23994E+01 1.34961E-08-7.35585E-09
 -1       102 6.82927E+01-5.72288E+02-1.46680E+02 1.21878E+02-2.54118E-08 9.51679E-08
 -1       103 1.40610E+02-5.35595E+02-1.15712E+02 1.73556E+02-5.81986E-08 1.69275E-07
 -1       104 1.85349E+02-4.91422E+02-9.03670E+01 2.18811E+02-6.87222E-08 1.90980E-07
 -1       105 1.86579E+02-4.04034E+02-6.46774E+01 2.25120E+02-6.01901E-08 1.64888E-07
 -1       106 1.38564E+02-2.88502E+02-4.48781E+01 1.93526E+02-3.87391E-08 1.19526E-07
 -1       107 6.91766E+01-1.44219E+02-2.25106E+01 1.22960E+02-1.20666E-08 6.55598E-08
 -1       108 6.91766E+01-1.44219E+02-2.25106E+01 1.22960E+02-1.20708E-08 6.55396E-08
 -1       109 1.38564E+02-2.88502E+02-4.48781E+01 1.93526E+02-3.87380E-08 1.19532E-07
 -1       110 1.86579E+02-4.04034E+02-6.46774E+01 2.25120E+02-6.01898E-08 1.64884E-07
 -1       111 1.85349E+02-4.91422E+02-9.03670E+01 2.18811E+02-6.87218E-08 1.90985E-07
 -1       112 1.40610E+02-5.35595E+02-1.15712E+02 1.73556E+02-5.81987E-08 1.69278E-07
 -1       113 6.82927E+01-5.72288E+02-1.46680E+02 1.21878E+02-2.54120E-08 9.51670E-08
 -1       114 5.24915E+01-6.19476E+02-1.63493E+02 9.23994E+01 1.34955E-08-7.36246E-09
 -1       115 5.18904E+01-7.04188E+02-1.86919E+02 1.01345E+02 4.23844E-08-1.01470E-07
 -1       116 5.23855E+01-7.94071E+02-2.11318E+02 1.20187E+02 6.01501E-08-1.59804E-07
 -1       117 1.39670E+01-8.82695E+02-2.46727E+02 1.21297E+02 6.28855E-08-1.71032E-07
 -1       118-1.66096E+01-9.26430E+02-2.66275E+02 7.32211E+01 4.77876E-08-1.28721E-07
 -1       119-9.02019E+01-9.24175E+02-2.85763E+02-2.30253E+01 3.09525E-08-9.05002E-08
 -1       120-1.58642E+02-8.69370E+02-2.88535E+02-1.32239E+02 2.50549E-08-8.86204E-08
 -1       121-1.95135E+02-8.32943E+02-2.87076E+02-1.54203E+02 2.77296E-08-1.00796E-07
 -1       122-1.25461E+02-8.48629E+02-2.68544E+02-1.33998E+01 2.88482E-08-1.09332E-07
 -1       123-5.43354E+01-9.46516E+02-2.73149E+02 2.63888E+02 1.98848E-08-9.52171E-08
 -1       124-2.19263E+01-1.07040E+03-2.96200E+02 5.20298E+02 1.06327E-08-6.36862E-08
 -1       125-9.18099E+01-1.22350E+03-3.50164E+02 7.15146E+02 3.88948E-09-4.81770E-08
 -1       126-6.76742E+01-1.31373E+03-3.87245E+02 4.40362E+02-1.43587E-10-2.17275E-08
 -3
    1PSTEP                       279          70           1          
  100CL  170 7.00000E-01         126                     1   70           1
 -4  TOSTRAIN    6    1
 -5  EXX         1    4    1    1
 -5  EYY         1    4    2    2
 -5  EZZ         1    4    3    3
 -5  EXY         1    4    1    2
 -5  EYZ         1    4    2    3
 -5  EZX         1    4    3    1
 -1         1-1.57060E-04 4.08630E-02-2.67273E-27 1.64398E-02 3.85180E-19-4.89191E-16
 -1         2-1.57060E-04 4.08630E-02-2.67273E-27 1.64398E-02 3.85180E-19-4.89191E-16
 -1         3-1.67422E-04 5.19673E-04 1.65462E-26 1.91817E-04-1.60985E-13-9.05516E-15
 -1         4-1.67422E-04 5.19673E-04 1.65455E-26 1.91817E-04-1.60954E-13-8.97796E-15
 -1         5-8.23503E-06-4.69049E-04 1.79275E-25 1.76536E-04 3.30059E-13-6.13361E-14
 -1         6-8.23503E-06-4.69049E-04 1.79273E-25 1.76536E-04 3.30056E-13-6.13349E-14
 -1         7-1.61215E-04-4.35918E-02-2.45325E-27 1.56881E-02-2.81387E-19 5.02386E-16
 -1         8-1.61215E-04-4.35918E-02-2.45324E-27 1.56881E-02-2.81681E-19 5.02373E-16
 -1         9-8.78286E-05 5.26779E-05-3.06512E-26 2.60019E-04 6.22387E-14-4.87116E-14
 -1        10-8.78286E-05 5.26779E-05-3.06496E-26 2.60019E-04 6.21807E-14-4.88559E-14
 -1        11-1.59137E-04-2.08962E-03-1.51599E-27 1.06212E-02 4.70644E-20-1.18484E-17
 -1        12-1.59137E-04-2.08962E-03-1.51599E-27 1.06212E-02 4.76133E-20-1.18247E-17
 -1        13-1.08375E-02 3.96498E-02 1.35682E-26 3.43319E-03-5.41452E-14-7.50228E-14
 -1        14-7.66942E-03 3.55517E-02 5.32978E-26 1.58985E-03-6.56678E-14-1.54412E-13
 -1        15-6.74636E-03 3.04278E-02 9.77869E-26 1.60420E-03-5.99136E-14-2.16073E-13
 -1        16-5.81797E-03 2.68542E-02 1.80957E-25 9.36575E-04-3.49698E-14-2.99592E-13
 -1        17-5.48023E-03 2.52293E-02 2.48706E-25 2.97588E-04 2.21665E-15-3.51440E-13
 -1        18-5.57056E-03 2.51308E-02 2.46700E-25-3.32702E-05 3.11160E-14-3.48366E-13
 -1        19-5.57549E-03 2.52811E-02 1.78599E-25 8.72274E-05 2.45135E-14-2.96753E-13
 -1        20-5.42014E-03 2.46311E-02 1.88705E-25 4.56099E-04-1.28771E-14-3.07756E-13
 -1        21-5.03205E-03 2.29744E-02 3.64676E-25 7.65456E-04-2.67573E-14-4.28583E-13
 -1        22-4.57286E-03 2.07133E-02 6.58275E-25 8.84772E-04 2.94238E-14-5.73005E-13
 -1        23-3.97849E-03 1.83259E-02 5.60708E-25 8.69408E-04 1.44067E-13-5.14910E-13
 -1        24-3.49458E-03 1.61236E-02 3.05555E-25 8.02857E-04 2.47707E-13-3.35392E-13
 -1        25-3.09622E-03 1.41870E-02 1.14467E-25 7.46536E-04 2.95463E-13-2.32221E-14
 -1        26-2.76156E-03 1.23074E-02 2.71444E-25 7.76177E-04 2.70095E-13 2.96807E-13
 -1        27-2.25595E-03 1.01462E-02 6.41858E-25 8.98533E-04 1.69556E-13 5.50364E-13
 -1        28-1.70921E-03 7.61310E-03 7.88471E-25 9.93594E-04 3.47913E-14 6.28469E-13
 -1        29-1.15478E-03 5.00255E-03 6.18415E-25 9.32534E-04-7.69531E-14 5.54863E-13
 -1        30-7.02552E-04 2.72916E-03 3.40951E-25 7.19593E-04-1.41903E-13 4.00215E-13
 -1        31-3.29620E-04 1.12155E-03 1.29128E-25 3.92147E-04-1.70237E-13 2.25026E-13
 -1        32-1.08375E-02 3.96498E-02 1.35682E-26 3.43319E-03-5.41452E-14-7.50228E-14
 -1        33-7.66942E-03 3.55517E-02 5.32978E-26 1.58985E-03-6.56678E-14-1.54412E-13
 -1        34-6.74636E-03 3.04278E-02 9.77862E-26 1.60420E-03-5.99135E-14-2.16073E-13
 -1        35-5.81797E-03 2.68542E-02 1.80957E-25 9.36575E-04-3.49698E-14-2.99592E-13
 -1        36-5.48023E-03 2.52293E-02 2.48710E-25 2.97588E-04 2.21585E-15-3.51443E-13
 -1        37-5.57056E-03 2.51308E-02 2.46706E-25-3.32702E-05 3.11147E-14-3.48371E-13
 -1        38-5.57549E-03 2.52811E-02 1.78570E-25 8.72274E-05 2.45189E-14-2.96730E-13
 -1        39-5.42014E-03 2.46311E-02 1.88706E-25 4.56099E-04-1.28772E-14-3.07757E-13
 -1        40-5.03205E-03 2.29744E-02 3.64679E-25 7.65456E-04-2.67575E-14-4.28584E-13
 -1        41-4.57286E-03 2.07133E-02 6.58274E-25 8.84772E-04 2.94239E-14-5.73004E-13
 -1        42-3.97849E-03 1.83259E-02 5.60719E-25 8.69408E-04 1.44064E-13-5.14915E-13
 -1        43-3.49458E-03 1.61236E-02 3.05552E-25 8.02857E-04 2.47706E-13-3.35393E-13
 -1        44-3.09622E-03 1.41870E-02 1.14458E-25 7.46536E-04 2.95463E-13-2.32158E-14
 -1        45-2.76156E-03 1.23074E-02 2.71457E-25 7.76177E-04 2.70099E-13 2.96819E-13
 -1        46-2.25595E-03 1.01462E-02 6.41859E-25 8.98533E-04 1.69556E-13 5.50364E-13
 -1        47-1.70921E-03 7.61310E-03 7.88444E-25 9.93594E-04 3.47871E-14 6.28459E-13
 -1        48-1.15478E-03 5.00255E-03 6.18500E-25 9.32534E-04-7.69381E-14 5.54905E-13
 -1        49-7.02552E-04 2.72916E-03 3.40930E-25 7.19593E-04-1.41910E-13 4.00205E-13
 -1        50-3.29620E-04 1.12155E-03 1.29134E-25 3.92147E-04-1.70222E-13 2.25032E-13
 -1        51 1.32947E-04-1.16448E-03 2.04088E-25 3.87003E-04 2.87612E-13 1.94478E-13
 -1        52 5.55890E-04-2.99017E-03 3.59898E-25 6.95590E-04 2.14252E-13 3.81837E-13
 -1        53 1.13954E-03-5.53510E-03 6.47509E-25 9.01438E-04 1.45816E-13 5.56652E-13
 -1        54 1.80044E-03-8.44779E-03 7.82576E-25 9.69545E-04 3.16248E-14 6.28364E-13
 -1        55 2.43282E-03-1.12828E-02 6.21652E-25 8.89649E-04-9.84471E-14 5.58622E-13
 -1        56 2.94477E-03-1.37164E-02 2.41675E-25 7.60925E-04-2.05706E-13 3.22713E-13
 -1        57 3.40917E-03-1.58334E-02 6.27048E-26 7.21792E-04-2.44111E-13-4.32480E-14
 -1        58 3.87369E-03-1.79960E-02 2.74332E-25 7.90584E-04-1.92065E-13-3.45348E-13
 -1        59 4.39549E-03-2.04376E-02 5.61464E-25 8.73386E-04-8.18209E-14-5.32105E-13
 -1        60 4.94505E-03-2.30747E-02 6.27526E-25 8.80739E-04 3.33793E-14-5.63853E-13
 -1        61 5.50316E-03-2.55583E-02 4.34456E-25 7.54836E-04 9.27221E-14-4.62094E-13
 -1        62 5.89150E-03-2.73496E-02 2.20025E-25 4.63810E-04 6.56464E-14-3.29824E-13
 -1        63 6.00938E-03-2.79949E-02 1.90353E-25 1.09943E-04 1.15580E-14-3.10620E-13
 -1        64 5.88714E-03-2.77095E-02 2.14052E-25-2.31499E-05-2.64319E-15-3.29725E-13
 -1        65 5.84125E-03-2.76307E-02 2.77628E-25 2.99456E-04 3.48405E-14-3.73975E-13
 -1        66 6.11514E-03-2.91599E-02 1.98918E-25 9.58901E-04 7.81135E-14-3.09762E-13
 -1        67 6.93887E-03-3.27917E-02 9.63900E-26 1.66180E-03 7.95690E-14-2.09299E-13
 -1        68 7.57291E-03-3.82084E-02 5.74604E-26 1.60429E-03 6.68176E-14-1.60917E-13
 -1        69 1.09507E-02-4.24537E-02 1.22113E-26 3.57604E-03 4.82119E-14-7.32514E-14
 -1        70 1.32947E-04-1.16448E-03 2.04117E-25 3.87003E-04 2.87630E-13 1.94496E-13
 -1        71 5.55890E-04-2.99017E-03 3.59886E-25 6.95590E-04 2.14247E-13 3.81829E-13
 -1        72 1.13954E-03-5.53510E-03 6.47518E-25 9.01438E-04 1.45815E-13 5.56657E-13
 -1        73 1.80044E-03-8.44779E-03 7.82693E-25 9.69545E-04 3.16330E-14 6.28412E-13
 -1        74 2.43282E-03-1.12828E-02 6.21597E-25 8.89649E-04-9.84565E-14 5.58598E-13
 -1        75 2.94477E-03-1.37164E-02 2.41676E-25 7.60925E-04-2.05706E-13 3.22714E-13
 -1        76 3.40917E-03-1.58334E-02 6.27046E-26 7.21792E-04-2.44110E-13-4.32484E-14
 -1        77 3.87369E-03-1.79960E-02 2.74338E-25 7.90584E-04-1.92066E-13-3.45351E-13
 -1        78 4.39549E-03-2.04376E-02 5.61437E-25 8.73386E-04-8.18173E-14-5.32092E-13
 -1        79 4.94505E-03-2.30747E-02 6.27475E-25 8.80739E-04 3.33882E-14-5.63828E-13
 -1        80 5.50316E-03-2.55583E-02 4.34491E-25 7.54836E-04 9.27107E-14-4.62113E-13
 -1        81 5.89150E-03-2.73496E-02 2.20026E-25 4.63810E-04 6.56463E-14-3.29825E-13
 -1        82 6.00938E-03-2.79949E-02 1.90350E-25 1.09943E-04 1.15590E-14-3.10617E-13
 -1        83 5.88714E-03-2.77095E-02 2.14050E-25-2.31499E-05-2.64597E-15-3.29723E-13
 -1        84 5.84125E-03-2.76307E-02 2.77635E-25 2.99456E-04 3.48403E-14-3.73980E-13
 -1        85 6.11514E-03-2.91599E-02 1.98918E-25 9.58901E-04 7.81134E-14-3.09762E-13
 -1        86 6.93887E-03-3.27917E-02 9.63901E-26 1.66180E-03 7.95699E-14-2.09299E-13
 -1        87 7.57291E-03-3.82084E-02 5.74605E-26 1.60429E-03 6.68177E-14-1.60917E-13
 -1        88 1.09507E-02-4.24537E-02 1.22113E-26 3.57604E-03 4.82119E-14-7.32514E-14
 -1        89 5.65935E-05-1.90622E-03 7.07847E-27 1.60088E-03-3.45335E-15-7.05298E-14
 -1        90-4.82563E-05-1.63896E-03 4.61992E-26 2.60726E-03-4.48241E-16-1.57151E-13
 -1        91 9.62563E-05-1.49947E-03 8.41857E-26 2.04611E-03 1.01961E-14-2.09708E-13
 -1        92 1.48587E-04-1.42680E-03 1.96664E-25 1.24307E-03 1.90534E-14-3.15691E-13
 -1        93 1.80511E-04-1.42766E-03 2.69549E-25 3.58137E-04 3.14466E-14-3.66249E-13
 -1        94 1.58292E-04-1.48470E-03 2.30455E-25-6.09716E-05 2.37518E-14-3.39051E-13
 -1        95 2.16945E-04-1.55086E-03 1.78886E-25 1.16762E-04 1.50625E-14-2.98967E-13
 -1        96 2.35681E-04-1.55355E-03 1.89716E-25 5.91034E-04 2.42196E-14-3.09981E-13
 -1        97 2.35554E-04-1.45906E-03 3.90732E-25 9.84290E-04 3.51326E-14-4.44999E-13
 -1        98 1.86097E-04-1.31192E-03 6.98491E-25 1.15276E-03 3.09694E-14-5.91655E-13
 -1        99 2.08501E-04-1.16893E-03 6.05501E-25 1.13994E-03 2.17874E-14-5.54653E-13
 -1       100 1.89556E-04-1.03416E-03 2.16285E-25 1.03025E-03 2.03878E-14-3.56920E-13
 -1       101 1.56477E-04-8.91678E-04-5.73071E-26 9.41934E-04 3.30195E-14-3.77305E-14
 -1       102 9.16046E-05-7.47152E-04 1.53616E-25 9.95589E-04 3.47606E-14 3.18225E-13
 -1       103 8.84353E-05-6.03579E-04 6.58697E-25 1.16862E-03 2.92236E-14 5.81023E-13
 -1       104 4.56133E-05-4.45120E-04 8.68257E-25 1.28088E-03 2.99109E-14 6.58980E-13
 -1       105-7.62000E-06-2.76231E-04 6.41288E-25 1.19840E-03 2.69766E-14 5.69850E-13
 -1       106-7.33309E-05-1.22292E-04 3.12131E-25 9.36564E-04 3.58013E-14 4.06782E-13
 -1       107-9.83365E-05 5.53020E-07 5.86229E-26 5.26980E-04 4.74830E-14 2.11358E-13
 -1       108-9.83365E-05 5.53021E-07 5.85524E-26 5.26980E-04 4.74447E-14 2.11302E-13
 -1       109-7.33309E-05-1.22292E-04 3.12155E-25 9.36564E-04 3.58122E-14 4.06798E-13
 -1       110-7.62000E-06-2.76231E-04 6.41261E-25 1.19840E-03 2.69722E-14 5.69837E-13
 -1       111 4.56133E-05-4.45120E-04 8.68296E-25 1.28088E-03 2.99181E-14 6.58995E-13
 -1       112 8.84353E-05-6.03579E-04 6.58710E-25 1.16862E-03 2.92262E-14 5.81029E-13
 -1       113 9.16046E-05-7.47152E-04 1.53612E-25 9.95589E-04 3.47589E-14 3.18223E-13
 -1       114 1.56477E-04-8.91678E-04-5.73001E-26 9.41934E-04 3.30103E-14-3.77501E-14
 -1       115 1.89556E-04-1.03416E-03 2.16288E-25 1.03025E-03 2.03899E-14-3.56917E-13
 -1       116 2.08501E-04-1.16893E-03 6.05494E-25 1.13994E-03 2.17916E-14-5.54649E-13
 -1       117 1.86097E-04-1.31192E-03 6.98497E-25 1.15276E-03 3.09682E-14-5.91659E-13
 -1       118 2.35554E-04-1.45906E-03 3.90727E-25 9.84290E-04 3.51341E-14-4.44996E-13
 -1       119 2.35681E-04-1.55355E-03 1.89713E-25 5.91034E-04 2.42200E-14-3.09979E-13
 -1       120 2.16945E-04-1.55086E-03 1.78900E-25 1.16762E-04 1.50589E-14-2.98979E-13
 -1       121 1.58292E-04-1.48470E-03 2.30454E-25-6.09716E-05 2.37531E-14-3.39050E-13
 -1       122 1.80511E-04-1.42766E-03 2.69541E-25 3.58137E-04 3.14480E-14-3.66244E-13
 -1       123 1.48587E-04-1.42680E-03 1.96665E-25 1.24307E-03 1.90534E-14-3.15692E-13
 -1       124 9.62563E-05-1.49947E-03 8.41873E-26 2.04611E-03 1.01954E-14-2.09710E-13
 -1       125-4.82563E-05-1.63896E-03 4.61990E-26 2.60726E-03-4.48553E-16-1.57151E-13
 -1       126 5.65935E-05-1.90622E-03 7.07848E-27 1.60088E-03-3.45335E-15-7.05298E-14
 -3
    1PSTEP                       280          70           1          
  100CL  170 7.00000E-01         126                     1   70           1
 -4  ERROR       1    1
 -5  STR(%)      1    1    0    0
 -1         1 6.63635E+01
 -1         2 6.63635E+01
 -1         3 4.10739E+01
 -1         4 4.10739E+01
 -1         5 4.02198E+01
 -1         6 4.02198E+01
 -1         7 5.76115E+01
 -1         8 5.76115E+01
 -1         9 4.10739E+01
 -1        10 4.10739E+01
 -1        11 6.63635E+01
 -1        12 6.63635E+01
 -1        13 6.63635E+01
 -1        14 6.66073E+01
 -1        15 6.66073E+01
 -1        16 6.65673E+01
 -1        17 6.57441E+01
 -1        18 6.51468E+01
 -1        19 6.55305E+01
 -1        20 6.65277E+01
 -1        21 6.71804E+01
 -1        22 6.73355E+01
 -1        23 6.74967E+01
 -1        24 6.74967E+01
 -1        25 6.75702E+01
 -1        26 6.77430E+01
 -1        27 6.78073E+01
 -1        28 6.78073E+01
 -1        29 6.61640E+01
 -1        30 6.21738E+01
 -1        31 5.26674E+01
 -1        32 6.63635E+01
 -1        33 6.66073E+01
 -1        34 6.66073E+01
 -1        35 6.65673E+01
 -1        36 6.57441E+01
 -1        37 6.51468E+01
 -1        38 6.55305E+01
 -1        39 6.65277E+01
 -1        40 6.71804E+01
 -1        41 6.73355E+01
 -1        42 6.74967E+01
 -1        43 6.74967E+01
 -1        44 6.75702E+01
 -1        45 6.77430E+01
 -1        46 6.78073E+01
 -1        47 6.78073E+01
 -1        48 6.61640E+01
 -1        49 6.21738E+01
 -1        50 5.26674E+01
 -1        51 4.45934E+01
 -1        52 5.26596E+01
 -1        53 5.60107E+01
 -1        54 5.71123E+01
 -1        55 5.71123E+01
 -1        56 5.70655E+01
 -1        57 5.65911E+01
 -1        58 5.63861E+01
 -1        59 5.63442E+01
 -1        60 5.62853E+01
 -1        61 5.59941E+01
 -1        62 5.55638E+01
 -1        63 5.49817E+01
 -1        64 5.49649E+01
 -1        65 5.60153E+01
 -1        66 5.69801E+01
 -1        67 5.73439E+01
 -1        68 5.73439E+01
 -1        69 5.76115E+01
 -1        70 4.45934E+01
 -1        71 5.26596E+01
 -1        72 5.60107E+01
 -1        73 5.71123E+01
 -1        74 5.71123E+01
 -1        75 5.70655E+01
 -1        76 5.65911E+01
 -1        77 5.63861E+01
 -1        78 5.63442E+01
 -1        79 5.62853E+01
 -1        80 5.59941E+01
 -1        81 5.55638E+01
 -1        82 5.49817E+01
 -1        83 5.49649E+01
 -1        84 5.60153E+01
 -1        85 5.69801E+01
 -1        86 5.73439E+01
 -1        87 5.73439E+01
 -1        88 5.76115E+01
 -1        89 6.63635E+01
 -1        90 6.66073E+01
 -1        91 6.66073E+01
 -1        92 6.65673E+01
 -1        93 6.57441E+01
 -1        94 6.51468E+01
 -1        95 6.55305E+01
 -1        96 6.65277E+01
 -1        97 6.71804E+01
 -1        98 6.73355E+01
 -1        99 6.74967E+01
 -1       100 6.74967E+01
 -1       101 6.75702E+01
 -1       102 6.77430E+01
 -1       103 6.78073E+01
 -1       104 6.78073E+01
 -1       105 6.61640E+01
 -1       106 6.21738E+01
 -1       107 5.26674E+01
 -1       108 5.26674E+01
 -1       109 6.21738E+01
 -1       110 6.61640E+01
 -1       111 6.78073E+01
 -1       112 6.78073E+01
 -1       113 6.77430E+01
 -1       114 6.75702E+01
 -1       115 6.74967E+01
 -1       116 6.74967E+01
 -1       117 6.73355E+01
 -1       118 6.71804E+01
 -1       119 6.65277E+01
 -1       120 6.55305E+01
 -1       121 6.51468E+01
 -1       122 6.57441E+01
 -1       123 6.65673E+01
 -1       124 6.66073E+01
 -1       125 6.66073E+01
 -1       126 6.63635E+01
 -3
    1PSTEP                       281          71           1          
  100CL  171 7.10000E-01         126                     1   71           1
 -4  DISP        4    1
 -5  D1          1    2    1    0
 -5  D2          1    2    2    0
 -5  D3          1    2    3    0
 -5  ALL         1    2    0    0    1ALL
 -1         1 0.00000E+00 0.00000E+00 0.00000E+00
 -1         2 0.00000E+00 0.00000E+00 0.00000E+00
 -1         3 2.75110E-01-2.62440E-02 0.00000E+00
 -1         4 2.75110E-01-2.62440E-02 0.00000E+00
 -1         5 2.66772E-01-6.62011E-02 0.00000E+00
 -1         6 2.66772E-01-6.62011E-02 0.00000E+00
 -1         7 0.00000E+00 0.00000E+00 0.00000E+00
 -1         8 0.00000E+00 0.00000E+00 0.00000E+00
 -1         9 2.70937E-01-4.62197E-02 0.00000E+00
 -1        10 2.70937E-01-4.62197E-02 0.00000E+00
 -1        11 0.00000E+00 0.00000E+00 0.00000E+00
 -1        12 0.00000E+00 0.00000E+00 0.00000E+00
 -1        13 1.67984E-03 2.01669E-03 0.00000E+00
 -1        14 5.15496E-03 3.82663E-03 0.00000E+00
 -1        15 1.05769E-02 5.20509E-03 0.00000E+00
 -1        16 1.75904E-02 6.18516E-03 0.00000E+00
 -1        17 2.59889E-02 6.80717E-03 0.00000E+00
 -1        18 3.56597E-02 7.13056E-03 0.00000E+00
 -1        19 4.65842E-02 7.19170E-03 0.00000E+00
 -1        20 5.88297E-02 6.97152E-03 0.00000E+00
 -1        21 7.24468E-02 6.39592E-03 0.00000E+00
 -1        22 8.74052E-02 5.36406E-03 0.00000E+00
 -1        23 1.03544E-01 3.81238E-03 0.00000E+00
 -1        24 1.20643E-01 1.74769E-03 0.00000E+00
 -1        25 1.38495E-01-7.60012E-04 0.00000E+00
 -1        26 1.56965E-01-3.63667E-03 0.00000E+00
 -1        27 1.75961E-01-6.83336E-03 0.00000E+00
 -1        28 1.95393E-01-1.03233E-02 0.00000E+00
 -1        29 2.15139E-01-1.40673E-02 0.00000E+00
 -1        30 2.35079E-01-1.80126E-02 0.00000E+00
 -1        31 2.55100E-01-2.20961E-02 0.00000E+00
 -1        32 1.67984E-03 2.01669E-03 0.00000E+00
 -1        33 5.15496E-03 3.82663E-03 0.00000E+00
 -1        34 1.05769E-02 5.20509E-03 0.00000E+00
 -1        35 1.75904E-02 6.18516E-03 0.00000E+00
 -1        36 2.59889E-02 6.80717E-03 0.00000E+00
 -1        37 3.56597E-02 7.13056E-03 0.00000E+00
 -1        38 4.65842E-02 7.19170E-03 0.00000E+00
 -1        39 5.88297E-02 6.97152E-03 0.00000E+00
 -1        40 7.24468E-02 6.39592E-03 0.00000E+00
 -1        41 8.74052E-02 5.36406E-03 0.00000E+00
 -1        42 1.03544E-01 3.81238E-03 0.00000E+00
 -1        43 1.20643E-01 1.74769E-03 0.00000E+00
 -1        44 1.38495E-01-7.60012E-04 0.00000E+00
 -1        45 1.56965E-01-3.63667E-03 0.00000E+00
 -1        46 1.75961E-01-6.83336E-03 0.00000E+00
 -1        47 1.95393E-01-1.03233E-02 0.00000E+00
 -1        48 2.15139E-01-1.40673E-02 0.00000E+00
 -1        49 2.35079E-01-1.80126E-02 0.00000E+00
 -1        50 2.55100E-01-2.20961E-02 0.00000E+00
 -1        51 2.46786E-01-6.19992E-02 0.00000E+00
 -1        52 2.26852E-01-5.77325E-02 0.00000E+00
 -1        53 2.07082E-01-5.34137E-02 0.00000E+00
 -1        54 1.87594E-01-4.90771E-02 0.00000E+00
 -1        55 1.68506E-01-4.47703E-02 0.00000E+00
 -1        56 1.49925E-01-4.05440E-02 0.00000E+00
 -1        57 1.31940E-01-3.64335E-02 0.00000E+00
 -1        58 1.14642E-01-3.24450E-02 0.00000E+00
 -1        59 9.81761E-02-2.85814E-02 0.00000E+00
 -1        60 8.27402E-02-2.48772E-02 0.00000E+00
 -1        61 6.85220E-02-2.14078E-02 0.00000E+00
 -1        62 5.56138E-02-1.82501E-02 0.00000E+00
 -1        63 4.40049E-02-1.54395E-02 0.00000E+00
 -1        64 3.36312E-02-1.29501E-02 0.00000E+00
 -1        65 2.44539E-02-1.07077E-02 0.00000E+00
 -1        66 1.64985E-02-8.61278E-03 0.00000E+00
 -1        67 9.88736E-03-6.56513E-03 0.00000E+00
 -1        68 4.80256E-03-4.48143E-03 0.00000E+00
 -1        69 1.59183E-03-2.25832E-03 0.00000E+00
 -1        70 2.46786E-01-6.19992E-02 0.00000E+00
 -1        71 2.26852E-01-5.77325E-02 0.00000E+00
 -1        72 2.07082E-01-5.34137E-02 0.00000E+00
 -1        73 1.87594E-01-4.90771E-02 0.00000E+00
 -1        74 1.68506E-01-4.47703E-02 0.00000E+00
 -1        75 1.49925E-01-4.05440E-02 0.00000E+00
 -1        76 1.31940E-01-3.64335E-02 0.00000E+00
 -1        77 1.14642E-01-3.24450E-02 0.00000E+00
 -1        78 9.81761E-02-2.85814E-02 0.00000E+00
 -1        79 8.27402E-02-2.48772E-02 0.00000E+00
 -1        80 6.85220E-02-2.14078E-02 0.00000E+00
 -1        81 5.56138E-02-1.82501E-02 0.00000E+00
 -1        82 4.40049E-02-1.54395E-02 0.00000E+00
 -1        83 3.36312E-02-1.29501E-02 0.00000E+00
 -1        84 2.44539E-02-1.07077E-02 0.00000E+00
 -1        85 1.64985E-02-8.61278E-03 0.00000E+00
 -1        86 9.88736E-03-6.56513E-03 0.00000E+00
 -1        87 4.80256E-03-4.48143E-03 0.00000E+00
 -1        88 1.59183E-03-2.25832E-03 0.00000E+00
 -1        89 1.08598E-03-9.83179E-05 0.00000E+00
 -1        90 4.59293E-03-2.89055E-04 0.00000E+00
 -1        91 9.88149E-03-6.32774E-04 0.00000E+00
 -1        92 1.67381E-02-1.16482E-03 0.00000E+00
 -1        93 2.49388E-02-1.89895E-03 0.00000E+00
 -1        94 3.43700E-02-2.85279E-03 0.00000E+00
 -1        95 4.50174E-02-4.05897E-03 0.00000E+00
 -1        96 5.69412E-02-5.56586E-03 0.00000E+00
 -1        97 7.02114E-02-7.42585E-03 0.00000E+00
 -1        98 8.48231E-02-9.67470E-03 0.00000E+00
 -1        99 1.00647E-01-1.23087E-02 0.00000E+00
 -1       100 1.17467E-01-1.52832E-02 0.00000E+00
 -1       101 1.35071E-01-1.85407E-02 0.00000E+00
 -1       102 1.53322E-01-2.20412E-02 0.00000E+00
 -1       103 1.72133E-01-2.57605E-02 0.00000E+00
 -1       104 1.91416E-01-2.96685E-02 0.00000E+00
 -1       105 2.11057E-01-3.37191E-02 0.00000E+00
 -1       106 2.30934E-01-3.78605E-02 0.00000E+00
 -1       107 2.50931E-01-4.20428E-02 0.00000E+00
 -1       108 2.50931E-01-4.20428E-02 0.00000E+00
 -1       109 2.30934E-01-3.78605E-02 0.00000E+00
 -1       110 2.11057E-01-3.37191E-02 0.00000E+00
 -1       111 1.91416E-01-2.96685E-02 0.00000E+00
 -1       112 1.72133E-01-2.57605E-02 0.00000E+00
 -1       113 1.53322E-01-2.20412E-02 0.00000E+00
 -1       114 1.35071E-01-1.85407E-02 0.00000E+00
 -1       115 1.17467E-01-1.52832E-02 0.00000E+00
 -1       116 1.00647E-01-1.23087E-02 0.00000E+00
 -1       117 8.48231E-02-9.67470E-03 0.00000E+00
 -1       118 7.02114E-02-7.42585E-03 0.00000E+00
 -1       119 5.69412E-02-5.56586E-03 0.00000E+00
 -1       120 4.50174E-02-4.05897E-03 0.00000E+00
 -1       121 3.43700E-02-2.85279E-03 0.00000E+00
 -1       122 2.49388E-02-1.89895E-03 0.00000E+00
 -1       123 1.67381E-02-1.16482E-03 0.00000E+00
 -1       124 9.88149E-03-6.32774E-04 0.00000E+00
 -1       125 4.59293E-03-2.89055E-04 0.00000E+00
 -1       126 1.08598E-03-9.83179E-05 0.00000E+00
 -3
    1PSTEP                       282          71           1          
  100CL  171 7.10000E-01         126                     1   71           1
 -4  STRESS      6    1
 -5  SXX         1    4    1    1
 -5  SYY         1    4    2    2
 -5  SZZ         1    4    3    3
 -5  SXY         1    4    1    2
 -5  SYZ         1    4    2    3
 -5  SZX         1    4    3    1
 -1         1 9.53598E+03 2.29785E+04 9.25056E+03 5.82999E+03-4.06390E-10-3.70702E-10
 -1         2 9.53598E+03 2.29785E+04 9.25056E+03 5.82999E+03-4.06390E-10-3.70702E-10
 -1         3 1.25794E+02 1.80916E+02 9.19348E+01 1.26432E+02-1.58237E-08 2.95365E-08
 -1         4 1.25794E+02 1.80916E+02 9.19348E+01 1.26432E+02-1.58256E-08 2.95217E-08
 -1         5-1.17773E+02-3.38003E+02-1.36837E+02-3.26454E+01-3.10595E-09 4.45013E-08
 -1         6-1.17773E+02-3.38003E+02-1.36837E+02-3.26454E+01-3.10620E-09 4.45013E-08
 -1         7-1.03143E+04-2.28034E+04-1.05443E+04 4.22607E+03-4.53089E-10 3.95487E-10
 -1         8-1.03143E+04-2.28034E+04-1.05443E+04 4.22607E+03-4.53090E-10 3.95490E-10
 -1         9 3.23774E+01-8.29793E+01-1.51895E+01 6.84695E+01-1.18559E-08 3.82947E-08
 -1        10 3.23774E+01-8.29793E+01-1.51895E+01 6.84695E+01-1.18520E-08 3.83223E-08
 -1        11-3.26440E+02-1.30613E+03-3.99428E+02 3.31326E+03-3.97838E-10 1.02667E-11
 -1        12-3.26440E+02-1.30613E+03-3.99428E+02 3.31326E+03-3.97838E-10 1.02593E-11
 -1        13 3.49494E+03 1.97704E+04 6.63826E+03 1.87705E+03-1.57499E-08-5.96268E-08
 -1        14 4.33092E+03 1.81924E+04 6.45626E+03 1.67550E+03-2.51293E-09-8.52111E-08
 -1        15 3.77381E+03 1.55518E+04 5.57375E+03 1.94353E+03 1.65047E-08-7.91983E-08
 -1        16 3.48608E+03 1.36886E+04 4.97684E+03 1.92756E+03 1.49656E-08-3.19679E-08
 -1        17 3.26739E+03 1.25289E+04 4.59052E+03 1.89757E+03-3.69576E-10-2.38300E-08
 -1        18 3.18170E+03 1.20891E+04 4.44171E+03 1.94276E+03-1.49089E-08-2.61072E-08
 -1        19 3.31134E+03 1.21196E+04 4.48621E+03 2.12464E+03-1.63066E-08-5.95374E-08
 -1        20 3.48198E+03 1.20984E+04 4.52699E+03 2.42930E+03-5.63224E-10-1.06497E-07
 -1        21 3.59734E+03 1.15789E+04 4.41204E+03 2.71042E+03 2.32307E-08-1.32677E-07
 -1        22 3.51213E+03 1.03826E+04 4.04962E+03 2.79906E+03 4.21754E-08-1.05428E-07
 -1        23 3.26766E+03 8.78517E+03 3.52712E+03 2.61973E+03 4.25061E-08-5.69363E-08
 -1        24 2.84967E+03 7.17756E+03 2.94728E+03 2.28563E+03 3.04873E-08-3.21601E-08
 -1        25 2.41969E+03 5.86416E+03 2.44360E+03 1.94007E+03 1.63438E-08-1.75727E-08
 -1        26 2.03190E+03 4.80689E+03 2.02282E+03 1.66010E+03 5.53183E-09 3.86223E-09
 -1        27 1.73224E+03 3.85451E+03 1.65655E+03 1.40352E+03 7.70753E-09 9.23092E-09
 -1        28 1.38781E+03 2.86305E+03 1.26372E+03 1.13481E+03 9.87152E-09 3.47045E-08
 -1        29 1.00281E+03 1.88894E+03 8.61915E+02 8.36431E+02-4.25446E-09 6.60188E-08
 -1        30 5.95819E+02 1.01514E+03 4.81284E+02 5.37411E+02-2.05333E-08 7.35574E-08
 -1        31 2.64328E+02 3.98389E+02 1.98388E+02 2.59520E+02-1.86815E-08 4.94861E-08
 -1        32 3.49494E+03 1.97704E+04 6.63826E+03 1.87705E+03-1.57499E-08-5.96268E-08
 -1        33 4.33092E+03 1.81924E+04 6.45626E+03 1.67550E+03-2.51293E-09-8.52111E-08
 -1        34 3.77381E+03 1.55518E+04 5.57375E+03 1.94353E+03 1.65047E-08-7.91983E-08
 -1        35 3.48608E+03 1.36886E+04 4.97684E+03 1.92756E+03 1.49656E-08-3.19677E-08
 -1        36 3.26739E+03 1.25289E+04 4.59052E+03 1.89757E+03-3.69588E-10-2.38312E-08
 -1        37 3.18170E+03 1.20891E+04 4.44171E+03 1.94276E+03-1.49084E-08-2.61069E-08
 -1        38 3.31134E+03 1.21196E+04 4.48621E+03 2.12464E+03-1.63065E-08-5.95341E-08
 -1        39 3.48198E+03 1.20984E+04 4.52699E+03 2.42930E+03-5.63232E-10-1.06497E-07
 -1        40 3.59734E+03 1.15789E+04 4.41204E+03 2.71042E+03 2.32308E-08-1.32677E-07
 -1        41 3.51213E+03 1.03826E+04 4.04962E+03 2.79906E+03 4.21753E-08-1.05428E-07
 -1        42 3.26766E+03 8.78517E+03 3.52712E+03 2.61973E+03 4.25058E-08-5.69372E-08
 -1        43 2.84967E+03 7.17756E+03 2.94728E+03 2.28563E+03 3.04872E-08-3.21598E-08
 -1        44 2.41969E+03 5.86416E+03 2.44360E+03 1.94007E+03 1.63437E-08-1.75771E-08
 -1        45 2.03190E+03 4.80689E+03 2.02282E+03 1.66010E+03 5.53186E-09 3.86661E-09
 -1        46 1.73224E+03 3.85451E+03 1.65655E+03 1.40352E+03 7.70799E-09 9.23093E-09
 -1        47 1.38781E+03 2.86305E+03 1.26372E+03 1.13481E+03 9.87140E-09 3.47045E-08
 -1        48 1.00281E+03 1.88894E+03 8.61915E+02 8.36431E+02-4.25351E-09 6.60241E-08
 -1        49 5.95819E+02 1.01514E+03 4.81284E+02 5.37411E+02-2.05342E-08 7.35638E-08
 -1        50 2.64328E+02 3.98389E+02 1.98388E+02 2.59520E+02-1.86842E-08 4.94585E-08
 -1        51-2.10026E+02-7.24932E+02-2.81173E+02-9.94202E+01-8.03395E-09 6.19794E-08
 -1        52-4.59289E+02-1.59321E+03-6.18888E+02-3.12314E+02-2.59129E-08 6.63876E-08
 -1        53-8.16010E+02-2.63466E+03-1.04372E+03-6.06447E+02-4.25431E-08 4.53439E-08
 -1        54-1.21828E+03-3.72699E+03-1.50074E+03-9.22384E+02-3.52880E-08 1.49532E-08
 -1        55-1.61285E+03-4.78045E+03-1.94629E+03-1.22067E+03-2.24995E-08-5.44151E-09
 -1        56-1.97920E+03-5.79617E+03-2.37391E+03-1.46910E+03-1.35119E-08-1.05263E-08
 -1        57-2.31297E+03-6.90125E+03-2.82203E+03-1.68112E+03-1.26629E-08-1.58251E-08
 -1        58-2.69809E+03-8.27475E+03-3.37419E+03-1.90115E+03-1.01412E-08-5.31230E-08
 -1        59-3.15193E+03-9.86543E+03-4.02214E+03-2.15496E+03-7.27173E-09-8.04076E-08
 -1        60-3.59829E+03-1.13423E+04-4.63684E+03-2.38554E+03 1.30704E-08-1.19930E-07
 -1        61-3.85897E+03-1.22978E+04-5.02791E+03-2.49670E+03 3.55305E-08-1.30413E-07
 -1        62-3.88816E+03-1.26209E+04-5.14031E+03-2.42308E+03 4.69985E-08-1.02507E-07
 -1        63-3.75097E+03-1.25532E+04-5.07209E+03-2.19042E+03 3.56006E-08-5.89081E-08
 -1        64-3.60894E+03-1.25461E+04-5.02192E+03-1.87708E+03 1.10474E-08-3.06984E-08
 -1        65-3.56224E+03-1.29881E+04-5.14898E+03-1.55894E+03-1.55664E-08-2.20128E-08
 -1        66-3.73508E+03-1.41171E+04-5.57111E+03-1.26413E+03-2.88866E-08-4.21742E-08
 -1        67-4.06042E+03-1.58693E+04-6.25159E+03-9.50183E+02-1.80713E-08-7.51981E-08
 -1        68-4.92404E+03-1.83335E+04-7.34625E+03-6.92045E+02 4.24287E-09-8.01368E-08
 -1        69-3.96728E+03-1.96369E+04-7.49930E+03 3.41976E+02 1.66378E-08-5.63845E-08
 -1        70-2.10026E+02-7.24932E+02-2.81173E+02-9.94202E+01-8.03417E-09 6.19784E-08
 -1        71-4.59289E+02-1.59321E+03-6.18888E+02-3.12314E+02-2.59123E-08 6.63834E-08
 -1        72-8.16010E+02-2.63466E+03-1.04372E+03-6.06447E+02-4.25432E-08 4.53490E-08
 -1        73-1.21828E+03-3.72699E+03-1.50074E+03-9.22384E+02-3.52892E-08 1.49561E-08
 -1        74-1.61285E+03-4.78045E+03-1.94629E+03-1.22067E+03-2.24956E-08-5.45351E-09
 -1        75-1.97920E+03-5.79617E+03-2.37391E+03-1.46910E+03-1.35125E-08-1.05275E-08
 -1        76-2.31297E+03-6.90125E+03-2.82203E+03-1.68112E+03-1.26632E-08-1.58225E-08
 -1        77-2.69809E+03-8.27475E+03-3.37419E+03-1.90115E+03-1.01435E-08-5.31127E-08
 -1        78-3.15193E+03-9.86543E+03-4.02214E+03-2.15496E+03-7.27164E-09-8.04085E-08
 -1        79-3.59829E+03-1.13423E+04-4.63684E+03-2.38554E+03 1.30703E-08-1.19923E-07
 -1        80-3.85897E+03-1.22978E+04-5.02791E+03-2.49670E+03 3.55307E-08-1.30415E-07
 -1        81-3.88816E+03-1.26209E+04-5.14031E+03-2.42308E+03 4.69985E-08-1.02510E-07
 -1        82-3.75097E+03-1.25532E+04-5.07209E+03-2.19042E+03 3.55989E-08-5.89072E-08
 -1        83-3.60894E+03-1.25461E+04-5.02192E+03-1.87708E+03 1.10487E-08-3.06989E-08
 -1        84-3.56224E+03-1.29881E+04-5.14898E+03-1.55894E+03-1.55666E-08-2.20083E-08
 -1        85-3.73508E+03-1.41171E+04-5.57111E+03-1.26413E+03-2.88870E-08-4.21801E-08
 -1        86-4.06042E+03-1.58693E+04-6.25159E+03-9.50183E+02-1.80707E-08-7.51985E-08
 -1        87-4.92404E+03-1.83335E+04-7.34625E+03-6.92045E+02 4.24287E-09-8.01367E-08
 -1        88-3.96728E+03-1.96369E+04-7.49930E+03 3.41976E+02 1.66378E-08-5.63846E-08
 -1        89-7.27930E+01-1.22963E+03-3.61632E+02 4.53161E+02 3.63907E-09-5.56042E-08
 -1        90-9.83527E+01-1.13538E+03-3.23243E+02 6.90587E+02 3.36141E-09-8.86816E-08
 -1        91-2.59951E+01-9.99457E+02-2.74605E+02 5.04610E+02-2.87117E-09-8.01851E-08
 -1        92-3.69397E+01-8.90073E+02-2.50251E+02 3.21987E+02-9.55154E-09-3.73221E-08
 -1        93-8.62226E+01-7.83572E+02-2.36773E+02 1.03846E+02-1.26866E-08-1.72444E-08
 -1        94-1.69594E+02-7.24578E+02-2.45972E+02-7.81177E+01-7.74504E-09-2.73301E-08
 -1        95-1.87863E+02-7.08338E+02-2.47504E+02-1.75970E+02 7.59778E-09-5.85790E-08
 -1        96-1.69441E+02-7.60770E+02-2.58908E+02-1.45619E+02 2.50155E-08-1.06821E-07
 -1        97-7.91537E+01-8.42143E+02-2.58270E+02-1.21980E+01 3.33949E-08-1.31915E-07
 -1        98 2.79576E+01-9.16150E+02-2.51174E+02 1.38942E+02 2.83617E-08-1.15211E-07
 -1        99 1.31951E+02-9.06960E+02-2.20255E+02 2.07729E+02 1.73305E-08-6.97213E-08
 -1       100 1.38252E+02-8.29652E+02-1.98283E+02 1.86647E+02 1.11204E-08-3.92427E-08
 -1       101 1.04383E+02-7.17998E+02-1.77718E+02 1.29951E+02 1.22306E-10-1.56614E-08
 -1       102 7.40437E+01-6.40752E+02-1.65912E+02 1.04475E+02-6.46930E-09-6.20483E-09
 -1       103 1.08547E+02-5.83448E+02-1.39980E+02 1.13763E+02-6.30042E-09 3.84879E-10
 -1       104 1.35238E+02-5.32663E+02-1.17890E+02 1.40603E+02-1.30094E-08 2.09557E-08
 -1       105 1.45935E+02-4.49614E+02-9.05560E+01 1.57429E+02-2.24069E-08 6.17326E-08
 -1       106 1.21299E+02-3.39583E+02-6.53692E+01 1.57172E+02-2.28868E-08 7.31231E-08
 -1       107 6.79918E+01-1.84237E+02-3.48561E+01 1.13181E+02-1.47781E-08 5.53399E-08
 -1       108 6.79918E+01-1.84237E+02-3.48561E+01 1.13181E+02-1.47776E-08 5.53420E-08
 -1       109 1.21299E+02-3.39583E+02-6.53692E+01 1.57172E+02-2.28882E-08 7.31300E-08
 -1       110 1.45935E+02-4.49614E+02-9.05560E+01 1.57429E+02-2.24073E-08 6.17224E-08
 -1       111 1.35238E+02-5.32663E+02-1.17890E+02 1.40603E+02-1.30085E-08 2.09567E-08
 -1       112 1.08547E+02-5.83448E+02-1.39980E+02 1.13763E+02-6.30260E-09 3.83294E-10
 -1       113 7.40437E+01-6.40752E+02-1.65912E+02 1.04475E+02-6.46831E-09-6.20321E-09
 -1       114 1.04383E+02-7.17998E+02-1.77718E+02 1.29951E+02 1.22376E-10-1.56672E-08
 -1       115 1.38252E+02-8.29652E+02-1.98283E+02 1.86647E+02 1.11208E-08-3.92443E-08
 -1       116 1.31951E+02-9.06960E+02-2.20255E+02 2.07729E+02 1.73309E-08-6.97211E-08
 -1       117 2.79576E+01-9.16150E+02-2.51174E+02 1.38942E+02 2.83617E-08-1.15212E-07
 -1       118-7.91537E+01-8.42143E+02-2.58270E+02-1.21980E+01 3.33945E-08-1.31915E-07
 -1       119-1.69441E+02-7.60770E+02-2.58908E+02-1.45619E+02 2.50156E-08-1.06820E-07
 -1       120-1.87863E+02-7.08338E+02-2.47504E+02-1.75970E+02 7.59796E-09-5.85796E-08
 -1       121-1.69594E+02-7.24578E+02-2.45972E+02-7.81177E+01-7.74537E-09-2.73319E-08
 -1       122-8.62226E+01-7.83572E+02-2.36773E+02 1.03846E+02-1.26865E-08-1.72428E-08
 -1       123-3.69397E+01-8.90073E+02-2.50251E+02 3.21987E+02-9.55150E-09-3.73218E-08
 -1       124-2.59951E+01-9.99457E+02-2.74605E+02 5.04610E+02-2.87125E-09-8.01850E-08
 -1       125-9.83527E+01-1.13538E+03-3.23243E+02 6.90587E+02 3.36141E-09-8.86816E-08
 -1       126-7.27930E+01-1.22963E+03-3.61632E+02 4.53161E+02 3.63907E-09-5.56041E-08
 -3
    1PSTEP                       283          71           1          
  100CL  171 7.10000E-01         126                     1   71           1
 -4  TOSTRAIN    6    1
 -5  EXX         1    4    1    1
 -5  EYY         1    4    2    2
 -5  EZZ         1    4    3    3
 -5  EXY         1    4    1    2
 -5  EYZ         1    4    2    3
 -5  EZX         1    4    3    1
 -1         1-1.60674E-04 4.15499E-02-1.30017E-26 1.67982E-02 1.87556E-19-6.96830E-16
 -1         2-1.60674E-04 4.15499E-02-1.30017E-26 1.67982E-02 1.87556E-19-6.96830E-16
 -1         3-1.62563E-04 5.61049E-04 2.19814E-26 2.13647E-04-8.77705E-15 1.08543E-13
 -1         4-1.62563E-04 5.61049E-04 2.19573E-26 2.13647E-04-8.80179E-15 1.08502E-13
 -1         5 2.52661E-05-6.17943E-04 4.04919E-26 1.90451E-04 4.85885E-14 1.36633E-13
 -1         6 2.52661E-05-6.17943E-04 4.04921E-26 1.90451E-04 4.85878E-14 1.36633E-13
 -1         7-1.64231E-04-4.38027E-02-1.21707E-26 1.59181E-02-5.82606E-19 7.49070E-16
 -1         8-1.64231E-04-4.38027E-02-1.21707E-26 1.59181E-02-5.82306E-19 7.49082E-16
 -1         9-6.86484E-05 2.77721E-06 3.25377E-26 2.88827E-04 1.44129E-14 1.29490E-13
 -1        10-6.86484E-05 2.77721E-06 3.25824E-26 2.88827E-04 1.44605E-14 1.29568E-13
 -1        11-1.62453E-04-1.89095E-03-1.07835E-26 1.08597E-02 3.73690E-20 6.57684E-17
 -1        12-1.62453E-04-1.89095E-03-1.07835E-26 1.08597E-02 3.68090E-20 6.57448E-17
 -1        13-1.10589E-02 4.03424E-02 7.01494E-26 3.50910E-03-5.61637E-14-1.89830E-13
 -1        14-7.90573E-03 3.64316E-02 1.51386E-25 1.51583E-03-2.96286E-14-2.73009E-13
 -1        15-7.08264E-03 3.16411E-02 1.33046E-25 1.55704E-03 2.21148E-14-2.60321E-13
 -1        16-6.16716E-03 2.80575E-02 1.96932E-26 1.06911E-03 3.16492E-14-1.09365E-13
 -1        17-5.68209E-03 2.58489E-02 1.05451E-26 5.64396E-04-1.40982E-14-7.57014E-14
 -1        18-5.58348E-03 2.50863E-02 1.58996E-26 1.03015E-04-6.23046E-14-7.30000E-14
 -1        19-5.58606E-03 2.52867E-02 7.06767E-26-1.07743E-04-9.21635E-14-1.75582E-13
 -1        20-5.67747E-03 2.55585E-02 2.29817E-25 5.27257E-05-8.60242E-14-3.32710E-13
 -1        21-5.55684E-03 2.49263E-02 3.79518E-25 4.93854E-04-4.59178E-14-4.32990E-13
 -1        22-5.12371E-03 2.28839E-02 2.66371E-25 9.52493E-04 2.61347E-14-3.66422E-13
 -1        23-4.30467E-03 1.97516E-02 9.82348E-26 1.18330E-03 6.89637E-14-2.19076E-13
 -1        24-3.52676E-03 1.64122E-02 3.77613E-26 1.13156E-03 5.61891E-14-1.31788E-13
 -1        25-2.91076E-03 1.35776E-02 9.52818E-27 9.41313E-04 2.87231E-14-7.21896E-14
 -1        26-2.48391E-03 1.13023E-02-9.45263E-28 8.11496E-04 2.10631E-14 5.00560E-15
 -1        27-1.99322E-03 9.20730E-03 8.54128E-28 8.11244E-04 3.41886E-14 1.81795E-14
 -1        28-1.53014E-03 7.02738E-03 2.15084E-26 8.54305E-04 7.26277E-14 9.13165E-14
 -1        29-1.07241E-03 4.81756E-03 8.83795E-26 8.25955E-04 7.12400E-14 2.02409E-13
 -1        30-6.89878E-04 2.77893E-03 1.21682E-25 6.94019E-04 3.35958E-14 2.45761E-13
 -1        31-3.34307E-04 1.19476E-03 5.72400E-26 4.13787E-04 8.50616E-15 1.71669E-13
 -1        32-1.10589E-02 4.03424E-02 7.01494E-26 3.50910E-03-5.61637E-14-1.89830E-13
 -1        33-7.90573E-03 3.64316E-02 1.51386E-25 1.51583E-03-2.96286E-14-2.73009E-13
 -1        34-7.08264E-03 3.16411E-02 1.33046E-25 1.55704E-03 2.21148E-14-2.60321E-13
 -1        35-6.16716E-03 2.80575E-02 1.96929E-26 1.06911E-03 3.16493E-14-1.09365E-13
 -1        36-5.68209E-03 2.58489E-02 1.05463E-26 5.64396E-04-1.40989E-14-7.57052E-14
 -1        37-5.58348E-03 2.50863E-02 1.59000E-26 1.03015E-04-6.23030E-14-7.29992E-14
 -1        38-5.58606E-03 2.52867E-02 7.06693E-26-1.07743E-04-9.21610E-14-1.75572E-13
 -1        39-5.67747E-03 2.55585E-02 2.29817E-25 5.27257E-05-8.60242E-14-3.32710E-13
 -1        40-5.55684E-03 2.49263E-02 3.79521E-25 4.93854E-04-4.59179E-14-4.32991E-13
 -1        41-5.12371E-03 2.28839E-02 2.66370E-25 9.52493E-04 2.61347E-14-3.66421E-13
 -1        42-4.30467E-03 1.97516E-02 9.82370E-26 1.18330E-03 6.89619E-14-2.19078E-13
 -1        43-3.52676E-03 1.64122E-02 3.77606E-26 1.13156E-03 5.61892E-14-1.31787E-13
 -1        44-2.91076E-03 1.35776E-02 9.53021E-27 9.41313E-04 2.87179E-14-7.22029E-14
 -1        45-2.48391E-03 1.13023E-02-9.46116E-28 8.11496E-04 2.10684E-14 5.01880E-15
 -1        46-1.99322E-03 9.20730E-03 8.54042E-28 8.11244E-04 3.41900E-14 1.81789E-14
 -1        47-1.53014E-03 7.02738E-03 2.15084E-26 8.54305E-04 7.26273E-14 9.13166E-14
 -1        48-1.07241E-03 4.81756E-03 8.83941E-26 8.25955E-04 7.12497E-14 2.02424E-13
 -1        49-6.89878E-04 2.77893E-03 1.21696E-25 6.94019E-04 3.36017E-14 2.45782E-13
 -1        50-3.34307E-04 1.19476E-03 5.71754E-26 4.13787E-04 8.46257E-15 1.71590E-13
 -1        51 2.00654E-04-1.41735E-03 8.11004E-26 3.93955E-04 5.65536E-14 1.95155E-13
 -1        52 6.74053E-04-3.34922E-03 1.05362E-25 6.53851E-04 8.44532E-15 2.31605E-13
 -1        53 1.24214E-03-5.74778E-03 7.67389E-26 7.87403E-04-6.96679E-14 1.90181E-13
 -1        54 1.81772E-03-8.28697E-03 2.70325E-26 8.30467E-04-8.78888E-14 8.94920E-14
 -1        55 2.35847E-03-1.07366E-02 9.58833E-27 8.07281E-04-7.54468E-14 1.15099E-14
 -1        56 2.82895E-03-1.30336E-02 6.06662E-27 8.05225E-04-5.44008E-14-1.55315E-14
 -1        57 3.34606E-03-1.54588E-02 6.08897E-27 9.29647E-04-5.80938E-14-3.33673E-14
 -1        58 3.97310E-03-1.84286E-02 5.66973E-26 1.13743E-03-9.23481E-14-1.51185E-13
 -1        59 4.71632E-03-2.19107E-02 1.31667E-25 1.21201E-03-1.10392E-13-2.40104E-13
 -1        60 5.38277E-03-2.51657E-02 3.01726E-25 9.73571E-04-8.03205E-14-3.85661E-13
 -1        61 5.82528E-03-2.72502E-02 3.81430E-25 4.95448E-04-7.16729E-15-4.40990E-13
 -1        62 5.92127E-03-2.78174E-02 2.61551E-25 5.94088E-05 6.64642E-14-3.62381E-13
 -1        63 5.79898E-03-2.74097E-02 9.20620E-26-8.62922E-05 7.21911E-14-2.13496E-13
 -1        64 5.66760E-03-2.70683E-02 1.74232E-26 1.15234E-04 1.56998E-14-1.05353E-13
 -1        65 5.80776E-03-2.77406E-02 1.39863E-26 5.66265E-04-6.48820E-14-6.17433E-14
 -1        66 6.24275E-03-2.99384E-02 5.39573E-26 1.08940E-03-1.18173E-13-1.21952E-13
 -1        67 7.06544E-03-3.35934E-02 1.23514E-25 1.61375E-03-9.14861E-14-2.36689E-13
 -1        68 7.59467E-03-3.86438E-02 1.32684E-25 1.53330E-03-8.19130E-15-2.62324E-13
 -1        69 1.09486E-02-4.26771E-02 6.56491E-26 3.62354E-03 4.98147E-14-1.86464E-13
 -1        70 2.00654E-04-1.41735E-03 8.10977E-26 3.93955E-04 5.65517E-14 1.95152E-13
 -1        71 6.74053E-04-3.34922E-03 1.05349E-25 6.53851E-04 8.44187E-15 2.31592E-13
 -1        72 1.24214E-03-5.74778E-03 7.67518E-26 7.87403E-04-6.96616E-14 1.90196E-13
 -1        73 1.81772E-03-8.28697E-03 2.70322E-26 8.30467E-04-8.78888E-14 8.95023E-14
 -1        74 2.35847E-03-1.07366E-02 9.58488E-27 8.07281E-04-7.54501E-14 1.14691E-14
 -1        75 2.82895E-03-1.30336E-02 6.06735E-27 8.05225E-04-5.44039E-14-1.55344E-14
 -1        76 3.34606E-03-1.54588E-02 6.08865E-27 9.29647E-04-5.80916E-14-3.33593E-14
 -1        77 3.97310E-03-1.84286E-02 5.66755E-26 1.13743E-03-9.23439E-14-1.51151E-13
 -1        78 4.71632E-03-2.19107E-02 1.31669E-25 1.21201E-03-1.10393E-13-2.40107E-13
 -1        79 5.38277E-03-2.51657E-02 3.01691E-25 9.73571E-04-8.03143E-14-3.85640E-13
 -1        80 5.82528E-03-2.72502E-02 3.81437E-25 4.95448E-04-7.16825E-15-4.40995E-13
 -1        81 5.92127E-03-2.78174E-02 2.61565E-25 5.94088E-05 6.64614E-14-3.62392E-13
 -1        82 5.79898E-03-2.74097E-02 9.20564E-26-8.62922E-05 7.21861E-14-2.13492E-13
 -1        83 5.66760E-03-2.70683E-02 1.74242E-26 1.15234E-04 1.57038E-14-1.05356E-13
 -1        84 5.80776E-03-2.77406E-02 1.39810E-26 5.66265E-04-6.48802E-14-6.17287E-14
 -1        85 6.24275E-03-2.99384E-02 5.39671E-26 1.08940E-03-1.18177E-13-1.21970E-13
 -1        86 7.06544E-03-3.35934E-02 1.23515E-25 1.61375E-03-9.14843E-14-2.36691E-13
 -1        87 7.59467E-03-3.86438E-02 1.32683E-25 1.53330E-03-8.19128E-15-2.62324E-13
 -1        88 1.09486E-02-4.26771E-02 6.56492E-26 3.62354E-03 4.98147E-14-1.86464E-13
 -1        89-5.51543E-05-1.68783E-03 5.74540E-26 1.63105E-03 4.55604E-15-1.81127E-13
 -1        90-1.55530E-04-1.42127E-03 1.64257E-25 2.50413E-03-1.29047E-14-2.88242E-13
 -1        91-8.60006E-06-1.30866E-03 1.31141E-25 1.97121E-03-3.99842E-14-2.57672E-13
 -1        92 3.77960E-05-1.22358E-03 2.52912E-26 1.41136E-03-4.86921E-14-1.15255E-13
 -1        93 6.28361E-05-1.17491E-03 8.49510E-27 7.10263E-04-5.03927E-14-4.79154E-14
 -1        94 4.20615E-05-1.18885E-03 1.42136E-26 1.22269E-04-4.25037E-14-8.19418E-14
 -1        95 1.06464E-04-1.26151E-03 6.47160E-26-1.40471E-04-1.89967E-14-1.91047E-13
 -1        96 1.21899E-04-1.32804E-03 2.46595E-25 5.65482E-05-8.84051E-15-3.56508E-13
 -1        97 1.34221E-04-1.33364E-03 3.89501E-25 6.31178E-04-1.50049E-14-4.42076E-13
 -1        98 1.29528E-04-1.28606E-03 2.92048E-25 1.25786E-03-2.54830E-14-3.84798E-13
 -1        99 2.05826E-04-1.21217E-03 1.00650E-25 1.57320E-03-2.01051E-14-2.32580E-13
 -1       100 2.23167E-04-1.11883E-03 3.03233E-26 1.47996E-03-9.59354E-15-1.32187E-13
 -1       101 2.17652E-04-1.01292E-03 3.04195E-27 1.20888E-03-1.77993E-14-4.76809E-14
 -1       102 1.72524E-04-9.08861E-04 8.59388E-28 1.04647E-03-2.69598E-14-1.09199E-14
 -1       103 1.82627E-04-8.00956E-04-1.05921E-27 1.05485E-03-1.84248E-14 8.96595E-15
 -1       104 1.43792E-04-6.61647E-04 6.80577E-27 1.09703E-03-1.25693E-14 7.92024E-14
 -1       105 8.48659E-05-4.80702E-04 8.60822E-26 1.05469E-03 1.20015E-14 2.13101E-13
 -1       106-7.91256E-06-2.76579E-04 1.23113E-25 8.96394E-04 2.61515E-14 2.47635E-13
 -1       107-6.68260E-05-8.45022E-05 6.79018E-26 5.50877E-04 2.77436E-14 1.84074E-13
 -1       108-6.68260E-05-8.45022E-05 6.79098E-26 5.50877E-04 2.77476E-14 1.84080E-13
 -1       109-7.91256E-06-2.76579E-04 1.23135E-25 8.96394E-04 2.61563E-14 2.47658E-13
 -1       110 8.48659E-05-4.80702E-04 8.60565E-26 1.05469E-03 1.19873E-14 2.13071E-13
 -1       111 1.43792E-04-6.61647E-04 6.80768E-27 1.09703E-03-1.25653E-14 7.92042E-14
 -1       112 1.82627E-04-8.00956E-04-1.05810E-27 1.05485E-03-1.84332E-14 8.96391E-15
 -1       113 1.72524E-04-9.08861E-04 8.58139E-28 1.04647E-03-2.69548E-14-1.09162E-14
 -1       114 2.17652E-04-1.01292E-03 3.04528E-27 1.20888E-03-1.78059E-14-4.76985E-14
 -1       115 2.23167E-04-1.11883E-03 3.03268E-26 1.47996E-03-9.59440E-15-1.32192E-13
 -1       116 2.05826E-04-1.21217E-03 1.00651E-25 1.57320E-03-2.01035E-14-2.32580E-13
 -1       117 1.29528E-04-1.28606E-03 2.92053E-25 1.25786E-03-2.54836E-14-3.84801E-13
 -1       118 1.34221E-04-1.33364E-03 3.89499E-25 6.31178E-04-1.50059E-14-4.42075E-13
 -1       119 1.21899E-04-1.32804E-03 2.46592E-25 5.65482E-05-8.83974E-15-3.56506E-13
 -1       120 1.06464E-04-1.26151E-03 6.47178E-26-1.40471E-04-1.89965E-14-1.91048E-13
 -1       121 4.20615E-05-1.18885E-03 1.42154E-26 1.22269E-04-4.25059E-14-8.19473E-14
 -1       122 6.28361E-05-1.17491E-03 8.49361E-27 7.10263E-04-5.03913E-14-4.79103E-14
 -1       123 3.77960E-05-1.22358E-03 2.52904E-26 1.41136E-03-4.86918E-14-1.15254E-13
 -1       124-8.60006E-06-1.30866E-03 1.31141E-25 1.97121E-03-3.99844E-14-2.57672E-13
 -1       125-1.55530E-04-1.42127E-03 1.64257E-25 2.50413E-03-1.29048E-14-2.88242E-13
 -1       126-5.51543E-05-1.68783E-03 5.74539E-26 1.63105E-03 4.55604E-15-1.81127E-13
 -3
    1PSTEP                       284          71           1          
  100CL  171 7.10000E-01         126                     1   71           1
 -4  ERROR       1    1
 -5  STR(%)      1    1    0    0
 -1         1 6.61027E+01
 -1         2 6.61027E+01
 -1         3 4.59242E+01
 -1         4 4.59242E+01
 -1         5 3.95339E+01
 -1         6 3.95339E+01
 -1         7 5.80060E+01
 -1         8 5.80060E+01
 -1         9 4.59242E+01
 -1        10 4.59242E+01
 -1        11 6.61027E+01
 -1        12 6.61027E+01
 -1        13 6.61027E+01
 -1        14 6.58876E+01
 -1        15 6.58876E+01
 -1        16 6.58366E+01
 -1        17 6.53830E+01
 -1        18 6.45981E+01
 -1        19 6.44839E+01
 -1        20 6.47035E+01
 -1        21 6.60940E+01
 -1        22 6.71748E+01
 -1        23 6.80643E+01
 -1        24 6.86743E+01
 -1        25 6.92413E+01
 -1        26 6.97754E+01
 -1        27 7.05843E+01
 -1        28 7.05843E+01
 -1        29 7.03097E+01
 -1        30 6.75423E+01
 -1        31 5.79334E+01
 -1        32 6.61027E+01
 -1        33 6.58876E+01
 -1        34 6.58876E+01
 -1        35 6.58366E+01
 -1        36 6.53830E+01
 -1        37 6.45981E+01
 -1        38 6.44839E+01
 -1        39 6.47035E+01
 -1        40 6.60940E+01
 -1        41 6.71748E+01
 -1        42 6.80643E+01
 -1        43 6.86743E+01
 -1        44 6.92413E+01
 -1        45 6.97754E+01
 -1        46 7.05843E+01
 -1        47 7.05843E+01
 -1        48 7.03097E+01
 -1        49 6.75423E+01
 -1        50 5.79334E+01
 -1        51 4.43232E+01
 -1        52 5.15968E+01
 -1        53 5.42782E+01
 -1        54 5.52817E+01
 -1        55 5.56935E+01
 -1        56 5.59040E+01
 -1        57 5.63145E+01
 -1        58 5.66696E+01
 -1        59 5.67553E+01
 -1        60 5.67553E+01
 -1        61 5.62391E+01
 -1        62 5.54657E+01
 -1        63 5.55892E+01
 -1        64 5.60892E+01
 -1        65 5.69452E+01
 -1        66 5.74496E+01
 -1        67 5.77020E+01
 -1        68 5.77020E+01
 -1        69 5.80060E+01
 -1        70 4.43232E+01
 -1        71 5.15968E+01
 -1        72 5.42782E+01
 -1        73 5.52817E+01
 -1        74 5.56935E+01
 -1        75 5.59040E+01
 -1        76 5.63145E+01
 -1        77 5.66696E+01
 -1        78 5.67553E+01
 -1        79 5.67553E+01
 -1        80 5.62391E+01
 -1        81 5.54657E+01
 -1        82 5.55892E+01
 -1        83 5.60892E+01
 -1        84 5.69452E+01
 -1        85 5.74496E+01
 -1        86 5.77020E+01
 -1        87 5.77020E+01
 -1        88 5.80060E+01
 -1        89 6.61027E+01
 -1        90 6.58876E+01
 -1        91 6.58876E+01
 -1        92 6.58366E+01
 -1        93 6.53830E+01
 -1        94 6.45981E+01
 -1        95 6.44839E+01
 -1        96 6.47035E+01
 -1        97 6.60940E+01
 -1        98 6.71748E+01
 -1        99 6.80643E+01
 -1       100 6.86743E+01
 -1       101 6.92413E+01
 -1       102 6.97754E+01
 -1       103 7.05843E+01
 -1       104 7.05843E+01
 -1       105 7.03097E+01
 -1       106 6.75423E+01
 -1       107 5.79334E+01
 -1       108 5.79334E+01
 -1       109 6.75423E+01
 -1       110 7.03097E+01
 -1       111 7.05843E+01
 -1       112 7.05843E+01
 -1       113 6.97754E+01
 -1       114 6.92413E+01
 -1       115 6.86743E+01
 -1       116 6.80643E+01
 -1       117 6.71748E+01
 -1       118 6.60940E+01
 -1       119 6.47035E+01
 -1       120 6.44839E+01
 -1       121 6.45981E+01
 -1       122 6.53830E+01
 -1       123 6.58366E+01
 -1       124 6.58876E+01
 -1       125 6.58876E+01
 -1       126 6.61027E+01
 -3
    1PSTEP                       285          72           1          
  100CL  172 7.20000E-01         126                     1   72           1
 -4  DISP        4    1
 -5  D1          1    2    1    0
 -5  D2          1    2    2    0
 -5  D3          1    2    3    0
 -5  ALL         1    2    0    0    1ALL
 -1         1 0.00000E+00 0.00000E+00 0.00000E+00
 -1         2 0.00000E+00 0.00000E+00 0.00000E+00
 -1         3 2.80163E-01-2.75698E-02 0.00000E+00
 -1         4 2.80163E-01-2.75698E-02 0.00000E+00
 -1         5 2.71586E-01-6.80738E-02 0.00000E+00
 -1         6 2.71586E-01-6.80738E-02 0.00000E+00
 -1         7 0.00000E+00 0.00000E+00 0.00000E+00
 -1         8 0.00000E+00 0.00000E+00 0.00000E+00
 -1         9 2.75871E-01-4.78200E-02 0.00000E+00
 -1        10 2.75871E-01-4.78200E-02 0.00000E+00
 -1        11 0.00000E+00 0.00000E+00 0.00000E+00
 -1        12 0.00000E+00 0.00000E+00 0.00000E+00
 -1        13 1.71595E-03 2.03342E-03 0.00000E+00
 -1        14 5.18811E-03 3.86044E-03 0.00000E+00
 -1        15 1.06089E-02 5.28987E-03 0.00000E+00
 -1        16 1.77104E-02 6.34691E-03 0.00000E+00
 -1        17 2.63249E-02 7.02108E-03 0.00000E+00
 -1        18 3.62828E-02 7.33492E-03 0.00000E+00
 -1        19 4.74718E-02 7.34146E-03 0.00000E+00
 -1        20 5.99221E-02 7.06941E-03 0.00000E+00
 -1        21 7.37280E-02 6.47231E-03 0.00000E+00
 -1        22 8.89299E-02 5.43630E-03 0.00000E+00
 -1        23 1.05409E-01 3.86185E-03 0.00000E+00
 -1        24 1.22949E-01 1.71857E-03 0.00000E+00
 -1        25 1.41294E-01-9.42479E-04 0.00000E+00
 -1        26 1.60233E-01-4.02903E-03 0.00000E+00
 -1        27 1.79610E-01-7.44153E-03 0.00000E+00
 -1        28 1.99343E-01-1.11123E-02 0.00000E+00
 -1        29 2.19364E-01-1.50024E-02 0.00000E+00
 -1        30 2.39583E-01-1.90821E-02 0.00000E+00
 -1        31 2.59881E-01-2.32971E-02 0.00000E+00
 -1        32 1.71595E-03 2.03342E-03 0.00000E+00
 -1        33 5.18811E-03 3.86044E-03 0.00000E+00
 -1        34 1.06089E-02 5.28987E-03 0.00000E+00
 -1        35 1.77104E-02 6.34691E-03 0.00000E+00
 -1        36 2.63249E-02 7.02108E-03 0.00000E+00
 -1        37 3.62828E-02 7.33492E-03 0.00000E+00
 -1        38 4.74718E-02 7.34146E-03 0.00000E+00
 -1        39 5.99221E-02 7.06941E-03 0.00000E+00
 -1        40 7.37280E-02 6.47231E-03 0.00000E+00
 -1        41 8.89299E-02 5.43630E-03 0.00000E+00
 -1        42 1.05409E-01 3.86185E-03 0.00000E+00
 -1        43 1.22949E-01 1.71857E-03 0.00000E+00
 -1        44 1.41294E-01-9.42479E-04 0.00000E+00
 -1        45 1.60233E-01-4.02903E-03 0.00000E+00
 -1        46 1.79610E-01-7.44153E-03 0.00000E+00
 -1        47 1.99343E-01-1.11123E-02 0.00000E+00
 -1        48 2.19364E-01-1.50024E-02 0.00000E+00
 -1        49 2.39583E-01-1.90821E-02 0.00000E+00
 -1        50 2.59881E-01-2.32971E-02 0.00000E+00
 -1        51 2.51326E-01-6.37537E-02 0.00000E+00
 -1        52 2.31111E-01-5.93672E-02 0.00000E+00
 -1        53 2.11058E-01-5.49310E-02 0.00000E+00
 -1        54 1.91279E-01-5.04941E-02 0.00000E+00
 -1        55 1.71854E-01-4.61007E-02 0.00000E+00
 -1        56 1.52855E-01-4.17680E-02 0.00000E+00
 -1        57 1.34393E-01-3.74995E-02 0.00000E+00
 -1        58 1.16635E-01-3.33076E-02 0.00000E+00
 -1        59 9.97903E-02-2.92340E-02 0.00000E+00
 -1        60 8.40776E-02-2.53553E-02 0.00000E+00
 -1        61 6.96619E-02-2.17724E-02 0.00000E+00
 -1        62 5.65839E-02-1.85644E-02 0.00000E+00
 -1        63 4.47728E-02-1.57396E-02 0.00000E+00
 -1        64 3.41414E-02-1.32244E-02 0.00000E+00
 -1        65 2.47012E-02-1.09123E-02 0.00000E+00
 -1        66 1.65650E-02-8.71820E-03 0.00000E+00
 -1        67 9.89504E-03-6.58883E-03 0.00000E+00
 -1        68 4.82404E-03-4.47397E-03 0.00000E+00
 -1        69 1.61830E-03-2.25616E-03 0.00000E+00
 -1        70 2.51326E-01-6.37537E-02 0.00000E+00
 -1        71 2.31111E-01-5.93672E-02 0.00000E+00
 -1        72 2.11058E-01-5.49310E-02 0.00000E+00
 -1        73 1.91279E-01-5.04941E-02 0.00000E+00
 -1        74 1.71854E-01-4.61007E-02 0.00000E+00
 -1        75 1.52855E-01-4.17680E-02 0.00000E+00
 -1        76 1.34393E-01-3.74995E-02 0.00000E+00
 -1        77 1.16635E-01-3.33076E-02 0.00000E+00
 -1        78 9.97903E-02-2.92340E-02 0.00000E+00
 -1        79 8.40776E-02-2.53553E-02 0.00000E+00
 -1        80 6.96619E-02-2.17724E-02 0.00000E+00
 -1        81 5.65839E-02-1.85644E-02 0.00000E+00
 -1        82 4.47728E-02-1.57396E-02 0.00000E+00
 -1        83 3.41414E-02-1.32244E-02 0.00000E+00
 -1        84 2.47012E-02-1.09123E-02 0.00000E+00
 -1        85 1.65650E-02-8.71820E-03 0.00000E+00
 -1        86 9.89504E-03-6.58883E-03 0.00000E+00
 -1        87 4.82404E-03-4.47397E-03 0.00000E+00
 -1        88 1.61830E-03-2.25616E-03 0.00000E+00
 -1        89 1.11607E-03-8.97408E-05 0.00000E+00
 -1        90 4.61605E-03-2.68951E-04 0.00000E+00
 -1        91 9.88736E-03-6.01060E-04 0.00000E+00
 -1        92 1.68129E-02-1.13290E-03 0.00000E+00
 -1        93 2.52183E-02-1.89011E-03 0.00000E+00
 -1        94 3.49358E-02-2.88564E-03 0.00000E+00
 -1        95 4.58502E-02-4.13403E-03 0.00000E+00
 -1        96 5.79736E-02-5.67347E-03 0.00000E+00
 -1        97 7.14141E-02-7.56656E-03 0.00000E+00
 -1        98 8.62395E-02-9.87089E-03 0.00000E+00
 -1        99 1.02372E-01-1.26019E-02 0.00000E+00
 -1       100 1.19606E-01-1.57223E-02 0.00000E+00
 -1       101 1.37698E-01-1.91627E-02 0.00000E+00
 -1       102 1.56431E-01-2.28516E-02 0.00000E+00
 -1       103 1.75644E-01-2.67337E-02 0.00000E+00
 -1       104 1.95241E-01-3.07741E-02 0.00000E+00
 -1       105 2.15160E-01-3.49462E-02 0.00000E+00
 -1       106 2.35317E-01-3.92131E-02 0.00000E+00
 -1       107 2.55592E-01-4.35214E-02 0.00000E+00
 -1       108 2.55592E-01-4.35214E-02 0.00000E+00
 -1       109 2.35317E-01-3.92131E-02 0.00000E+00
 -1       110 2.15160E-01-3.49462E-02 0.00000E+00
 -1       111 1.95241E-01-3.07741E-02 0.00000E+00
 -1       112 1.75644E-01-2.67337E-02 0.00000E+00
 -1       113 1.56431E-01-2.28516E-02 0.00000E+00
 -1       114 1.37698E-01-1.91627E-02 0.00000E+00
 -1       115 1.19606E-01-1.57223E-02 0.00000E+00
 -1       116 1.02372E-01-1.26019E-02 0.00000E+00
 -1       117 8.62395E-02-9.87089E-03 0.00000E+00
 -1       118 7.14141E-02-7.56656E-03 0.00000E+00
 -1       119 5.79736E-02-5.67347E-03 0.00000E+00
 -1       120 4.58502E-02-4.13403E-03 0.00000E+00
 -1       121 3.49358E-02-2.88564E-03 0.00000E+00
 -1       122 2.52183E-02-1.89011E-03 0.00000E+00
 -1       123 1.68129E-02-1.13290E-03 0.00000E+00
 -1       124 9.88736E-03-6.01060E-04 0.00000E+00
 -1       125 4.61605E-03-2.68951E-04 0.00000E+00
 -1       126 1.11607E-03-8.97408E-05 0.00000E+00
 -3
    1PSTEP                       286          72           1          
  100CL  172 7.20000E-01         126                     1   72           1
 -4  STRESS      6    1
 -5  SXX         1    4    1    1
 -5  SYY         1    4    2    2
 -5  SZZ         1    4    3    3
 -5  SXY         1    4    1    2
 -5  SYZ         1    4    2    3
 -5  SZX         1    4    3    1
 -1         1 9.63031E+03 2.31915E+04 9.33016E+03 5.96274E+03-2.02557E-10-1.78058E-10
 -1         2 9.63031E+03 2.31915E+04 9.33016E+03 5.96274E+03-2.02557E-10-1.78058E-10
 -1         3 1.08733E+02 1.39562E+02 7.44301E+01 1.15947E+02 5.45555E-09 9.12574E-08
 -1         4 1.08733E+02 1.39562E+02 7.44301E+01 1.15947E+02 5.45309E-09 9.12722E-08
 -1         5-1.13544E+02-3.23855E+02-1.31318E+02-2.79234E+01-1.00551E-07 5.42962E-08
 -1         6-1.13544E+02-3.23855E+02-1.31318E+02-2.79234E+01-1.00565E-07 5.42925E-08
 -1         7-1.02896E+04-2.27766E+04-1.05298E+04 4.29562E+03-1.71237E-10 1.28354E-10
 -1         8-1.02896E+04-2.27766E+04-1.05298E+04 4.29562E+03-1.71237E-10 1.28358E-10
 -1         9 2.27971E+01-9.97974E+01-2.31138E+01 6.34889E+01-4.25682E-08 6.83945E-08
 -1        10 2.27971E+01-9.97974E+01-2.31138E+01 6.34889E+01-4.25613E-08 6.83674E-08
 -1        11-2.76034E+02-1.20981E+03-3.56729E+02 3.40655E+03-1.85237E-10-2.71423E-11
 -1        12-2.76034E+02-1.20981E+03-3.56729E+02 3.40655E+03-1.85237E-10-2.71497E-11
 -1        13 3.51426E+03 1.99512E+04 6.69268E+03 1.91141E+03-6.61442E-09-2.97010E-08
 -1        14 4.38227E+03 1.85575E+04 6.57072E+03 1.64067E+03 2.27533E-09-3.50044E-08
 -1        15 3.88570E+03 1.62745E+04 5.80324E+03 1.95777E+03 1.27666E-08-2.19611E-08
 -1        16 3.65930E+03 1.45588E+04 5.26516E+03 2.07080E+03 2.63952E-09 2.13713E-08
 -1        17 3.43744E+03 1.31422E+04 4.80819E+03 2.11416E+03-2.94441E-08 6.31009E-08
 -1        18 3.27145E+03 1.22774E+04 4.51926E+03 2.10531E+03-5.22709E-08 3.48194E-08
 -1        19 3.31582E+03 1.21052E+04 4.48323E+03 2.17804E+03-4.89702E-08-1.66552E-08
 -1        20 3.48080E+03 1.22433E+04 4.56667E+03 2.44177E+03-2.04413E-08-4.88555E-08
 -1        21 3.68305E+03 1.20594E+04 4.57010E+03 2.78987E+03 6.60040E-09-3.32871E-08
 -1        22 3.71490E+03 1.11013E+04 4.30865E+03 2.99185E+03-2.28614E-09 1.56826E-08
 -1        23 3.54361E+03 9.48230E+03 3.80281E+03 2.88645E+03-3.20450E-08 3.58994E-08
 -1        24 3.10204E+03 7.56999E+03 3.13127E+03 2.53329E+03-5.48626E-08 1.83338E-08
 -1        25 2.54243E+03 5.80026E+03 2.45989E+03 2.06799E+03-5.66650E-08-3.30998E-08
 -1        26 1.98307E+03 4.39352E+03 1.88790E+03 1.62662E+03-2.25309E-08-1.09799E-07
 -1        27 1.57770E+03 3.38439E+03 1.47353E+03 1.26947E+03 2.78268E-08-1.39141E-07
 -1        28 1.24207E+03 2.55176E+03 1.12908E+03 1.00992E+03 6.27440E-08-1.19101E-07
 -1        29 9.24867E+02 1.73380E+03 7.92838E+02 7.72024E+02 6.91035E-08-6.77759E-08
 -1        30 5.67758E+02 9.24165E+02 4.45837E+02 5.08576E+02 5.75391E-08-1.72156E-08
 -1        31 2.51123E+02 3.40239E+02 1.77062E+02 2.42090E+02 3.05892E-08 3.26204E-08
 -1        32 3.51426E+03 1.99512E+04 6.69268E+03 1.91141E+03-6.61442E-09-2.97010E-08
 -1        33 4.38227E+03 1.85575E+04 6.57072E+03 1.64067E+03 2.27533E-09-3.50044E-08
 -1        34 3.88570E+03 1.62745E+04 5.80324E+03 1.95777E+03 1.27666E-08-2.19611E-08
 -1        35 3.65930E+03 1.45588E+04 5.26516E+03 2.07080E+03 2.63957E-09 2.13704E-08
 -1        36 3.43744E+03 1.31422E+04 4.80819E+03 2.11416E+03-2.94441E-08 6.31013E-08
 -1        37 3.27145E+03 1.22774E+04 4.51926E+03 2.10531E+03-5.22704E-08 3.48176E-08
 -1        38 3.31582E+03 1.21052E+04 4.48323E+03 2.17804E+03-4.89703E-08-1.66518E-08
 -1        39 3.48080E+03 1.22433E+04 4.56667E+03 2.44177E+03-2.04413E-08-4.88555E-08
 -1        40 3.68305E+03 1.20594E+04 4.57010E+03 2.78987E+03 6.60040E-09-3.32875E-08
 -1        41 3.71490E+03 1.11013E+04 4.30865E+03 2.99185E+03-2.28613E-09 1.56844E-08
 -1        42 3.54361E+03 9.48230E+03 3.80281E+03 2.88645E+03-3.20450E-08 3.58999E-08
 -1        43 3.10204E+03 7.56999E+03 3.13127E+03 2.53329E+03-5.48626E-08 1.83329E-08
 -1        44 2.54243E+03 5.80026E+03 2.45989E+03 2.06799E+03-5.66651E-08-3.31044E-08
 -1        45 1.98307E+03 4.39352E+03 1.88790E+03 1.62662E+03-2.25305E-08-1.09798E-07
 -1        46 1.57770E+03 3.38439E+03 1.47353E+03 1.26947E+03 2.78268E-08-1.39141E-07
 -1        47 1.24207E+03 2.55176E+03 1.12908E+03 1.00992E+03 6.27440E-08-1.19104E-07
 -1        48 9.24867E+02 1.73380E+03 7.92838E+02 7.72024E+02 6.91024E-08-6.77770E-08
 -1        49 5.67758E+02 9.24165E+02 4.45837E+02 5.08576E+02 5.75382E-08-1.72189E-08
 -1        50 2.51123E+02 3.40239E+02 1.77062E+02 2.42090E+02 3.05914E-08 3.26152E-08
 -1        51-1.97162E+02-7.01259E+02-2.70182E+02-9.52183E+01-7.47302E-08-7.99312E-09
 -1        52-4.41877E+02-1.54506E+03-5.99082E+02-3.09126E+02-4.73913E-08-5.56347E-08
 -1        53-7.84021E+02-2.48329E+03-9.87897E+02-5.97578E+02-9.55487E-09-1.08467E-07
 -1        54-1.13262E+03-3.37420E+03-1.36622E+03-8.70789E+02 2.55044E-08-1.42673E-07
 -1        55-1.45992E+03-4.29439E+03-1.74892E+03-1.10321E+03 5.67622E-08-1.36254E-07
 -1        56-1.83008E+03-5.44427E+03-2.21825E+03-1.34072E+03 6.05137E-08-7.70419E-08
 -1        57-2.27939E+03-6.92868E+03-2.82053E+03-1.64170E+03 3.45225E-08-8.28910E-09
 -1        58-2.83511E+03-8.69482E+03-3.55067E+03-1.99629E+03-3.21166E-09 3.71944E-08
 -1        59-3.40933E+03-1.04688E+04-4.29662E+03-2.34300E+03-3.34996E-08 3.73775E-08
 -1        60-3.86320E+03-1.18448E+04-4.88280E+03-2.58607E+03-4.15865E-08 4.36797E-09
 -1        61-4.03253E+03-1.24809E+04-5.14159E+03-2.64231E+03-2.13858E-08-3.53754E-08
 -1        62-3.94115E+03-1.24578E+04-5.10222E+03-2.47926E+03 6.40209E-09-4.17008E-08
 -1        63-3.73530E+03-1.22790E+04-4.97543E+03-2.16920E+03 1.64457E-08 2.88215E-09
 -1        64-3.62833E+03-1.25264E+04-5.01943E+03-1.84071E+03 3.29405E-10 4.72986E-08
 -1        65-3.68906E+03-1.33956E+04-5.32110E+03-1.58001E+03-3.14776E-08 5.57685E-08
 -1        66-3.93923E+03-1.47454E+04-5.84204E+03-1.36088E+03-4.61940E-08 1.77271E-08
 -1        67-4.23450E+03-1.63308E+04-6.45872E+03-1.06869E+03-3.35254E-08-2.45614E-08
 -1        68-5.00853E+03-1.84644E+04-7.41388E+03-7.59255E+02-9.29906E-09-4.14100E-08
 -1        69-3.98803E+03-1.96189E+04-7.49700E+03 3.53544E+02 3.55373E-09-2.18767E-08
 -1        70-1.97162E+02-7.01259E+02-2.70182E+02-9.52183E+01-7.47200E-08-7.98993E-09
 -1        71-4.41877E+02-1.54506E+03-5.99082E+02-3.09126E+02-4.73925E-08-5.56219E-08
 -1        72-7.84021E+02-2.48329E+03-9.87897E+02-5.97578E+02-9.55967E-09-1.08463E-07
 -1        73-1.13262E+03-3.37420E+03-1.36622E+03-8.70789E+02 2.55037E-08-1.42650E-07
 -1        74-1.45992E+03-4.29439E+03-1.74892E+03-1.10321E+03 5.67626E-08-1.36245E-07
 -1        75-1.83008E+03-5.44427E+03-2.21825E+03-1.34072E+03 6.05137E-08-7.70431E-08
 -1        76-2.27939E+03-6.92868E+03-2.82053E+03-1.64170E+03 3.45219E-08-8.28886E-09
 -1        77-2.83511E+03-8.69482E+03-3.55067E+03-1.99629E+03-3.21182E-09 3.71944E-08
 -1        78-3.40933E+03-1.04688E+04-4.29662E+03-2.34300E+03-3.34990E-08 3.73775E-08
 -1        79-3.86320E+03-1.18448E+04-4.88280E+03-2.58607E+03-4.15867E-08 4.37481E-09
 -1        80-4.03253E+03-1.24809E+04-5.14159E+03-2.64231E+03-2.13859E-08-3.53771E-08
 -1        81-3.94115E+03-1.24578E+04-5.10222E+03-2.47926E+03 6.40226E-09-4.17008E-08
 -1        82-3.73530E+03-1.22790E+04-4.97543E+03-2.16920E+03 1.64453E-08 2.87803E-09
 -1        83-3.62833E+03-1.25264E+04-5.01943E+03-1.84071E+03 3.29384E-10 4.72988E-08
 -1        84-3.68906E+03-1.33956E+04-5.32110E+03-1.58001E+03-3.14771E-08 5.57681E-08
 -1        85-3.93923E+03-1.47454E+04-5.84204E+03-1.36088E+03-4.61963E-08 1.77289E-08
 -1        86-4.23450E+03-1.63308E+04-6.45872E+03-1.06869E+03-3.35252E-08-2.45618E-08
 -1        87-5.00853E+03-1.84644E+04-7.41388E+03-7.59255E+02-9.29908E-09-4.14100E-08
 -1        88-3.98803E+03-1.96189E+04-7.49700E+03 3.53544E+02 3.55372E-09-2.18767E-08
 -1        89-7.84784E+01-1.14565E+03-3.35731E+02 4.68210E+02-2.66950E-09-2.60095E-08
 -1        90-1.16235E+02-1.04064E+03-2.97303E+02 6.17367E+02-4.79394E-09-4.27681E-08
 -1        91-5.34426E+01-9.18506E+02-2.56426E+02 4.21745E+02-1.11096E-08-2.50620E-08
 -1        92-4.00560E+01-8.31663E+02-2.32202E+02 3.33641E+02-2.36151E-08 2.18716E-08
 -1        93-4.96842E+01-7.31871E+02-2.09120E+02 2.15125E+02-3.05472E-08 6.52088E-08
 -1        94-1.26008E+02-6.41303E+02-2.06777E+02 4.10553E+01-2.39453E-08 4.76683E-08
 -1        95-1.81068E+02-5.71342E+02-2.03346E+02-1.35489E+02-1.24106E-08-8.51649E-09
 -1        96-2.08607E+02-5.96102E+02-2.20341E+02-1.87281E+02-3.66619E-09-5.03778E-08
 -1        97-1.35248E+02-7.02237E+02-2.31997E+02-7.81694E+01-7.29817E-09-4.04076E-08
 -1        98-7.47550E+00-8.39834E+02-2.37485E+02 1.04378E+02-2.34536E-08 1.09683E-08
 -1        99 1.48225E+02-9.04427E+02-2.13484E+02 2.31818E+02-3.44531E-08 4.15545E-08
 -1       100 2.13887E+02-8.86130E+02-1.92183E+02 2.69201E+02-3.32252E-08 3.30788E-08
 -1       101 2.04652E+02-7.90777E+02-1.69675E+02 2.34382E+02-1.11115E-08-1.98807E-08
 -1       102 1.37340E+02-6.75917E+02-1.57769E+02 1.69346E+02 2.24109E-08-9.53166E-08
 -1       103 1.04853E+02-5.62891E+02-1.35176E+02 1.07637E+02 4.59851E-08-1.44502E-07
 -1       104 9.44810E+01-4.95879E+02-1.19321E+02 9.60847E+01 4.69845E-08-1.35740E-07
 -1       105 1.15833E+02-4.43047E+02-9.77765E+01 1.23061E+02 3.12397E-08-9.41990E-08
 -1       106 1.12715E+02-3.61498E+02-7.45697E+01 1.41327E+02 7.10335E-09-3.61226E-08
 -1       107 6.47613E+01-2.04974E+02-4.20663E+01 1.04366E+02-1.86284E-08 1.72795E-08
 -1       108 6.47613E+01-2.04974E+02-4.20663E+01 1.04366E+02-1.86352E-08 1.72832E-08
 -1       109 1.12715E+02-3.61498E+02-7.45697E+01 1.41327E+02 7.10538E-09-3.61149E-08
 -1       110 1.15833E+02-4.43047E+02-9.77765E+01 1.23061E+02 3.12395E-08-9.42039E-08
 -1       111 9.44810E+01-4.95879E+02-1.19321E+02 9.60847E+01 4.69852E-08-1.35738E-07
 -1       112 1.04853E+02-5.62891E+02-1.35176E+02 1.07637E+02 4.59859E-08-1.44507E-07
 -1       113 1.37340E+02-6.75917E+02-1.57769E+02 1.69346E+02 2.24108E-08-9.53145E-08
 -1       114 2.04652E+02-7.90777E+02-1.69675E+02 2.34382E+02-1.11103E-08-1.98801E-08
 -1       115 2.13887E+02-8.86130E+02-1.92183E+02 2.69201E+02-3.32253E-08 3.30805E-08
 -1       116 1.48225E+02-9.04427E+02-2.13484E+02 2.31818E+02-3.44528E-08 4.15536E-08
 -1       117-7.47550E+00-8.39834E+02-2.37485E+02 1.04378E+02-2.34536E-08 1.09641E-08
 -1       118-1.35248E+02-7.02237E+02-2.31997E+02-7.81694E+01-7.29797E-09-4.04067E-08
 -1       119-2.08607E+02-5.96102E+02-2.20341E+02-1.87281E+02-3.66630E-09-5.03778E-08
 -1       120-1.81068E+02-5.71342E+02-2.03346E+02-1.35489E+02-1.24104E-08-8.51522E-09
 -1       121-1.26008E+02-6.41303E+02-2.06777E+02 4.10553E+01-2.39453E-08 4.76713E-08
 -1       122-4.96842E+01-7.31871E+02-2.09120E+02 2.15125E+02-3.05474E-08 6.52080E-08
 -1       123-4.00560E+01-8.31663E+02-2.32202E+02 3.33641E+02-2.36149E-08 2.18731E-08
 -1       124-5.34426E+01-9.18506E+02-2.56426E+02 4.21745E+02-1.11096E-08-2.50620E-08
 -1       125-1.16235E+02-1.04064E+03-2.97303E+02 6.17367E+02-4.79392E-09-4.27681E-08
 -1       126-7.84784E+01-1.14565E+03-3.35731E+02 4.68210E+02-2.66948E-09-2.60095E-08
 -3
    1PSTEP                       287          72           1          
  100CL  172 7.20000E-01         126                     1   72           1
 -4  TOSTRAIN    6    1
 -5  EXX         1    4    1    1
 -5  EYY         1    4    2    2
 -5  EZZ         1    4    3    3
 -5  EXY         1    4    1    2
 -5  EYZ         1    4    2    3
 -5  EZX         1    4    3    1
 -1         1-1.62063E-04 4.19210E-02-3.21145E-27 1.71593E-02 4.48172E-19-3.22174E-16
 -1         2-1.62063E-04 4.19210E-02-3.21145E-27 1.71593E-02 4.48172E-19-3.22174E-16
 -1         3-1.51387E-04 4.73975E-04 1.52159E-25 2.15713E-04 1.36266E-13 2.63925E-13
 -1         4-1.51387E-04 4.73975E-04 1.52200E-25 2.15713E-04 1.36278E-13 2.63972E-13
 -1         5 1.27052E-05-5.81480E-04 2.47923E-25 1.92616E-04-2.27490E-13 2.93872E-13
 -1         6 1.27052E-05-5.81480E-04 2.47970E-25 1.92616E-04-2.27537E-13 2.93879E-13
 -1         7-1.65034E-04-4.37453E-02-1.68019E-27 1.61827E-02-7.77114E-20 2.14821E-16
 -1         8-1.65034E-04-4.37453E-02-1.68019E-27 1.61827E-02-7.74039E-20 2.14833E-16
 -1         9-6.93407E-05-3.08533E-05 1.14767E-25 2.86255E-04-3.64443E-14 2.59320E-13
 -1        10-6.93407E-05-3.08533E-05 1.14683E-25 2.86255E-04-3.64595E-14 2.59231E-13
 -1        11-1.63548E-04-1.70758E-03-2.37619E-27 1.11605E-02 1.42961E-19-7.13158E-17
 -1        12-1.63548E-04-1.70758E-03-2.37618E-27 1.11605E-02 1.42387E-19-7.13395E-17
 -1        13-1.11719E-02 4.07026E-02 1.75630E-26 3.57798E-03-2.40826E-14-9.47485E-14
 -1        14-8.08424E-03 3.71267E-02 2.51818E-26 1.31726E-03-1.84396E-15-1.12994E-13
 -1        15-7.48023E-03 3.30670E-02 7.68582E-27 1.33382E-03 3.14775E-14-7.53723E-14
 -1        16-6.67643E-03 2.98553E-02-7.23572E-28 1.07643E-03 1.81122E-14 6.68977E-14
 -1        17-6.06867E-03 2.72073E-02 9.57041E-26 8.14424E-04-5.54925E-14 2.17813E-13
 -1        18-5.74116E-03 2.55915E-02 6.98562E-26 3.53336E-04-1.38311E-13 1.44992E-13
 -1        19-5.62605E-03 2.53160E-02 3.88142E-26-8.73564E-05-1.61953E-13-1.58804E-14
 -1        20-5.79345E-03 2.58534E-02 5.19829E-26-1.56498E-04-1.01485E-13-1.35739E-13
 -1        21-5.84834E-03 2.59222E-02 1.78828E-26 2.31207E-04-9.71131E-15-1.09251E-13
 -1        22-5.55285E-03 2.44638E-02-2.79209E-27 8.07148E-04 8.25356E-15 5.05218E-14
 -1        23-4.73989E-03 2.14083E-02 4.51864E-26 1.24396E-03-5.81115E-14 1.44061E-13
 -1        24-3.81323E-03 1.75120E-02 6.02589E-26 1.39721E-03-1.42848E-13 1.18196E-13
 -1        25-2.94833E-03 1.36883E-02 6.14820E-26 1.28307E-03-2.06908E-13-3.22117E-14
 -1        26-2.30293E-03 1.05307E-02 2.35610E-25 1.01829E-03-1.99590E-13-3.01852E-13
 -1        27-1.74695E-03 8.16051E-03 4.15511E-25 7.84510E-04-9.03538E-14-4.51158E-13
 -1        28-1.36350E-03 6.27269E-03 3.74576E-25 7.13365E-04 3.47544E-14-4.35635E-13
 -1        29-9.97761E-04 4.44177E-03 1.81386E-25 7.39483E-04 1.17295E-13-2.91560E-13
 -1        30-6.38299E-04 2.57323E-03 5.55258E-26 6.85128E-04 1.48134E-13-1.26705E-13
 -1        31-2.94862E-04 1.06273E-03 1.99100E-26 4.20536E-04 1.33628E-13 5.66128E-14
 -1        32-1.11719E-02 4.07026E-02 1.75630E-26 3.57798E-03-2.40826E-14-9.47485E-14
 -1        33-8.08424E-03 3.71267E-02 2.51818E-26 1.31726E-03-1.84396E-15-1.12994E-13
 -1        34-7.48023E-03 3.30670E-02 7.68596E-27 1.33382E-03 3.14775E-14-7.53723E-14
 -1        35-6.67643E-03 2.98553E-02-7.24475E-28 1.07643E-03 1.81120E-14 6.68948E-14
 -1        36-6.06867E-03 2.72073E-02 9.57048E-26 8.14424E-04-5.54923E-14 2.17814E-13
 -1        37-5.74116E-03 2.55915E-02 6.98537E-26 3.53336E-04-1.38311E-13 1.44986E-13
 -1        38-5.62605E-03 2.53160E-02 3.88139E-26-8.73564E-05-1.61951E-13-1.58695E-14
 -1        39-5.79345E-03 2.58534E-02 5.19829E-26-1.56498E-04-1.01485E-13-1.35739E-13
 -1        40-5.84834E-03 2.59222E-02 1.78828E-26 2.31207E-04-9.71179E-15-1.09253E-13
 -1        41-5.55285E-03 2.44638E-02-2.79200E-27 8.07148E-04 8.25535E-15 5.05275E-14
 -1        42-4.73989E-03 2.14083E-02 4.51871E-26 1.24396E-03-5.81110E-14 1.44062E-13
 -1        43-3.81323E-03 1.75120E-02 6.02571E-26 1.39721E-03-1.42849E-13 1.18193E-13
 -1        44-2.94833E-03 1.36883E-02 6.14903E-26 1.28307E-03-2.06914E-13-3.22253E-14
 -1        45-2.30293E-03 1.05307E-02 2.35607E-25 1.01829E-03-1.99587E-13-3.01849E-13
 -1        46-1.74695E-03 8.16051E-03 4.15511E-25 7.84510E-04-9.03537E-14-4.51158E-13
 -1        47-1.36350E-03 6.27269E-03 3.74591E-25 7.13365E-04 3.47513E-14-4.35642E-13
 -1        48-9.97761E-04 4.44177E-03 1.81387E-25 7.39483E-04 1.17290E-13-2.91562E-13
 -1        49-6.38299E-04 2.57323E-03 5.55250E-26 6.85128E-04 1.48127E-13-1.26714E-13
 -1        50-2.94862E-04 1.06273E-03 1.98980E-26 4.20536E-04 1.33627E-13 5.65946E-14
 -1        51 1.97608E-04-1.36676E-03 9.34119E-26 3.99883E-04-2.33052E-13 7.47124E-14
 -1        52 6.66776E-04-3.25646E-03 8.92596E-26 6.48372E-04-2.14745E-13-1.03249E-13
 -1        53 1.19569E-03-5.46130E-03 2.32892E-25 7.07142E-04-1.70467E-13-3.10864E-13
 -1        54 1.66409E-03-7.55640E-03 4.35998E-25 6.96684E-04-1.07469E-13-4.59285E-13
 -1        55 2.09869E-03-9.63206E-03 4.51389E-25 7.88462E-04-9.89239E-16-4.80463E-13
 -1        56 2.60203E-03-1.21417E-02 1.81726E-25 1.01834E-03 8.91978E-14-3.06871E-13
 -1        57 3.31568E-03-1.54208E-02 4.24129E-27 1.27783E-03 9.66459E-14-6.64524E-14
 -1        58 4.15485E-03-1.93568E-02 1.84169E-26 1.41390E-03 3.33220E-14 1.17179E-13
 -1        59 4.98802E-03-2.33397E-02 5.05918E-26 1.28558E-03-6.48382E-14 1.51386E-13
 -1        60 5.59562E-03-2.64126E-02 3.41541E-26 8.38431E-04-1.29228E-13 5.55629E-14
 -1        61 5.86931E-03-2.77723E-02 3.30255E-26 2.39936E-04-1.03430E-13-9.10453E-14
 -1        62 5.76830E-03-2.75066E-02 3.17688E-26-1.45377E-04-1.53087E-14-1.36951E-13
 -1        63 5.56557E-03-2.67732E-02-4.53864E-27-6.35378E-05 5.62970E-14-3.25856E-15
 -1        64 5.55687E-03-2.69489E-02 3.92553E-26 3.67160E-04 3.38852E-14 1.50874E-13
 -1        65 5.92522E-03-2.85792E-02 8.26363E-26 8.16575E-04-7.11980E-14 1.97712E-13
 -1        66 6.48271E-03-3.13098E-02 4.95832E-26 1.09030E-03-1.46455E-13 8.02797E-14
 -1        67 7.22670E-03-3.46177E-02 3.39183E-26 1.37756E-03-1.23827E-13-6.63258E-14
 -1        68 7.58021E-03-3.89118E-02 3.55926E-26 1.32750E-03-4.36432E-14-1.32290E-13
 -1        69 1.08801E-02-4.26013E-02 8.24379E-27 3.66736E-03 9.34998E-15-7.18958E-14
 -1        70 1.97608E-04-1.36676E-03 9.33963E-26 3.99883E-04-2.33017E-13 7.47084E-14
 -1        71 6.66776E-04-3.25646E-03 8.92435E-26 6.48372E-04-2.14732E-13-1.03210E-13
 -1        72 1.19569E-03-5.46130E-03 2.32883E-25 7.07142E-04-1.70477E-13-3.10848E-13
 -1        73 1.66409E-03-7.55640E-03 4.35856E-25 6.96684E-04-1.07441E-13-4.59213E-13
 -1        74 2.09869E-03-9.63206E-03 4.51341E-25 7.88462E-04-9.77314E-16-4.80438E-13
 -1        75 2.60203E-03-1.21417E-02 1.81730E-25 1.01834E-03 8.91964E-14-3.06875E-13
 -1        76 3.31568E-03-1.54208E-02 4.24040E-27 1.27783E-03 9.66443E-14-6.64509E-14
 -1        77 4.15485E-03-1.93568E-02 1.84171E-26 1.41390E-03 3.33215E-14 1.17179E-13
 -1        78 4.98802E-03-2.33397E-02 5.05911E-26 1.28558E-03-6.48363E-14 1.51385E-13
 -1        79 5.59562E-03-2.64126E-02 3.41531E-26 8.38431E-04-1.29222E-13 5.55843E-14
 -1        80 5.86931E-03-2.77723E-02 3.30257E-26 2.39936E-04-1.03432E-13-9.10506E-14
 -1        81 5.76830E-03-2.75066E-02 3.17688E-26-1.45377E-04-1.53082E-14-1.36951E-13
 -1        82 5.56557E-03-2.67732E-02-4.54016E-27-6.35378E-05 5.62925E-14-3.27129E-15
 -1        83 5.55687E-03-2.69489E-02 3.92543E-26 3.67160E-04 3.38854E-14 1.50875E-13
 -1        84 5.92522E-03-2.85792E-02 8.26353E-26 8.16575E-04-7.11968E-14 1.97711E-13
 -1        85 6.48271E-03-3.13098E-02 4.95891E-26 1.09030E-03-1.46461E-13 8.02866E-14
 -1        86 7.22670E-03-3.46177E-02 3.39182E-26 1.37756E-03-1.23827E-13-6.63273E-14
 -1        87 7.58021E-03-3.89118E-02 3.55926E-26 1.32750E-03-4.36432E-14-1.32290E-13
 -1        88 1.08801E-02-4.26013E-02 8.24380E-27 3.66736E-03 9.34996E-15-7.18958E-14
 -1        89-1.45884E-04-1.48658E-03 1.26270E-26 1.66737E-03-1.20088E-14-8.41033E-14
 -1        90-2.52014E-04-1.21702E-03 3.77465E-26 2.23772E-03-2.69504E-14-1.37154E-13
 -1        91-1.26768E-04-1.12113E-03 8.89383E-27 1.66852E-03-4.55272E-14-7.64871E-14
 -1        92-9.68638E-05-1.02181E-03 1.22062E-26 1.42222E-03-6.53850E-14 8.20334E-14
 -1        93-7.17271E-05-9.27922E-04 1.06133E-25 1.04805E-03-5.98923E-14 2.26537E-13
 -1        94-9.21469E-05-8.86510E-04 5.16262E-26 4.60476E-04-4.43917E-14 1.67720E-13
 -1        95-3.02401E-05-9.32178E-04-7.89127E-27-1.08390E-04-4.56969E-14-1.76536E-14
 -1        96-1.25755E-05-1.02688E-03 5.02628E-26-2.16478E-04-5.36199E-14-1.55280E-13
 -1        97 1.04855E-05-1.10095E-03 2.96363E-26 2.87347E-04-6.00834E-14-1.19303E-13
 -1        98 2.13855E-05-1.12679E-03 5.75053E-27 1.07119E-03-6.18042E-14 5.75303E-14
 -1        99 1.24063E-04-1.10900E-03 6.01733E-26 1.66193E-03-6.12143E-14 1.64730E-13
 -1       100 1.70807E-04-1.04464E-03 3.85520E-26 1.83842E-03-6.36923E-14 1.38774E-13
 -1       101 1.83677E-04-9.44618E-04-1.43852E-26 1.66336E-03-5.73169E-14-4.67337E-14
 -1       102 1.49547E-04-8.48581E-04 1.78417E-25 1.32058E-03-4.94731E-14-3.14279E-13
 -1       103 1.75870E-04-7.71026E-04 4.79761E-25 1.02113E-03-4.37002E-14-4.90847E-13
 -1       104 1.50299E-04-6.72948E-04 4.30676E-25 9.11564E-04-3.33399E-14-4.65621E-13
 -1       105 9.89638E-05-5.25570E-04 1.90624E-25 9.38646E-04-2.91229E-14-3.21201E-13
 -1       106 1.42385E-05-3.38453E-04 4.44630E-27 8.79382E-04-2.61416E-14-1.16726E-13
 -1       107-4.86273E-05-1.33897E-04-9.48380E-27 5.52829E-04-3.26351E-14 7.58971E-14
 -1       108-4.86273E-05-1.33897E-04-9.46654E-27 5.52829E-04-3.26505E-14 7.59170E-14
 -1       109 1.42385E-05-3.38453E-04 4.42726E-27 8.79382E-04-2.61255E-14-1.16706E-13
 -1       110 9.89638E-05-5.25570E-04 1.90632E-25 9.38646E-04-2.91298E-14-3.21215E-13
 -1       111 1.50299E-04-6.72948E-04 4.30663E-25 9.11564E-04-3.33356E-14-4.65616E-13
 -1       112 1.75870E-04-7.71026E-04 4.79790E-25 1.02113E-03-4.37041E-14-4.90862E-13
 -1       113 1.49547E-04-8.48581E-04 1.78410E-25 1.32058E-03-4.94708E-14-3.14273E-13
 -1       114 1.83677E-04-9.44618E-04-1.43843E-26 1.66336E-03-5.73126E-14-4.67334E-14
 -1       115 1.70807E-04-1.04464E-03 3.85554E-26 1.83842E-03-6.36907E-14 1.38779E-13
 -1       116 1.24063E-04-1.10900E-03 6.01716E-26 1.66193E-03-6.12144E-14 1.64727E-13
 -1       117 2.13855E-05-1.12679E-03 5.75042E-27 1.07119E-03-6.18083E-14 5.75170E-14
 -1       118 1.04855E-05-1.10095E-03 2.96365E-26 2.87347E-04-6.00818E-14-1.19300E-13
 -1       119-1.25755E-05-1.02688E-03 5.02628E-26-2.16478E-04-5.36202E-14-1.55280E-13
 -1       120-3.02401E-05-9.32178E-04-7.89137E-27-1.08390E-04-4.56953E-14-1.76497E-14
 -1       121-9.21469E-05-8.86510E-04 5.16324E-26 4.60476E-04-4.43899E-14 1.67729E-13
 -1       122-7.17271E-05-9.27922E-04 1.06132E-25 1.04805E-03-5.98932E-14 2.26534E-13
 -1       123-9.68638E-05-1.02181E-03 1.22073E-26 1.42222E-03-6.53835E-14 8.20382E-14
 -1       124-1.26768E-04-1.12113E-03 8.89362E-27 1.66852E-03-4.55274E-14-7.64870E-14
 -1       125-2.52014E-04-1.21702E-03 3.77465E-26 2.23772E-03-2.69504E-14-1.37154E-13
 -1       126-1.45884E-04-1.48658E-03 1.26269E-26 1.66737E-03-1.20088E-14-8.41032E-14
 -3
    1PSTEP                       288          72           1          
  100CL  172 7.20000E-01         126                     1   72           1
 -4  ERROR       1    1
 -5  STR(%)      1    1    0    0
 -1         1 6.59819E+01
 -1         2 6.59819E+01
 -1         3 5.80357E+01
 -1         4 5.80357E+01
 -1         5 3.41480E+01
 -1         6 3.41480E+01
 -1         7 5.84573E+01
 -1         8 5.84573E+01
 -1         9 5.80357E+01
 -1        10 5.80357E+01
 -1        11 6.59819E+01
 -1        12 6.59819E+01
 -1        13 6.59819E+01
 -1        14 6.51873E+01
 -1        15 6.50479E+01
 -1        16 6.49284E+01
 -1        17 6.47891E+01
 -1        18 6.43834E+01
 -1        19 6.38906E+01
 -1        20 6.38906E+01
 -1        21 6.47983E+01
 -1        22 6.62093E+01
 -1        23 6.73645E+01
 -1        24 6.82555E+01
 -1        25 6.93400E+01
 -1        26 7.04204E+01
 -1        27 7.17139E+01
 -1        28 7.22653E+01
 -1        29 7.22653E+01
 -1        30 6.91588E+01
 -1        31 5.86488E+01
 -1        32 6.59819E+01
 -1        33 6.51873E+01
 -1        34 6.50479E+01
 -1        35 6.49284E+01
 -1        36 6.47891E+01
 -1        37 6.43834E+01
 -1        38 6.38906E+01
 -1        39 6.38906E+01
 -1        40 6.47983E+01
 -1        41 6.62093E+01
 -1        42 6.73645E+01
 -1        43 6.82555E+01
 -1        44 6.93400E+01
 -1        45 7.04204E+01
 -1        46 7.17139E+01
 -1        47 7.22653E+01
 -1        48 7.22653E+01
 -1        49 6.91588E+01
 -1        50 5.86488E+01
 -1        51 4.13348E+01
 -1        52 5.04868E+01
 -1        53 5.37185E+01
 -1        54 5.46884E+01
 -1        55 5.56218E+01
 -1        56 5.63208E+01
 -1        57 5.69012E+01
 -1        58 5.72587E+01
 -1        59 5.72587E+01
 -1        60 5.71905E+01
 -1        61 5.64660E+01
 -1        62 5.65216E+01
 -1        63 5.65216E+01
 -1        64 5.73900E+01
 -1        65 5.77189E+01
 -1        66 5.77189E+01
 -1        67 5.78348E+01
 -1        68 5.78843E+01
 -1        69 5.84573E+01
 -1        70 4.13348E+01
 -1        71 5.04868E+01
 -1        72 5.37185E+01
 -1        73 5.46884E+01
 -1        74 5.56218E+01
 -1        75 5.63208E+01
 -1        76 5.69012E+01
 -1        77 5.72587E+01
 -1        78 5.72587E+01
 -1        79 5.71905E+01
 -1        80 5.64660E+01
 -1        81 5.65216E+01
 -1        82 5.65216E+01
 -1        83 5.73900E+01
 -1        84 5.77189E+01
 -1        85 5.77189E+01
 -1        86 5.78348E+01
 -1        87 5.78843E+01
 -1        88 5.84573E+01
 -1        89 6.59819E+01
 -1        90 6.51873E+01
 -1        91 6.50479E+01
 -1        92 6.49284E+01
 -1        93 6.47891E+01
 -1        94 6.43834E+01
 -1        95 6.38906E+01
 -1        96 6.38906E+01
 -1        97 6.47983E+01
 -1        98 6.62093E+01
 -1        99 6.73645E+01
 -1       100 6.82555E+01
 -1       101 6.93400E+01
 -1       102 7.04204E+01
 -1       103 7.17139E+01
 -1       104 7.22653E+01
 -1       105 7.22653E+01
 -1       106 6.91588E+01
 -1       107 5.86488E+01
 -1       108 5.86488E+01
 -1       109 6.91588E+01
 -1       110 7.22653E+01
 -1       111 7.22653E+01
 -1       112 7.17139E+01
 -1       113 7.04204E+01
 -1       114 6.93400E+01
 -1       115 6.82555E+01
 -1       116 6.73645E+01
 -1       117 6.62093E+01
 -1       118 6.47983E+01
 -1       119 6.38906E+01
 -1       120 6.38906E+01
 -1       121 6.43834E+01
 -1       122 6.47891E+01
 -1       123 6.49284E+01
 -1       124 6.50479E+01
 -1       125 6.51873E+01
 -1       126 6.59819E+01
 -3
    1PSTEP                       289          73           1          
  100CL  173 7.30000E-01         126                     1   73           1
 -4  DISP        4    1
 -5  D1          1    2    1    0
 -5  D2          1    2    2    0
 -5  D3          1    2    3    0
 -5  ALL         1    2    0    0    1ALL
 -1         1 0.00000E+00 0.00000E+00 0.00000E+00
 -1         2 0.00000E+00 0.00000E+00 0.00000E+00
 -1         3 2.85071E-01-2.88354E-02 0.00000E+00
 -1         4 2.85071E-01-2.88354E-02 0.00000E+00
 -1         5 2.76301E-01-6.97683E-02 0.00000E+00
 -1         6 2.76301E-01-6.97683E-02 0.00000E+00
 -1         7 0.00000E+00 0.00000E+00 0.00000E+00
 -1         8 0.00000E+00 0.00000E+00 0.00000E+00
 -1         9 2.80683E-01-4.92999E-02 0.00000E+00
 -1        10 2.80683E-01-4.92999E-02 0.00000E+00
 -1        11 0.00000E+00 0.00000E+00 0.00000E+00
 -1        12 0.00000E+00 0.00000E+00 0.00000E+00
 -1        13 1.69209E-03 2.04221E-03 0.00000E+00
 -1        14 5.15097E-03 3.90142E-03 0.00000E+00
 -1        15 1.05975E-02 5.38258E-03 0.00000E+00
 -1        16 1.77880E-02 6.50037E-03 0.00000E+00
 -1        17 2.65737E-02 7.22959E-03 0.00000E+00
 -1        18 3.67923E-02 7.57197E-03 0.00000E+00
 -1        19 4.83129E-02 7.55795E-03 0.00000E+00
 -1        20 6.11081E-02 7.21124E-03 0.00000E+00
 -1        21 7.52059E-02 6.51814E-03 0.00000E+00
 -1        22 9.06420E-02 5.41323E-03 0.00000E+00
 -1        23 1.07374E-01 3.80705E-03 0.00000E+00
 -1        24 1.25262E-01 1.62468E-03 0.00000E+00
 -1        25 1.44052E-01-1.13462E-03 0.00000E+00
 -1        26 1.63460E-01-4.38746E-03 0.00000E+00
 -1        27 1.83259E-01-8.00184E-03 0.00000E+00
 -1        28 2.03337E-01-1.18702E-02 0.00000E+00
 -1        29 2.23631E-01-1.59290E-02 0.00000E+00
 -1        30 2.44076E-01-2.01431E-02 0.00000E+00
 -1        31 2.64580E-01-2.44661E-02 0.00000E+00
 -1        32 1.69209E-03 2.04221E-03 0.00000E+00
 -1        33 5.15097E-03 3.90142E-03 0.00000E+00
 -1        34 1.05975E-02 5.38258E-03 0.00000E+00
 -1        35 1.77880E-02 6.50037E-03 0.00000E+00
 -1        36 2.65737E-02 7.22959E-03 0.00000E+00
 -1        37 3.67923E-02 7.57197E-03 0.00000E+00
 -1        38 4.83129E-02 7.55795E-03 0.00000E+00
 -1        39 6.11081E-02 7.21124E-03 0.00000E+00
 -1        40 7.52059E-02 6.51814E-03 0.00000E+00
 -1        41 9.06420E-02 5.41323E-03 0.00000E+00
 -1        42 1.07374E-01 3.80705E-03 0.00000E+00
 -1        43 1.25262E-01 1.62468E-03 0.00000E+00
 -1        44 1.44052E-01-1.13462E-03 0.00000E+00
 -1        45 1.63460E-01-4.38746E-03 0.00000E+00
 -1        46 1.83259E-01-8.00184E-03 0.00000E+00
 -1        47 2.03337E-01-1.18702E-02 0.00000E+00
 -1        48 2.23631E-01-1.59290E-02 0.00000E+00
 -1        49 2.44076E-01-2.01431E-02 0.00000E+00
 -1        50 2.64580E-01-2.44661E-02 0.00000E+00
 -1        51 2.55827E-01-6.53601E-02 0.00000E+00
 -1        52 2.35388E-01-6.09002E-02 0.00000E+00
 -1        53 2.15076E-01-5.64014E-02 0.00000E+00
 -1        54 1.94980E-01-5.18987E-02 0.00000E+00
 -1        55 1.75170E-01-4.74164E-02 0.00000E+00
 -1        56 1.55728E-01-4.29511E-02 0.00000E+00
 -1        57 1.36815E-01-3.85014E-02 0.00000E+00
 -1        58 1.18666E-01-3.41067E-02 0.00000E+00
 -1        59 1.01536E-01-2.98621E-02 0.00000E+00
 -1        60 8.56109E-02-2.58824E-02 0.00000E+00
 -1        61 7.09703E-02-2.22560E-02 0.00000E+00
 -1        62 5.76005E-02-1.90111E-02 0.00000E+00
 -1        63 4.54584E-02-1.61175E-02 0.00000E+00
 -1        64 3.45272E-02-1.35030E-02 0.00000E+00
 -1        65 2.48651E-02-1.10870E-02 0.00000E+00
 -1        66 1.65911E-02-8.80586E-03 0.00000E+00
 -1        67 9.85533E-03-6.61586E-03 0.00000E+00
 -1        68 4.77155E-03-4.46728E-03 0.00000E+00
 -1        69 1.58397E-03-2.24067E-03 0.00000E+00
 -1        70 2.55827E-01-6.53601E-02 0.00000E+00
 -1        71 2.35388E-01-6.09002E-02 0.00000E+00
 -1        72 2.15076E-01-5.64014E-02 0.00000E+00
 -1        73 1.94980E-01-5.18987E-02 0.00000E+00
 -1        74 1.75170E-01-4.74164E-02 0.00000E+00
 -1        75 1.55728E-01-4.29511E-02 0.00000E+00
 -1        76 1.36815E-01-3.85014E-02 0.00000E+00
 -1        77 1.18666E-01-3.41067E-02 0.00000E+00
 -1        78 1.01536E-01-2.98621E-02 0.00000E+00
 -1        79 8.56109E-02-2.58824E-02 0.00000E+00
 -1        80 7.09703E-02-2.22560E-02 0.00000E+00
 -1        81 5.76005E-02-1.90111E-02 0.00000E+00
 -1        82 4.54584E-02-1.61175E-02 0.00000E+00
 -1        83 3.45272E-02-1.35030E-02 0.00000E+00
 -1        84 2.48651E-02-1.10870E-02 0.00000E+00
 -1        85 1.65911E-02-8.80586E-03 0.00000E+00
 -1        86 9.85533E-03-6.61586E-03 0.00000E+00
 -1        87 4.77155E-03-4.46728E-03 0.00000E+00
 -1        88 1.58397E-03-2.24067E-03 0.00000E+00
 -1        89 1.08558E-03-7.95354E-05 0.00000E+00
 -1        90 4.56399E-03-2.45479E-04 0.00000E+00
 -1        91 9.85039E-03-5.67149E-04 0.00000E+00
 -1        92 1.68502E-02-1.09718E-03 0.00000E+00
 -1        93 2.54093E-02-1.86885E-03 0.00000E+00
 -1        94 3.53716E-02-2.90155E-03 0.00000E+00
 -1        95 4.66097E-02-4.21101E-03 0.00000E+00
 -1        96 5.90795E-02-5.82487E-03 0.00000E+00
 -1        97 7.28130E-02-7.78608E-03 0.00000E+00
 -1        98 8.78597E-02-1.01447E-02 0.00000E+00
 -1        99 1.04215E-01-1.29378E-02 0.00000E+00
 -1       100 1.21765E-01-1.61613E-02 0.00000E+00
 -1       101 1.40282E-01-1.97548E-02 0.00000E+00
 -1       102 1.59484E-01-2.36223E-02 0.00000E+00
 -1       103 1.79136E-01-2.76750E-02 0.00000E+00
 -1       104 1.99101E-01-3.18595E-02 0.00000E+00
 -1       105 2.19312E-01-3.61480E-02 0.00000E+00
 -1       106 2.39707E-01-4.05119E-02 0.00000E+00
 -1       107 2.60194E-01-4.49094E-02 0.00000E+00
 -1       108 2.60194E-01-4.49094E-02 0.00000E+00
 -1       109 2.39707E-01-4.05119E-02 0.00000E+00
 -1       110 2.19312E-01-3.61480E-02 0.00000E+00
 -1       111 1.99101E-01-3.18595E-02 0.00000E+00
 -1       112 1.79136E-01-2.76750E-02 0.00000E+00
 -1       113 1.59484E-01-2.36223E-02 0.00000E+00
 -1       114 1.40282E-01-1.97548E-02 0.00000E+00
 -1       115 1.21765E-01-1.61613E-02 0.00000E+00
 -1       116 1.04215E-01-1.29378E-02 0.00000E+00
 -1       117 8.78597E-02-1.01447E-02 0.00000E+00
 -1       118 7.28130E-02-7.78608E-03 0.00000E+00
 -1       119 5.90795E-02-5.82487E-03 0.00000E+00
 -1       120 4.66097E-02-4.21101E-03 0.00000E+00
 -1       121 3.53716E-02-2.90155E-03 0.00000E+00
 -1       122 2.54093E-02-1.86885E-03 0.00000E+00
 -1       123 1.68502E-02-1.09718E-03 0.00000E+00
 -1       124 9.85039E-03-5.67149E-04 0.00000E+00
 -1       125 4.56399E-03-2.45479E-04 0.00000E+00
 -1       126 1.08558E-03-7.95354E-05 0.00000E+00
 -3
    1PSTEP                       290          73           1          
  100CL  173 7.30000E-01         126                     1   73           1
 -4  STRESS      6    1
 -5  SXX         1    4    1    1
 -5  SYY         1    4    2    2
 -5  SZZ         1    4    3    3
 -5  SXY         1    4    1    2
 -5  SYZ         1    4    2    3
 -5  SZX         1    4    3    1
 -1         1 9.65488E+03 2.32894E+04 9.36555E+03 5.88073E+03 1.70084E-10 1.37122E-10
 -1         2 9.65488E+03 2.32894E+04 9.36555E+03 5.88073E+03 1.70084E-10 1.37122E-10
 -1         3 7.80751E+01 1.17515E+02 5.86354E+01 9.86471E+01 3.44338E-08 1.02166E-07
 -1         4 7.80751E+01 1.17515E+02 5.86354E+01 9.86471E+01 3.44355E-08 1.02137E-07
 -1         5-9.76316E+01-2.55999E+02-1.06149E+02-1.78067E+01-1.33935E-07 3.45643E-08
 -1         6-9.76316E+01-2.55999E+02-1.06149E+02-1.78067E+01-1.33931E-07 3.45680E-08
 -1         7-1.02324E+04-2.26413E+04-1.04602E+04 4.21015E+03 2.46052E-10-2.83067E-10
 -1         8-1.02324E+04-2.26413E+04-1.04602E+04 4.21015E+03 2.46052E-10-2.83071E-10
 -1         9 1.08278E+01-7.47015E+01-1.91708E+01 5.59721E+01-5.73698E-08 6.26058E-08
 -1        10 1.08278E+01-7.47015E+01-1.91708E+01 5.59721E+01-5.73739E-08 6.26605E-08
 -1        11-2.40233E+02-1.10661E+03-3.12686E+02 3.31472E+03 1.86196E-10-3.46804E-11
 -1        12-2.40233E+02-1.10661E+03-3.12686E+02 3.31472E+03 1.86195E-10-3.46731E-11
 -1        13 3.52842E+03 2.01619E+04 6.75296E+03 1.85911E+03 3.17914E-09 2.50203E-08
 -1        14 4.43430E+03 1.90070E+04 6.70619E+03 1.62379E+03-3.14343E-09 4.65132E-08
 -1        15 3.98871E+03 1.69296E+04 6.01077E+03 1.99663E+03-1.29524E-08 6.42328E-08
 -1        16 3.80822E+03 1.53432E+04 5.52269E+03 2.17800E+03-1.84115E-08 6.53490E-08
 -1        17 3.61720E+03 1.39300E+04 5.07677E+03 2.28908E+03-2.12723E-08 6.83858E-08
 -1        18 3.44556E+03 1.28795E+04 4.73523E+03 2.32279E+03-2.48163E-08 6.08895E-08
 -1        19 3.43798E+03 1.23544E+04 4.58641E+03 2.37375E+03-2.48461E-08 5.78385E-08
 -1        20 3.52026E+03 1.21808E+04 4.56005E+03 2.54321E+03-2.27130E-08 6.72297E-08
 -1        21 3.66963E+03 1.20006E+04 4.54999E+03 2.80369E+03-3.57059E-08 9.80312E-08
 -1        22 3.74701E+03 1.13773E+04 4.39480E+03 3.03403E+03-5.59902E-08 1.08634E-07
 -1        23 3.70726E+03 1.00989E+04 4.02234E+03 3.06223E+03-7.89897E-08 8.97488E-08
 -1        24 3.36319E+03 8.19926E+03 3.38411E+03 2.80773E+03-9.18610E-08 3.55675E-08
 -1        25 2.76525E+03 6.10687E+03 2.61141E+03 2.30236E+03-7.51366E-08-5.02211E-08
 -1        26 2.05431E+03 4.29305E+03 1.87839E+03 1.72125E+03-3.29250E-08-1.36995E-07
 -1        27 1.49211E+03 3.02130E+03 1.34110E+03 1.22864E+03 1.52179E-08-1.86648E-07
 -1        28 1.07341E+03 2.13249E+03 9.55090E+02 8.98105E+02 5.72196E-08-2.01131E-07
 -1        29 7.55611E+02 1.40660E+03 6.45387E+02 6.53867E+02 8.74161E-08-1.74740E-07
 -1        30 4.46059E+02 7.42208E+02 3.55303E+02 4.24836E+02 9.35244E-08-9.74988E-08
 -1        31 1.88507E+02 2.74515E+02 1.38668E+02 2.03740E+02 7.15673E-08 4.37934E-09
 -1        32 3.52842E+03 2.01619E+04 6.75296E+03 1.85911E+03 3.17914E-09 2.50203E-08
 -1        33 4.43430E+03 1.90070E+04 6.70619E+03 1.62379E+03-3.14344E-09 4.65133E-08
 -1        34 3.98871E+03 1.69296E+04 6.01077E+03 1.99663E+03-1.29524E-08 6.42331E-08
 -1        35 3.80822E+03 1.53432E+04 5.52269E+03 2.17800E+03-1.84115E-08 6.53483E-08
 -1        36 3.61720E+03 1.39300E+04 5.07677E+03 2.28908E+03-2.12722E-08 6.83866E-08
 -1        37 3.44556E+03 1.28795E+04 4.73523E+03 2.32279E+03-2.48162E-08 6.08877E-08
 -1        38 3.43798E+03 1.23544E+04 4.58641E+03 2.37375E+03-2.48471E-08 5.78453E-08
 -1        39 3.52026E+03 1.21808E+04 4.56005E+03 2.54321E+03-2.27130E-08 6.72306E-08
 -1        40 3.66963E+03 1.20006E+04 4.54999E+03 2.80369E+03-3.57059E-08 9.80307E-08
 -1        41 3.74701E+03 1.13773E+04 4.39480E+03 3.03403E+03-5.59902E-08 1.08636E-07
 -1        42 3.70726E+03 1.00989E+04 4.02234E+03 3.06223E+03-7.89899E-08 8.97469E-08
 -1        43 3.36319E+03 8.19926E+03 3.38411E+03 2.80773E+03-9.18609E-08 3.55680E-08
 -1        44 2.76525E+03 6.10687E+03 2.61141E+03 2.30236E+03-7.51372E-08-5.02167E-08
 -1        45 2.05431E+03 4.29305E+03 1.87839E+03 1.72125E+03-3.29246E-08-1.36999E-07
 -1        46 1.49211E+03 3.02130E+03 1.34110E+03 1.22864E+03 1.52179E-08-1.86645E-07
 -1        47 1.07341E+03 2.13249E+03 9.55090E+02 8.98105E+02 5.72196E-08-2.01132E-07
 -1        48 7.55611E+02 1.40660E+03 6.45387E+02 6.53867E+02 8.74152E-08-1.74742E-07
 -1        49 4.46059E+02 7.42208E+02 3.55303E+02 4.24836E+02 9.35232E-08-9.74872E-08
 -1        50 1.88507E+02 2.74515E+02 1.38668E+02 2.03740E+02 7.15666E-08 4.35469E-09
 -1        51-1.67681E+02-5.55694E+02-2.17412E+02-6.76570E+01-8.64629E-08-7.13202E-08
 -1        52-3.61288E+02-1.22261E+03-4.77012E+02-2.35369E+02-2.81317E-08-1.61511E-07
 -1        53-6.37319E+02-1.98927E+03-7.92819E+02-4.65037E+02 3.02376E-08-1.94211E-07
 -1        54-9.41465E+02-2.80391E+03-1.13313E+03-6.93340E+02 7.54550E-08-1.90302E-07
 -1        55-1.27885E+03-3.82587E+03-1.54889E+03-9.27374E+02 9.45711E-08-1.49404E-07
 -1        56-1.74110E+03-5.28196E+03-2.14024E+03-1.23499E+03 8.90082E-08-8.68755E-08
 -1        57-2.34882E+03-7.15847E+03-2.91421E+03-1.66357E+03 5.80295E-08 3.30665E-09
 -1        58-3.04636E+03-9.14916E+03-3.76116E+03-2.13935E+03 1.05022E-08 7.60653E-08
 -1        59-3.64073E+03-1.07924E+04-4.47296E+03-2.51955E+03-3.13272E-08 1.09764E-07
 -1        60-3.98497E+03-1.17947E+04-4.90347E+03-2.69040E+03-5.48518E-08 1.12151E-07
 -1        61-4.02506E+03-1.21631E+04-5.03349E+03-2.64258E+03-6.24031E-08 9.25265E-08
 -1        62-3.90657E+03-1.22202E+04-5.01188E+03-2.43454E+03-5.23302E-08 6.92736E-08
 -1        63-3.78162E+03-1.23741E+04-5.01953E+03-2.16126E+03-3.38648E-08 5.78429E-08
 -1        64-3.77860E+03-1.29359E+04-5.19909E+03-1.89901E+03-2.55612E-08 7.50499E-08
 -1        65-3.89231E+03-1.39391E+04-5.56188E+03-1.67806E+03-1.79734E-08 7.17243E-08
 -1        66-4.13828E+03-1.52544E+04-6.07132E+03-1.46076E+03-1.56311E-08 6.54663E-08
 -1        67-4.39251E+03-1.67070E+04-6.63222E+03-1.15121E+03-1.85807E-08 6.43061E-08
 -1        68-5.10516E+03-1.86607E+04-7.50883E+03-8.20586E+02-2.24340E-08 5.57737E-08
 -1        69-4.02948E+03-1.96160E+04-7.50688E+03 2.96379E+02-1.85240E-08 2.85457E-08
 -1        70-1.67681E+02-5.55694E+02-2.17412E+02-6.76570E+01-8.64709E-08-7.13234E-08
 -1        71-3.61288E+02-1.22261E+03-4.77012E+02-2.35369E+02-2.81232E-08-1.61525E-07
 -1        72-6.37319E+02-1.98927E+03-7.92819E+02-4.65037E+02 3.02356E-08-1.94212E-07
 -1        73-9.41465E+02-2.80391E+03-1.13313E+03-6.93340E+02 7.54544E-08-1.90303E-07
 -1        74-1.27885E+03-3.82587E+03-1.54889E+03-9.27374E+02 9.45744E-08-1.49401E-07
 -1        75-1.74110E+03-5.28196E+03-2.14024E+03-1.23499E+03 8.90086E-08-8.68744E-08
 -1        76-2.34882E+03-7.15847E+03-2.91421E+03-1.66357E+03 5.80292E-08 3.30547E-09
 -1        77-3.04636E+03-9.14916E+03-3.76116E+03-2.13935E+03 1.05013E-08 7.60723E-08
 -1        78-3.64073E+03-1.07924E+04-4.47296E+03-2.51955E+03-3.13274E-08 1.09761E-07
 -1        79-3.98497E+03-1.17947E+04-4.90347E+03-2.69040E+03-5.48525E-08 1.12159E-07
 -1        80-4.02506E+03-1.21631E+04-5.03349E+03-2.64258E+03-6.24010E-08 9.25230E-08
 -1        81-3.90657E+03-1.22202E+04-5.01188E+03-2.43454E+03-5.23302E-08 6.92735E-08
 -1        82-3.78162E+03-1.23741E+04-5.01953E+03-2.16126E+03-3.38646E-08 5.78397E-08
 -1        83-3.77860E+03-1.29359E+04-5.19909E+03-1.89901E+03-2.55611E-08 7.50542E-08
 -1        84-3.89231E+03-1.39391E+04-5.56188E+03-1.67806E+03-1.79761E-08 7.17215E-08
 -1        85-4.13828E+03-1.52544E+04-6.07132E+03-1.46076E+03-1.56292E-08 6.54671E-08
 -1        86-4.39251E+03-1.67070E+04-6.63222E+03-1.15121E+03-1.85806E-08 6.43066E-08
 -1        87-5.10516E+03-1.86607E+04-7.50883E+03-8.20586E+02-2.24340E-08 5.57737E-08
 -1        88-4.02948E+03-1.96160E+04-7.50688E+03 2.96379E+02-1.85240E-08 2.85457E-08
 -1        89-9.27315E+01-1.05353E+03-3.11532E+02 4.01172E+02-6.23162E-09 2.57775E-08
 -1        90-1.34800E+02-9.42232E+02-2.71519E+02 5.59217E+02-1.37354E-08 5.09815E-08
 -1        91-7.58314E+01-8.25711E+02-2.32996E+02 3.80240E+02-1.63081E-08 6.70793E-08
 -1        92-5.82704E+01-7.48788E+02-2.10380E+02 3.18359E+02-1.50549E-08 6.70530E-08
 -1        93-5.21897E+01-6.64672E+02-1.87678E+02 2.41981E+02-1.79218E-08 6.92500E-08
 -1        94-1.02058E+02-5.90786E+02-1.83169E+02 1.23389E+02-2.56204E-08 6.59476E-08
 -1        95-1.32448E+02-5.21397E+02-1.73110E+02-1.81059E+01-3.06858E-08 5.59266E-08
 -1        96-1.70648E+02-5.11410E+02-1.82853E+02-1.01413E+02-3.75849E-08 6.74002E-08
 -1        97-1.51046E+02-5.58582E+02-1.92596E+02-7.95533E+01-5.09119E-08 9.86937E-08
 -1        98-7.08524E+01-6.67388E+02-2.03728E+02 4.35947E+01-5.80594E-08 1.11642E-07
 -1        99 1.05334E+02-7.71035E+02-1.85575E+02 2.00773E+02-5.79041E-08 1.05111E-07
 -1       100 2.47868E+02-8.31360E+02-1.65077E+02 3.24540E+02-4.12007E-08 6.06134E-08
 -1       101 3.02671E+02-7.86755E+02-1.38917E+02 3.52233E+02-5.96105E-09-2.22822E-08
 -1       102 2.38400E+02-6.64788E+02-1.24317E+02 2.88790E+02 3.39889E-08-1.09101E-07
 -1       103 1.64738E+02-5.10930E+02-1.01960E+02 1.88857E+02 5.85901E-08-1.73884E-07
 -1       104 1.07191E+02-4.09417E+02-8.98213E+01 1.32574E+02 6.92707E-08-2.03121E-07
 -1       105 9.80800E+01-3.46643E+02-7.42946E+01 1.25778E+02 6.07173E-08-1.93306E-07
 -1       106 8.29825E+01-2.80732E+02-5.92837E+01 1.28456E+02 3.28427E-08-1.36689E-07
 -1       107 4.13459E+01-1.59529E+02-3.54577E+01 9.28813E+01-1.00342E-08-3.80262E-08
 -1       108 4.13459E+01-1.59529E+02-3.54577E+01 9.28813E+01-1.00312E-08-3.80276E-08
 -1       109 8.29825E+01-2.80732E+02-5.92837E+01 1.28456E+02 3.28388E-08-1.36696E-07
 -1       110 9.80800E+01-3.46643E+02-7.42946E+01 1.25778E+02 6.07186E-08-1.93303E-07
 -1       111 1.07191E+02-4.09417E+02-8.98213E+01 1.32574E+02 6.92704E-08-2.03119E-07
 -1       112 1.64738E+02-5.10930E+02-1.01960E+02 1.88857E+02 5.85898E-08-1.73892E-07
 -1       113 2.38400E+02-6.64788E+02-1.24317E+02 2.88790E+02 3.39882E-08-1.09103E-07
 -1       114 3.02671E+02-7.86755E+02-1.38917E+02 3.52233E+02-5.95922E-09-2.22805E-08
 -1       115 2.47868E+02-8.31360E+02-1.65077E+02 3.24540E+02-4.12010E-08 6.06113E-08
 -1       116 1.05334E+02-7.71035E+02-1.85575E+02 2.00773E+02-5.79034E-08 1.05116E-07
 -1       117-7.08524E+01-6.67388E+02-2.03728E+02 4.35947E+01-5.80592E-08 1.11637E-07
 -1       118-1.51046E+02-5.58582E+02-1.92596E+02-7.95533E+01-5.09128E-08 9.86949E-08
 -1       119-1.70648E+02-5.11410E+02-1.82853E+02-1.01413E+02-3.75849E-08 6.73986E-08
 -1       120-1.32448E+02-5.21397E+02-1.73110E+02-1.81059E+01-3.06858E-08 5.59261E-08
 -1       121-1.02058E+02-5.90786E+02-1.83169E+02 1.23389E+02-2.56202E-08 6.59456E-08
 -1       122-5.21897E+01-6.64672E+02-1.87678E+02 2.41981E+02-1.79214E-08 6.92490E-08
 -1       123-5.82704E+01-7.48788E+02-2.10380E+02 3.18359E+02-1.50554E-08 6.70542E-08
 -1       124-7.58314E+01-8.25711E+02-2.32996E+02 3.80240E+02-1.63081E-08 6.70786E-08
 -1       125-1.34800E+02-9.42232E+02-2.71519E+02 5.59217E+02-1.37354E-08 5.09813E-08
 -1       126-9.27315E+01-1.05353E+03-3.11532E+02 4.01172E+02-6.23162E-09 2.57775E-08
 -3
    1PSTEP                       291          73           1          
  100CL  173 7.30000E-01         126                     1   73           1
 -4  TOSTRAIN    6    1
 -5  EXX         1    4    1    1
 -5  EYY         1    4    2    2
 -5  EZZ         1    4    3    3
 -5  EXY         1    4    1    2
 -5  EYZ         1    4    2    3
 -5  EZX         1    4    3    1
 -1         1-1.62128E-04 4.20878E-02-2.19073E-27 1.69207E-02 4.30893E-19 2.24231E-16
 -1         2-1.62128E-04 4.20878E-02-2.19073E-27 1.69207E-02 4.30893E-19 2.24231E-16
 -1         3-1.54949E-04 4.09070E-04 1.71614E-25 1.65054E-04 2.37908E-13 2.57067E-13
 -1         4-1.54949E-04 4.09070E-04 1.71550E-25 1.65054E-04 2.37874E-13 2.56977E-13
 -1         5-1.54343E-05-4.44368E-04 3.34169E-25 1.54041E-04-3.51392E-13 2.80856E-13
 -1         6-1.54343E-05-4.44368E-04 3.34150E-25 1.54041E-04-3.51375E-13 2.80862E-13
 -1         7-1.64141E-04-4.34703E-02-4.23347E-27 1.58395E-02 1.89889E-19-6.39331E-16
 -1         8-1.64141E-04-4.34703E-02-4.23347E-27 1.58395E-02 1.89590E-19-6.39344E-16
 -1         9-8.51919E-05 2.09679E-06 7.96310E-26 2.24791E-04-8.68183E-14 2.62037E-13
 -1        10-8.51919E-05 2.09679E-06 7.97547E-26 2.24791E-04-8.67578E-14 2.62205E-13
 -1        11-1.63134E-04-1.51684E-03-2.40339E-27 1.08556E-02 4.51166E-19-1.32686E-16
 -1        12-1.63134E-04-1.51684E-03-2.40338E-27 1.08556E-02 4.51725E-19-1.32663E-16
 -1        13-1.13056E-02 4.11091E-02 1.11800E-26 3.39702E-03 1.29237E-14 8.01752E-14
 -1        14-8.35384E-03 3.80077E-02 4.39306E-26 1.14998E-03 2.26568E-15 1.50201E-13
 -1        15-7.85054E-03 3.43695E-02 9.01247E-26 1.19757E-03-1.61030E-14 2.10858E-13
 -1        16-7.12030E-03 3.14525E-02 9.73978E-26 1.00412E-03-2.56626E-14 2.17716E-13
 -1        17-6.53156E-03 2.88700E-02 1.08329E-25 8.49014E-04-2.62800E-14 2.29898E-13
 -1        18-6.13353E-03 2.69472E-02 9.10393E-26 5.28274E-04-3.57612E-14 2.09359E-13
 -1        19-5.83955E-03 2.59904E-02 8.32632E-26 1.72374E-04-3.27064E-14 2.00747E-13
 -1        20-5.81764E-03 2.58502E-02 1.03545E-25 3.82062E-06-1.34567E-14 2.29024E-13
 -1        21-5.84717E-03 2.58338E-02 2.26713E-25 1.32151E-04-1.88395E-14 3.36801E-13
 -1        22-5.74213E-03 2.50372E-02 3.13729E-25 5.28314E-04-6.03095E-14 3.90460E-13
 -1        23-5.15576E-03 2.27980E-02 2.91384E-25 1.05962E-03-1.39348E-13 3.59745E-13
 -1        24-4.27457E-03 1.90917E-02 1.69122E-25 1.48984E-03-2.31730E-13 2.14480E-13
 -1        25-3.23980E-03 1.46488E-02 1.14206E-25 1.57784E-03-2.82015E-13-5.91473E-14
 -1        26-2.35992E-03 1.05478E-02 3.69237E-25 1.30875E-03-2.66714E-13-3.68174E-13
 -1        27-1.64660E-03 7.48238E-03 7.19411E-25 9.35180E-04-1.91717E-13-5.75870E-13
 -1        28-1.21518E-03 5.36603E-03 9.17710E-25 7.11781E-04-9.05738E-14-6.72720E-13
 -1        29-8.74104E-04 3.67643E-03 7.91326E-25 6.40493E-04 2.98219E-14-6.33978E-13
 -1        30-5.75372E-04 2.11692E-03 3.38742E-25 5.60893E-04 1.48008E-13-4.13314E-13
 -1        31-2.86022E-04 8.87295E-04 4.04264E-26 3.35335E-04 2.17833E-13-8.22750E-14
 -1        32-1.13056E-02 4.11091E-02 1.11800E-26 3.39702E-03 1.29237E-14 8.01752E-14
 -1        33-8.35384E-03 3.80077E-02 4.39308E-26 1.14998E-03 2.26569E-15 1.50202E-13
 -1        34-7.85054E-03 3.43695E-02 9.01256E-26 1.19757E-03-1.61028E-14 2.10859E-13
 -1        35-7.12030E-03 3.14525E-02 9.73959E-26 1.00412E-03-2.56630E-14 2.17714E-13
 -1        36-6.53156E-03 2.88700E-02 1.08331E-25 8.49014E-04-2.62795E-14 2.29900E-13
 -1        37-6.13353E-03 2.69472E-02 9.10349E-26 5.28274E-04-3.57620E-14 2.09353E-13
 -1        38-5.83955E-03 2.59904E-02 8.32812E-26 1.72374E-04-3.27045E-14 2.00769E-13
 -1        39-5.81764E-03 2.58502E-02 1.03547E-25 3.82062E-06-1.34559E-14 2.29026E-13
 -1        40-5.84717E-03 2.58338E-02 2.26711E-25 1.32151E-04-1.88399E-14 3.36799E-13
 -1        41-5.74213E-03 2.50372E-02 3.13737E-25 5.28314E-04-6.03076E-14 3.90466E-13
 -1        42-5.15576E-03 2.27980E-02 2.91377E-25 1.05962E-03-1.39350E-13 3.59739E-13
 -1        43-4.27457E-03 1.90917E-02 1.69124E-25 1.48984E-03-2.31729E-13 2.14482E-13
 -1        44-3.23980E-03 1.46488E-02 1.14193E-25 1.57784E-03-2.82012E-13-5.91334E-14
 -1        45-2.35992E-03 1.05478E-02 3.69255E-25 1.30875E-03-2.66718E-13-3.68188E-13
 -1        46-1.64660E-03 7.48238E-03 7.19383E-25 9.35180E-04-1.91712E-13-5.75859E-13
 -1        47-1.21518E-03 5.36603E-03 9.17718E-25 7.11781E-04-9.05751E-14-6.72723E-13
 -1        48-8.74104E-04 3.67643E-03 7.91337E-25 6.40493E-04 2.98169E-14-6.33982E-13
 -1        49-5.75372E-04 2.11692E-03 3.38710E-25 5.60893E-04 1.48020E-13-4.13278E-13
 -1        50-2.86022E-04 8.87295E-04 4.04685E-26 3.35335E-04 2.17798E-13-8.23471E-14
 -1        51 1.14471E-04-1.05555E-03 1.97903E-25 3.25508E-04-3.51753E-13-9.64148E-14
 -1        52 4.78473E-04-2.54152E-03 5.25547E-25 5.34415E-04-2.98458E-13-4.42006E-13
 -1        53 8.99048E-04-4.32477E-03 8.01799E-25 6.16095E-04-1.66553E-13-6.17260E-13
 -1        54 1.29691E-03-6.18781E-03 8.77298E-25 6.99623E-04-2.30324E-14-6.65649E-13
 -1        55 1.75961E-03-8.43555E-03 6.44279E-25 9.40944E-04 9.21375E-14-5.68433E-13
 -1        56 2.41065E-03-1.16165E-02 2.94556E-25 1.31209E-03 1.60620E-13-3.73217E-13
 -1        57 3.33861E-03-1.58413E-02 2.93095E-26 1.57911E-03 1.82945E-13-6.12083E-14
 -1        58 4.31885E-03-2.04118E-02 9.69447E-26 1.51079E-03 1.23603E-13 2.19066E-13
 -1        59 5.10413E-03-2.42005E-02 2.65449E-25 1.09707E-03 2.49250E-14 3.71545E-13
 -1        60 5.51547E-03-2.64216E-02 3.27397E-25 5.49462E-04-5.75407E-14 4.03690E-13
 -1        61 5.64149E-03-2.70935E-02 2.63056E-25 1.34853E-04-1.12091E-13 3.47863E-13
 -1        62 5.57273E-03-2.69344E-02 1.59129E-25 1.84032E-05-1.09309E-13 2.62950E-13
 -1        63 5.53236E-03-2.69265E-02 9.44438E-26 2.03272E-04-6.48751E-14 2.09627E-13
 -1        64 5.67021E-03-2.78159E-02 1.31878E-25 5.46361E-04-3.10092E-14 2.57084E-13
 -1        65 6.09617E-03-2.97578E-02 1.15146E-25 8.53176E-04-1.54969E-14 2.41004E-13
 -1        66 6.62990E-03-3.24137E-02 9.54534E-26 1.01957E-03-1.85503E-14 2.19186E-13
 -1        67 7.31260E-03-3.54255E-02 9.46262E-26 1.24074E-03-3.67868E-14 2.15987E-13
 -1        68 7.59575E-03-3.93216E-02 7.58644E-26 1.15750E-03-6.11507E-14 1.88019E-13
 -1        69 1.07971E-02-4.25612E-02 2.19721E-26 3.44960E-03-6.01412E-14 9.60082E-14
 -1        70 1.14471E-04-1.05555E-03 1.97918E-25 3.25508E-04-3.51781E-13-9.64136E-14
 -1        71 4.78473E-04-2.54152E-03 5.25627E-25 5.34415E-04-2.98451E-13-4.42058E-13
 -1        72 8.99048E-04-4.32477E-03 8.01801E-25 6.16095E-04-1.66559E-13-6.17258E-13
 -1        73 1.29691E-03-6.18781E-03 8.77301E-25 6.99623E-04-2.30356E-14-6.65651E-13
 -1        74 1.75961E-03-8.43555E-03 6.44266E-25 9.40944E-04 9.21523E-14-5.68426E-13
 -1        75 2.41065E-03-1.16165E-02 2.94552E-25 1.31209E-03 1.60623E-13-3.73214E-13
 -1        76 3.33861E-03-1.58413E-02 2.93115E-26 1.57911E-03 1.82943E-13-6.12115E-14
 -1        77 4.31885E-03-2.04118E-02 9.69682E-26 1.51079E-03 1.23608E-13 2.19089E-13
 -1        78 5.10413E-03-2.42005E-02 2.65439E-25 1.09707E-03 2.49212E-14 3.71537E-13
 -1        79 5.51547E-03-2.64216E-02 3.27433E-25 5.49462E-04-5.75352E-14 4.03714E-13
 -1        80 5.64149E-03-2.70935E-02 2.63036E-25 1.34853E-04-1.12088E-13 3.47850E-13
 -1        81 5.57273E-03-2.69344E-02 1.59129E-25 1.84032E-05-1.09309E-13 2.62950E-13
 -1        82 5.53236E-03-2.69265E-02 9.44355E-26 2.03272E-04-6.48770E-14 2.09617E-13
 -1        83 5.67021E-03-2.78159E-02 1.31891E-25 5.46361E-04-3.10057E-14 2.57098E-13
 -1        84 6.09617E-03-2.97578E-02 1.15140E-25 8.53176E-04-1.55078E-14 2.40997E-13
 -1        85 6.62990E-03-3.24137E-02 9.54543E-26 1.01957E-03-1.85435E-14 2.19188E-13
 -1        86 7.31260E-03-3.54255E-02 9.46272E-26 1.24074E-03-3.67860E-14 2.15988E-13
 -1        87 7.59575E-03-3.93216E-02 7.58644E-26 1.15750E-03-6.11507E-14 1.88019E-13
 -1        88 1.07971E-02-4.25612E-02 2.19721E-26 3.44960E-03-6.01412E-14 9.60083E-14
 -1        89-2.54236E-04-1.27542E-03 1.19990E-26 1.43335E-03-1.68698E-14 8.46097E-14
 -1        90-3.79044E-04-9.84195E-04 5.70569E-26 2.01824E-03-3.07891E-14 1.69024E-13
 -1        91-2.68966E-04-8.86112E-04 1.00446E-25 1.49378E-03-2.65549E-14 2.22978E-13
 -1        92-2.45197E-04-7.89083E-04 9.99462E-26 1.32849E-03-1.50536E-14 2.22988E-13
 -1        93-2.17695E-04-6.98821E-04 1.08211E-25 1.09429E-03-1.60927E-14 2.32050E-13
 -1        94-2.31658E-04-6.51906E-04 1.05536E-25 6.94164E-04-3.61909E-14 2.27172E-13
 -1        95-1.53596E-04-6.80553E-04 8.55299E-26 2.39384E-04-5.38274E-14 2.00298E-13
 -1        96-1.22451E-04-7.53171E-04 1.22699E-25-3.37487E-06-6.05090E-14 2.43467E-13
 -1        97-1.02839E-04-8.15019E-04 2.57651E-25 1.50297E-04-6.62755E-14 3.54931E-13
 -1        98-1.13331E-04-8.47704E-04 3.34952E-25 6.92371E-04-6.58020E-14 4.03891E-13
 -1        99-2.58116E-05-8.44090E-04 2.99152E-25 1.41099E-03-6.24165E-14 3.85298E-13
 -1       100 2.21410E-05-7.84597E-04 8.56606E-26 1.96027E-03-5.49064E-14 2.32104E-13
 -1       101 4.94061E-05-6.80030E-04-3.69237E-26 2.05630E-03-4.51953E-14-5.97510E-14
 -1       102 2.53635E-05-5.79269E-04 2.36081E-25 1.70692E-03-3.49269E-14-3.69708E-13
 -1       103 5.65049E-05-5.06127E-04 6.94369E-25 1.22036E-03-4.78090E-14-5.94406E-13
 -1       104 4.08670E-05-4.34098E-04 9.70808E-25 9.09847E-04-5.79704E-14-6.95065E-13
 -1       105 1.24722E-05-3.36337E-04 8.56965E-25 8.10589E-04-7.38222E-14-6.54337E-13
 -1       106-4.84492E-05-2.09133E-04 3.73512E-25 7.19245E-04-8.35927E-14-4.49126E-13
 -1       107-8.57756E-05-6.80230E-05-3.65654E-26 4.44711E-04-8.03019E-14-9.93854E-14
 -1       108-8.57756E-05-6.80230E-05-3.65974E-26 4.44711E-04-8.02947E-14-9.93937E-14
 -1       109-4.84492E-05-2.09133E-04 3.73539E-25 7.19245E-04-8.36136E-14-4.49142E-13
 -1       110 1.24722E-05-3.36337E-04 8.56938E-25 8.10589E-04-7.38134E-14-6.54327E-13
 -1       111 4.08670E-05-4.34098E-04 9.70792E-25 9.09847E-04-5.79688E-14-6.95058E-13
 -1       112 5.65049E-05-5.06127E-04 6.94428E-25 1.22036E-03-4.78202E-14-5.94429E-13
 -1       113 2.53635E-05-5.79269E-04 2.36085E-25 1.70692E-03-3.49311E-14-3.69712E-13
 -1       114 4.94061E-05-6.80030E-04-3.69265E-26 2.05630E-03-4.51878E-14-5.97484E-14
 -1       115 2.21410E-05-7.84597E-04 8.56536E-26 1.96027E-03-5.49096E-14 2.32098E-13
 -1       116-2.58116E-05-8.44090E-04 2.99172E-25 1.41099E-03-6.24084E-14 3.85314E-13
 -1       117-1.13331E-04-8.47704E-04 3.34930E-25 6.92371E-04-6.58060E-14 4.03877E-13
 -1       118-1.02839E-04-8.15019E-04 2.57658E-25 1.50297E-04-6.62770E-14 3.54936E-13
 -1       119-1.22451E-04-7.53171E-04 1.22694E-25-3.37487E-06-6.05103E-14 2.43462E-13
 -1       120-1.53596E-04-6.80553E-04 8.55290E-26 2.39384E-04-5.38278E-14 2.00297E-13
 -1       121-2.31658E-04-6.51906E-04 1.05530E-25 6.94164E-04-3.61915E-14 2.27166E-13
 -1       122-2.17695E-04-6.98821E-04 1.08208E-25 1.09429E-03-1.60921E-14 2.32047E-13
 -1       123-2.45197E-04-7.89083E-04 9.99499E-26 1.32849E-03-1.50547E-14 2.22992E-13
 -1       124-2.68966E-04-8.86112E-04 1.00445E-25 1.49378E-03-2.65551E-14 2.22976E-13
 -1       125-3.79044E-04-9.84195E-04 5.70564E-26 2.01824E-03-3.07892E-14 1.69023E-13
 -1       126-2.54236E-04-1.27542E-03 1.19989E-26 1.43335E-03-1.68698E-14 8.46097E-14
 -3
    1PSTEP                       292          73           1          
  100CL  173 7.30000E-01         126                     1   73           1
 -4  ERROR       1    1
 -5  STR(%)      1    1    0    0
 -1         1 6.54789E+01
 -1         2 6.54789E+01
 -1         3 5.50577E+01
 -1         4 5.50577E+01
 -1         5 3.54101E+01
 -1         6 3.54101E+01
 -1         7 5.85479E+01
 -1         8 5.85479E+01
 -1         9 5.50577E+01
 -1        10 5.50577E+01
 -1        11 6.54789E+01
 -1        12 6.54789E+01
 -1        13 6.54789E+01
 -1        14 6.45494E+01
 -1        15 6.42897E+01
 -1        16 6.40990E+01
 -1        17 6.39764E+01
 -1        18 6.37413E+01
 -1        19 6.30475E+01
 -1        20 6.28162E+01
 -1        21 6.34712E+01
 -1        22 6.46327E+01
 -1        23 6.58859E+01
 -1        24 6.64967E+01
 -1        25 6.68775E+01
 -1        26 6.77872E+01
 -1        27 6.94213E+01
 -1        28 7.00820E+01
 -1        29 7.00820E+01
 -1        30 6.75918E+01
 -1        31 5.77233E+01
 -1        32 6.54789E+01
 -1        33 6.45494E+01
 -1        34 6.42897E+01
 -1        35 6.40990E+01
 -1        36 6.39764E+01
 -1        37 6.37413E+01
 -1        38 6.30475E+01
 -1        39 6.28162E+01
 -1        40 6.34712E+01
 -1        41 6.46327E+01
 -1        42 6.58859E+01
 -1        43 6.64967E+01
 -1        44 6.68775E+01
 -1        45 6.77872E+01
 -1        46 6.94213E+01
 -1        47 7.00820E+01
 -1        48 7.00820E+01
 -1        49 6.75918E+01
 -1        50 5.77233E+01
 -1        51 4.18880E+01
 -1        52 5.12977E+01
 -1        53 5.48243E+01
 -1        54 5.60163E+01
 -1        55 5.69018E+01
 -1        56 5.75632E+01
 -1        57 5.81870E+01
 -1        58 5.81870E+01
 -1        59 5.81693E+01
 -1        60 5.75533E+01
 -1        61 5.67574E+01
 -1        62 5.67612E+01
 -1        63 5.75713E+01
 -1        64 5.81058E+01
 -1        65 5.82164E+01
 -1        66 5.82164E+01
 -1        67 5.81387E+01
 -1        68 5.81997E+01
 -1        69 5.85479E+01
 -1        70 4.18880E+01
 -1        71 5.12977E+01
 -1        72 5.48243E+01
 -1        73 5.60163E+01
 -1        74 5.69018E+01
 -1        75 5.75632E+01
 -1        76 5.81870E+01
 -1        77 5.81870E+01
 -1        78 5.81693E+01
 -1        79 5.75533E+01
 -1        80 5.67574E+01
 -1        81 5.67612E+01
 -1        82 5.75713E+01
 -1        83 5.81058E+01
 -1        84 5.82164E+01
 -1        85 5.82164E+01
 -1        86 5.81387E+01
 -1        87 5.81997E+01
 -1        88 5.85479E+01
 -1        89 6.54789E+01
 -1        90 6.45494E+01
 -1        91 6.42897E+01
 -1        92 6.40990E+01
 -1        93 6.39764E+01
 -1        94 6.37413E+01
 -1        95 6.30475E+01
 -1        96 6.28162E+01
 -1        97 6.34712E+01
 -1        98 6.46327E+01
 -1        99 6.58859E+01
 -1       100 6.64967E+01
 -1       101 6.68775E+01
 -1       102 6.77872E+01
 -1       103 6.94213E+01
 -1       104 7.00820E+01
 -1       105 7.00820E+01
 -1       106 6.75918E+01
 -1       107 5.77233E+01
 -1       108 5.77233E+01
 -1       109 6.75918E+01
 -1       110 7.00820E+01
 -1       111 7.00820E+01
 -1       112 6.94213E+01
 -1       113 6.77872E+01
 -1       114 6.68775E+01
 -1       115 6.64967E+01
 -1       116 6.58859E+01
 -1       117 6.46327E+01
 -1       118 6.34712E+01
 -1       119 6.28162E+01
 -1       120 6.30475E+01
 -1       121 6.37413E+01
 -1       122 6.39764E+01
 -1       123 6.40990E+01
 -1       124 6.42897E+01
 -1       125 6.45494E+01
 -1       126 6.54789E+01
 -3
    1PSTEP                       293          74           1          
  100CL  174 7.40000E-01         126                     1   74           1
 -4  DISP        4    1
 -5  D1          1    2    1    0
 -5  D2          1    2    2    0
 -5  D3          1    2    3    0
 -5  ALL         1    2    0    0    1ALL
 -1         1 0.00000E+00 0.00000E+00 0.00000E+00
 -1         2 0.00000E+00 0.00000E+00 0.00000E+00
 -1         3 2.89866E-01-3.00565E-02 0.00000E+00
 -1         4 2.89866E-01-3.00565E-02 0.00000E+00
 -1         5 2.80939E-01-7.13323E-02 0.00000E+00
 -1         6 2.80939E-01-7.13323E-02 0.00000E+00
 -1         7 0.00000E+00 0.00000E+00 0.00000E+00
 -1         8 0.00000E+00 0.00000E+00 0.00000E+00
 -1         9 2.85401E-01-5.06916E-02 0.00000E+00
 -1        10 2.85401E-01-5.06916E-02 0.00000E+00
 -1        11 0.00000E+00 0.00000E+00 0.00000E+00
 -1        12 0.00000E+00 0.00000E+00 0.00000E+00
 -1        13 1.61542E-03 2.04611E-03 0.00000E+00
 -1        14 5.05326E-03 3.95348E-03 0.00000E+00
 -1        15 1.05568E-02 5.48794E-03 0.00000E+00
 -1        16 1.78489E-02 6.64907E-03 0.00000E+00
 -1        17 2.67750E-02 7.42734E-03 0.00000E+00
 -1        18 3.72257E-02 7.81906E-03 0.00000E+00
 -1        19 4.91032E-02 7.81120E-03 0.00000E+00
 -1        20 6.23241E-02 7.39284E-03 0.00000E+00
 -1        21 7.68095E-02 6.57175E-03 0.00000E+00
 -1        22 9.25401E-02 5.34221E-03 0.00000E+00
 -1        23 1.09510E-01 3.65520E-03 0.00000E+00
 -1        24 1.27658E-01 1.42718E-03 0.00000E+00
 -1        25 1.46784E-01-1.38276E-03 0.00000E+00
 -1        26 1.66607E-01-4.73242E-03 0.00000E+00
 -1        27 1.86853E-01-8.50776E-03 0.00000E+00
 -1        28 2.07331E-01-1.25803E-02 0.00000E+00
 -1        29 2.27919E-01-1.68348E-02 0.00000E+00
 -1        30 2.48558E-01-2.11936E-02 0.00000E+00
 -1        31 2.69215E-01-2.56109E-02 0.00000E+00
 -1        32 1.61542E-03 2.04611E-03 0.00000E+00
 -1        33 5.05326E-03 3.95348E-03 0.00000E+00
 -1        34 1.05568E-02 5.48794E-03 0.00000E+00
 -1        35 1.78489E-02 6.64907E-03 0.00000E+00
 -1        36 2.67750E-02 7.42734E-03 0.00000E+00
 -1        37 3.72257E-02 7.81906E-03 0.00000E+00
 -1        38 4.91032E-02 7.81120E-03 0.00000E+00
 -1        39 6.23241E-02 7.39284E-03 0.00000E+00
 -1        40 7.68095E-02 6.57175E-03 0.00000E+00
 -1        41 9.25401E-02 5.34221E-03 0.00000E+00
 -1        42 1.09510E-01 3.65520E-03 0.00000E+00
 -1        43 1.27658E-01 1.42718E-03 0.00000E+00
 -1        44 1.46784E-01-1.38276E-03 0.00000E+00
 -1        45 1.66607E-01-4.73242E-03 0.00000E+00
 -1        46 1.86853E-01-8.50776E-03 0.00000E+00
 -1        47 2.07331E-01-1.25803E-02 0.00000E+00
 -1        48 2.27919E-01-1.68348E-02 0.00000E+00
 -1        49 2.48558E-01-2.11936E-02 0.00000E+00
 -1        50 2.69215E-01-2.56109E-02 0.00000E+00
 -1        51 2.60295E-01-6.68598E-02 0.00000E+00
 -1        52 2.39670E-01-6.23651E-02 0.00000E+00
 -1        53 2.19106E-01-5.78459E-02 0.00000E+00
 -1        54 1.98654E-01-5.32925E-02 0.00000E+00
 -1        55 1.78410E-01-4.86944E-02 0.00000E+00
 -1        56 1.58534E-01-4.40563E-02 0.00000E+00
 -1        57 1.39254E-01-3.94191E-02 0.00000E+00
 -1        58 1.20824E-01-3.48685E-02 0.00000E+00
 -1        59 1.03469E-01-3.05272E-02 0.00000E+00
 -1        60 8.73100E-02-2.65061E-02 0.00000E+00
 -1        61 7.23633E-02-2.28540E-02 0.00000E+00
 -1        62 5.86071E-02-1.95474E-02 0.00000E+00
 -1        63 4.60714E-02-1.65351E-02 0.00000E+00
 -1        64 3.48353E-02-1.37761E-02 0.00000E+00
 -1        65 2.49888E-02-1.12413E-02 0.00000E+00
 -1        66 1.66052E-02-8.88810E-03 0.00000E+00
 -1        67 9.78564E-03-6.65219E-03 0.00000E+00
 -1        68 4.65575E-03-4.46171E-03 0.00000E+00
 -1        69 1.49358E-03-2.21125E-03 0.00000E+00
 -1        70 2.60295E-01-6.68598E-02 0.00000E+00
 -1        71 2.39670E-01-6.23651E-02 0.00000E+00
 -1        72 2.19106E-01-5.78459E-02 0.00000E+00
 -1        73 1.98654E-01-5.32925E-02 0.00000E+00
 -1        74 1.78410E-01-4.86944E-02 0.00000E+00
 -1        75 1.58534E-01-4.40563E-02 0.00000E+00
 -1        76 1.39254E-01-3.94191E-02 0.00000E+00
 -1        77 1.20824E-01-3.48685E-02 0.00000E+00
 -1        78 1.03469E-01-3.05272E-02 0.00000E+00
 -1        79 8.73100E-02-2.65061E-02 0.00000E+00
 -1        80 7.23633E-02-2.28540E-02 0.00000E+00
 -1        81 5.86071E-02-1.95474E-02 0.00000E+00
 -1        82 4.60714E-02-1.65351E-02 0.00000E+00
 -1        83 3.48353E-02-1.37761E-02 0.00000E+00
 -1        84 2.49888E-02-1.12413E-02 0.00000E+00
 -1        85 1.66052E-02-8.88810E-03 0.00000E+00
 -1        86 9.78564E-03-6.65219E-03 0.00000E+00
 -1        87 4.65575E-03-4.46171E-03 0.00000E+00
 -1        88 1.49358E-03-2.21125E-03 0.00000E+00
 -1        89 1.00027E-03-6.52493E-05 0.00000E+00
 -1        90 4.44663E-03-2.15308E-04 0.00000E+00
 -1        91 9.78556E-03-5.30219E-04 0.00000E+00
 -1        92 1.68770E-02-1.06152E-03 0.00000E+00
 -1        93 2.55557E-02-1.84331E-03 0.00000E+00
 -1        94 3.57236E-02-2.90856E-03 0.00000E+00
 -1        95 4.72999E-02-4.28737E-03 0.00000E+00
 -1        96 6.01927E-02-5.99970E-03 0.00000E+00
 -1        97 7.43216E-02-8.05958E-03 0.00000E+00
 -1        98 8.96662E-02-1.04943E-02 0.00000E+00
 -1        99 1.06248E-01-1.33457E-02 0.00000E+00
 -1       100 1.24032E-01-1.66363E-02 0.00000E+00
 -1       101 1.42855E-01-2.03314E-02 0.00000E+00
 -1       102 1.62455E-01-2.43432E-02 0.00000E+00
 -1       103 1.82558E-01-2.85677E-02 0.00000E+00
 -1       104 2.02949E-01-3.29168E-02 0.00000E+00
 -1       105 2.23487E-01-3.73296E-02 0.00000E+00
 -1       106 2.44100E-01-4.17732E-02 0.00000E+00
 -1       107 2.64750E-01-4.62319E-02 0.00000E+00
 -1       108 2.64750E-01-4.62319E-02 0.00000E+00
 -1       109 2.44100E-01-4.17732E-02 0.00000E+00
 -1       110 2.23487E-01-3.73296E-02 0.00000E+00
 -1       111 2.02949E-01-3.29168E-02 0.00000E+00
 -1       112 1.82558E-01-2.85677E-02 0.00000E+00
 -1       113 1.62455E-01-2.43432E-02 0.00000E+00
 -1       114 1.42855E-01-2.03314E-02 0.00000E+00
 -1       115 1.24032E-01-1.66363E-02 0.00000E+00
 -1       116 1.06248E-01-1.33457E-02 0.00000E+00
 -1       117 8.96662E-02-1.04943E-02 0.00000E+00
 -1       118 7.43216E-02-8.05958E-03 0.00000E+00
 -1       119 6.01927E-02-5.99970E-03 0.00000E+00
 -1       120 4.72999E-02-4.28737E-03 0.00000E+00
 -1       121 3.57236E-02-2.90856E-03 0.00000E+00
 -1       122 2.55557E-02-1.84331E-03 0.00000E+00
 -1       123 1.68770E-02-1.06152E-03 0.00000E+00
 -1       124 9.78556E-03-5.30219E-04 0.00000E+00
 -1       125 4.44663E-03-2.15308E-04 0.00000E+00
 -1       126 1.00027E-03-6.52493E-05 0.00000E+00
 -3
    1PSTEP                       294          74           1          
  100CL  174 7.40000E-01         126                     1   74           1
 -4  STRESS      6    1
 -5  SXX         1    4    1    1
 -5  SYY         1    4    2    2
 -5  SZZ         1    4    3    3
 -5  SXY         1    4    1    2
 -5  SYZ         1    4    2    3
 -5  SZX         1    4    3    1
 -1         1 9.62838E+03 2.33118E+04 9.37156E+03 5.60998E+03 3.10353E-10 3.38664E-10
 -1         2 9.62838E+03 2.33118E+04 9.37156E+03 5.60998E+03 3.10353E-10 3.38664E-10
 -1         3 3.07049E+01 1.01357E+02 3.95933E+01 7.00411E+01 5.02799E-08 2.66737E-08
 -1         4 3.07049E+01 1.01357E+02 3.95933E+01 7.00411E+01 5.02836E-08 2.66737E-08
 -1         5-6.75759E+01-1.35546E+02-6.09512E+01-3.29377E+00-9.74923E-08-3.45563E-08
 -1         6-6.75759E+01-1.35546E+02-6.09512E+01-3.29377E+00-9.74923E-08-3.46112E-08
 -1         7-1.01357E+04-2.23895E+04-1.03315E+04 3.98142E+03 3.98066E-10-4.13355E-10
 -1         8-1.01357E+04-2.23895E+04-1.03315E+04 3.98142E+03 3.98066E-10-4.13352E-10
 -1         9-5.27102E+00-1.64867E+01-6.53010E+00 4.25049E+01-1.65135E-08-1.51798E-09
 -1        10-5.27102E+00-1.64867E+01-6.53010E+00 4.25049E+01-1.65204E-08-1.51105E-09
 -1        11-2.03964E+02-9.68234E+02-2.54924E+02 3.05548E+03 3.27776E-10 1.55344E-12
 -1        12-2.03964E+02-9.68234E+02-2.54924E+02 3.05548E+03 3.27776E-10 1.54610E-12
 -1        13 3.53515E+03 2.04223E+04 6.82329E+03 1.73527E+03 2.02661E-08 4.52227E-08
 -1        14 4.49670E+03 1.95544E+04 6.86894E+03 1.63560E+03 9.07733E-09 1.00613E-07
 -1        15 4.10460E+03 1.75280E+04 6.20600E+03 2.07393E+03-1.30211E-08 1.01880E-07
 -1        16 3.94925E+03 1.60093E+04 5.74594E+03 2.26303E+03-2.05455E-08 7.33198E-08
 -1        17 3.80032E+03 1.47707E+04 5.36060E+03 2.42189E+03 8.77039E-10 4.40254E-08
 -1        18 3.67679E+03 1.37436E+04 5.03919E+03 2.55849E+03 2.37530E-08 5.96458E-08
 -1        19 3.65662E+03 1.28820E+04 4.79366E+03 2.65582E+03 1.46679E-08 1.18845E-07
 -1        20 3.63320E+03 1.21932E+04 4.59462E+03 2.73613E+03-2.43020E-08 1.57071E-07
 -1        21 3.65347E+03 1.17260E+04 4.46836E+03 2.84522E+03-6.06330E-08 1.53958E-07
 -1        22 3.68458E+03 1.12367E+04 4.33722E+03 3.00785E+03-8.30347E-08 1.32622E-07
 -1        23 3.72080E+03 1.03408E+04 4.09335E+03 3.10556E+03-8.20628E-08 7.93790E-08
 -1        24 3.51350E+03 8.75711E+03 3.58444E+03 2.98233E+03-6.42219E-08 1.36506E-08
 -1        25 3.00656E+03 6.70468E+03 2.85153E+03 2.56056E+03-4.07234E-08-4.04987E-08
 -1        26 2.26590E+03 4.62273E+03 2.03443E+03 1.95355E+03-2.99007E-08-6.40002E-08
 -1        27 1.55493E+03 2.91816E+03 1.32799E+03 1.32871E+03-1.04268E-08-1.10173E-07
 -1        28 9.49044E+02 1.69259E+03 7.87394E+02 8.32635E+02 2.25787E-08-1.54749E-07
 -1        29 5.20234E+02 9.20738E+02 4.30632E+02 4.92931E+02 5.56661E-08-1.53163E-07
 -1        30 2.31112E+02 4.48887E+02 2.03516E+02 2.82102E+02 7.89200E-08-1.09466E-07
 -1        31 7.59059E+01 1.83719E+02 7.77780E+01 1.36606E+02 7.48540E-08-3.75971E-08
 -1        32 3.53515E+03 2.04223E+04 6.82329E+03 1.73527E+03 2.02661E-08 4.52227E-08
 -1        33 4.49670E+03 1.95544E+04 6.86894E+03 1.63560E+03 9.07732E-09 1.00613E-07
 -1        34 4.10460E+03 1.75280E+04 6.20600E+03 2.07393E+03-1.30210E-08 1.01880E-07
 -1        35 3.94925E+03 1.60093E+04 5.74594E+03 2.26303E+03-2.05455E-08 7.33199E-08
 -1        36 3.80032E+03 1.47707E+04 5.36060E+03 2.42189E+03 8.77116E-10 4.40255E-08
 -1        37 3.67679E+03 1.37436E+04 5.03919E+03 2.55849E+03 2.37529E-08 5.96438E-08
 -1        38 3.65662E+03 1.28820E+04 4.79366E+03 2.65582E+03 1.46679E-08 1.18843E-07
 -1        39 3.63320E+03 1.21932E+04 4.59462E+03 2.73613E+03-2.43020E-08 1.57071E-07
 -1        40 3.65347E+03 1.17260E+04 4.46836E+03 2.84522E+03-6.06331E-08 1.53958E-07
 -1        41 3.68458E+03 1.12367E+04 4.33722E+03 3.00785E+03-8.30345E-08 1.32622E-07
 -1        42 3.72080E+03 1.03408E+04 4.09335E+03 3.10556E+03-8.20628E-08 7.93790E-08
 -1        43 3.51350E+03 8.75711E+03 3.58444E+03 2.98233E+03-6.42219E-08 1.36497E-08
 -1        44 3.00656E+03 6.70468E+03 2.85153E+03 2.56056E+03-4.07232E-08-4.04984E-08
 -1        45 2.26590E+03 4.62273E+03 2.03443E+03 1.95355E+03-2.99012E-08-6.40002E-08
 -1        46 1.55493E+03 2.91816E+03 1.32799E+03 1.32871E+03-1.04263E-08-1.10173E-07
 -1        47 9.49044E+02 1.69259E+03 7.87394E+02 8.32635E+02 2.25786E-08-1.54749E-07
 -1        48 5.20234E+02 9.20738E+02 4.30632E+02 4.92931E+02 5.56661E-08-1.53161E-07
 -1        49 2.31112E+02 4.48887E+02 2.03516E+02 2.82102E+02 7.89205E-08-1.09468E-07
 -1        50 7.59059E+01 1.83719E+02 7.77780E+01 1.36606E+02 7.48526E-08-3.75984E-08
 -1        51-1.14595E+02-2.90309E+02-1.21564E+02-1.78878E+01-5.28804E-08-1.01661E-07
 -1        52-2.15054E+02-6.49845E+02-2.59933E+02-9.10187E+01 3.94080E-10-1.47209E-07
 -1        53-3.81116E+02-1.22697E+03-4.84104E+02-2.18248E+02 4.13895E-08-1.59911E-07
 -1        54-6.65195E+02-2.16232E+03-8.53598E+02-4.25266E+02 6.36538E-08-1.28041E-07
 -1        55-1.12041E+03-3.56525E+03-1.42055E+03-7.57870E+02 6.49111E-08-7.78466E-08
 -1        56-1.77220E+03-5.41458E+03-2.19098E+03-1.22268E+03 5.56113E-08-3.24016E-08
 -1        57-2.51883E+03-7.46328E+03-3.06230E+03-1.76852E+03 4.37077E-08 1.74259E-08
 -1        58-3.23177E+03-9.32584E+03-3.87433E+03-2.26749E+03 3.33659E-08 5.33152E-08
 -1        59-3.72518E+03-1.06253E+04-4.44417E+03-2.58682E+03 7.12756E-09 1.11798E-07
 -1        60-3.93484E+03-1.13095E+04-4.72837E+03-2.66183E+03-2.42370E-08 1.45965E-07
 -1        61-3.91769E+03-1.16708E+04-4.83734E+03-2.55343E+03-5.22314E-08 1.67513E-07
 -1        62-3.87666E+03-1.21119E+04-4.96538E+03-2.37443E+03-7.15824E-08 1.49079E-07
 -1        63-3.90410E+03-1.27738E+04-5.18777E+03-2.20443E+03-6.94724E-08 9.40866E-08
 -1        64-4.00711E+03-1.35920E+04-5.48544E+03-2.03494E+03-3.88834E-08 4.16560E-08
 -1        65-4.11513E+03-1.45055E+04-5.81715E+03-1.82564E+03-6.85623E-09 3.97854E-08
 -1        66-4.29859E+03-1.56351E+04-6.24569E+03-1.55300E+03 6.17732E-09 7.69675E-08
 -1        67-4.51922E+03-1.70315E+04-6.77879E+03-1.19568E+03-5.85992E-09 1.06567E-07
 -1        68-5.21293E+03-1.89443E+04-7.63837E+03-8.70553E+02-2.56247E-08 1.01000E-07
 -1        69-4.09986E+03-1.96325E+04-7.53290E+03 1.79364E+02-2.42463E-08 4.78952E-08
 -1        70-1.14595E+02-2.90309E+02-1.21564E+02-1.78878E+01-5.28804E-08-1.01634E-07
 -1        71-2.15054E+02-6.49845E+02-2.59933E+02-9.10187E+01 3.93158E-10-1.47215E-07
 -1        72-3.81116E+02-1.22697E+03-4.84104E+02-2.18248E+02 4.13898E-08-1.59910E-07
 -1        73-6.65195E+02-2.16232E+03-8.53598E+02-4.25266E+02 6.36535E-08-1.28056E-07
 -1        74-1.12041E+03-3.56525E+03-1.42055E+03-7.57870E+02 6.49116E-08-7.78395E-08
 -1        75-1.77220E+03-5.41458E+03-2.19098E+03-1.22268E+03 5.56109E-08-3.24010E-08
 -1        76-2.51883E+03-7.46328E+03-3.06230E+03-1.76852E+03 4.37076E-08 1.74268E-08
 -1        77-3.23177E+03-9.32584E+03-3.87433E+03-2.26749E+03 3.33692E-08 5.33151E-08
 -1        78-3.72518E+03-1.06253E+04-4.44417E+03-2.58682E+03 7.12684E-09 1.11798E-07
 -1        79-3.93484E+03-1.13095E+04-4.72837E+03-2.66183E+03-2.42373E-08 1.45964E-07
 -1        80-3.91769E+03-1.16708E+04-4.83734E+03-2.55343E+03-5.22300E-08 1.67519E-07
 -1        81-3.87666E+03-1.21119E+04-4.96538E+03-2.37443E+03-7.15825E-08 1.49082E-07
 -1        82-3.90410E+03-1.27738E+04-5.18777E+03-2.20443E+03-6.94720E-08 9.40863E-08
 -1        83-4.00711E+03-1.35920E+04-5.48544E+03-2.03494E+03-3.88839E-08 4.16589E-08
 -1        84-4.11513E+03-1.45055E+04-5.81715E+03-1.82564E+03-6.85449E-09 3.97846E-08
 -1        85-4.29859E+03-1.56351E+04-6.24569E+03-1.55300E+03 6.17745E-09 7.69675E-08
 -1        86-4.51922E+03-1.70315E+04-6.77879E+03-1.19568E+03-5.86001E-09 1.06566E-07
 -1        87-5.21293E+03-1.89443E+04-7.63837E+03-8.70553E+02-2.56246E-08 1.01000E-07
 -1        88-4.09986E+03-1.96325E+04-7.53290E+03 1.79364E+02-2.42463E-08 4.78952E-08
 -1        89-1.17515E+02-9.39389E+02-2.85431E+02 2.63397E+02-2.63601E-09 4.60799E-08
 -1        90-1.46952E+02-8.43149E+02-2.44652E+02 5.23104E+02-8.30264E-09 1.03106E-07
 -1        91-7.65885E+01-7.39835E+02-2.05019E+02 3.87822E+02-1.14726E-08 1.08180E-07
 -1        92-6.88058E+01-6.59828E+02-1.83678E+02 2.93338E+02-7.68056E-09 7.40941E-08
 -1        93-7.05259E+01-5.86237E+02-1.67073E+02 2.05802E+02-4.28382E-09 3.32355E-08
 -1        94-8.97902E+01-5.49722E+02-1.65668E+02 1.59167E+02-1.08928E-08 4.41898E-08
 -1        95-6.63767E+01-5.08777E+02-1.48678E+02 1.14007E+02-2.86766E-08 1.07584E-07
 -1        96-8.61775E+01-4.70460E+02-1.44650E+02 5.08831E+01-4.82527E-08 1.58415E-07
 -1        97-1.08206E+02-4.34913E+02-1.42253E+02-1.12851E-01-5.82096E-08 1.66073E-07
 -1        98-9.36815E+01-4.65625E+02-1.49768E+02 3.51951E+01-5.30582E-08 1.45171E-07
 -1        99 5.13155E+01-5.47676E+02-1.34340E+02 1.63108E+02-3.48385E-08 9.76698E-08
 -1       100 2.21273E+02-6.44401E+02-1.16314E+02 3.23202E+02-1.08234E-08 3.74149E-08
 -1       101 3.44834E+02-6.62012E+02-8.84311E+01 4.20318E+02 1.52133E-09-1.34710E-08
 -1       102 3.50069E+02-5.94678E+02-6.99252E+01 4.22977E+02 1.11827E-08-5.15658E-08
 -1       103 3.01713E+02-4.55300E+02-4.46242E+01 3.46320E+02 2.98078E-08-9.47459E-08
 -1       104 1.99275E+02-3.15363E+02-3.43342E+01 2.50075E+02 4.65284E-08-1.44759E-07
 -1       105 1.07227E+02-1.95191E+02-2.62589E+01 1.68544E+02 5.12174E-08-1.61736E-07
 -1       106 3.64279E+01-1.18925E+02-2.47373E+01 1.17968E+02 4.04953E-08-1.36836E-07
 -1       107 5.76751E-01-5.83993E+01-1.73496E+01 7.41002E+01 1.48858E-08-7.27015E-08
 -1       108 5.76751E-01-5.83993E+01-1.73496E+01 7.41002E+01 1.48870E-08-7.26892E-08
 -1       109 3.64279E+01-1.18925E+02-2.47373E+01 1.17968E+02 4.04966E-08-1.36847E-07
 -1       110 1.07227E+02-1.95191E+02-2.62589E+01 1.68544E+02 5.12169E-08-1.61737E-07
 -1       111 1.99275E+02-3.15363E+02-3.43342E+01 2.50075E+02 4.65292E-08-1.44756E-07
 -1       112 3.01713E+02-4.55300E+02-4.46242E+01 3.46320E+02 2.98059E-08-9.47487E-08
 -1       113 3.50069E+02-5.94678E+02-6.99252E+01 4.22977E+02 1.11837E-08-5.15670E-08
 -1       114 3.44834E+02-6.62012E+02-8.84311E+01 4.20318E+02 1.52148E-09-1.34732E-08
 -1       115 2.21273E+02-6.44401E+02-1.16314E+02 3.23202E+02-1.08237E-08 3.74167E-08
 -1       116 5.13155E+01-5.47676E+02-1.34340E+02 1.63108E+02-3.48387E-08 9.76698E-08
 -1       117-9.36815E+01-4.65625E+02-1.49768E+02 3.51951E+01-5.30585E-08 1.45171E-07
 -1       118-1.08206E+02-4.34913E+02-1.42253E+02-1.12851E-01-5.82099E-08 1.66072E-07
 -1       119-8.61775E+01-4.70460E+02-1.44650E+02 5.08831E+01-4.82527E-08 1.58414E-07
 -1       120-6.63767E+01-5.08777E+02-1.48678E+02 1.14007E+02-2.86767E-08 1.07585E-07
 -1       121-8.97902E+01-5.49722E+02-1.65668E+02 1.59167E+02-1.08924E-08 4.41922E-08
 -1       122-7.05259E+01-5.86237E+02-1.67073E+02 2.05802E+02-4.28410E-09 3.32353E-08
 -1       123-6.88058E+01-6.59828E+02-1.83678E+02 2.93338E+02-7.68082E-09 7.40939E-08
 -1       124-7.65885E+01-7.39835E+02-2.05019E+02 3.87822E+02-1.14725E-08 1.08180E-07
 -1       125-1.46952E+02-8.43149E+02-2.44652E+02 5.23104E+02-8.30266E-09 1.03106E-07
 -1       126-1.17515E+02-9.39389E+02-2.85431E+02 2.63397E+02-2.63603E-09 4.60799E-08
 -3
    1PSTEP                       295          74           1          
  100CL  174 7.40000E-01         126                     1   74           1
 -4  TOSTRAIN    6    1
 -5  EXX         1    4    1    1
 -5  EYY         1    4    2    2
 -5  EZZ         1    4    3    3
 -5  EXY         1    4    1    2
 -5  EYZ         1    4    2    3
 -5  EZX         1    4    3    1
 -1         1-1.61010E-04 4.21192E-02-8.07542E-27 1.61540E-02-3.15034E-19 7.11830E-16
 -1         2-1.61010E-04 4.21192E-02-8.07542E-27 1.61540E-02-3.15034E-19 7.11830E-16
 -1         3-1.60975E-04 3.32562E-04 3.32234E-26 6.36614E-05 1.84550E-13 1.14891E-14
 -1         4-1.60975E-04 3.32562E-04 3.32240E-26 6.36614E-05 1.84561E-13 1.14841E-14
 -1         5-5.11637E-05-2.12903E-04 1.76534E-25 7.60721E-05-3.35061E-13 2.85719E-14
 -1         6-5.11637E-05-2.12903E-04 1.76631E-25 7.60721E-05-3.35135E-13 2.84092E-14
 -1         7-1.61799E-04-4.29615E-02-1.02347E-26 1.49357E-02 8.29895E-19-8.86415E-16
 -1         8-1.61799E-04-4.29615E-02-1.02347E-26 1.49357E-02 8.30173E-19-8.86402E-16
 -1         9-1.06069E-04 7.77624E-05-3.81599E-26 1.04751E-04-5.09097E-14 1.76750E-14
 -1        10-1.06069E-04 7.77624E-05-3.81729E-26 1.04751E-04-5.09208E-14 1.77048E-14
 -1        11-1.61404E-04-1.26540E-03-7.21107E-27 1.00026E-02 7.47919E-20-3.43092E-17
 -1        12-1.61404E-04-1.26540E-03-7.21109E-27 1.00026E-02 7.42734E-20-3.43329E-17
 -1        13-1.14865E-02 4.16080E-02 3.88110E-26 3.00706E-03 6.80113E-14 1.42694E-13
 -1        14-8.71081E-03 3.90995E-02 2.07679E-25 1.04174E-03 5.40000E-14 3.20555E-13
 -1        15-8.16772E-03 3.55659E-02 2.21369E-25 1.18750E-03-1.57231E-15 3.31381E-13
 -1        16-7.44936E-03 3.27836E-02 1.18379E-25 9.13365E-04-2.75280E-14 2.44231E-13
 -1        17-6.97803E-03 3.05860E-02 3.70770E-26 7.30057E-04 2.87012E-14 1.39244E-13
 -1        18-6.64253E-03 2.88130E-02 7.21221E-26 5.99491E-04 1.13182E-13 1.71595E-13
 -1        19-6.20318E-03 2.72790E-02 2.81520E-25 4.96163E-04 1.35495E-13 3.60993E-13
 -1        20-5.90556E-03 2.60943E-02 5.25661E-25 3.60452E-04 5.94835E-14 5.10216E-13
 -1        21-5.75894E-03 2.53851E-02 5.76110E-25 2.49450E-04-3.97724E-14 5.33543E-13
 -1        22-5.71929E-03 2.47607E-02 5.06908E-25 3.58375E-04-1.14876E-13 4.92334E-13
 -1        23-5.35976E-03 2.33185E-02 2.50607E-25 7.81360E-04-1.57671E-13 3.32398E-13
 -1        24-4.68089E-03 2.03852E-02 6.11331E-26 1.31664E-03-1.73827E-13 1.17087E-13
 -1        25-3.69875E-03 1.61672E-02 5.01484E-26 1.62742E-03-1.69001E-13-7.06813E-14
 -1        26-2.69725E-03 1.15719E-02 9.04249E-26 1.57309E-03-1.68664E-13-1.52195E-13
 -1        27-1.74330E-03 7.52393E-03 2.39887E-25 1.26932E-03-1.73204E-13-3.13444E-13
 -1        28-1.09336E-03 4.51478E-03 5.06312E-25 8.99562E-04-1.36913E-13-4.88680E-13
 -1        29-6.90752E-04 2.55967E-03 5.55681E-25 5.72164E-04-3.90346E-14-5.28005E-13
 -1        30-4.79234E-04 1.36180E-03 3.64645E-25 3.39098E-04 8.70974E-14-4.29890E-13
 -1        31-2.80338E-04 6.17505E-04 1.13999E-25 1.60874E-04 1.71079E-13-2.11743E-13
 -1        32-1.14865E-02 4.16080E-02 3.88110E-26 3.00706E-03 6.80113E-14 1.42694E-13
 -1        33-8.71081E-03 3.90995E-02 2.07680E-25 1.04174E-03 5.40000E-14 3.20555E-13
 -1        34-8.16772E-03 3.55659E-02 2.21369E-25 1.18750E-03-1.57222E-15 3.31381E-13
 -1        35-7.44936E-03 3.27836E-02 1.18379E-25 9.13365E-04-2.75279E-14 2.44231E-13
 -1        36-6.97803E-03 3.05860E-02 3.70770E-26 7.30057E-04 2.87014E-14 1.39244E-13
 -1        37-6.64253E-03 2.88130E-02 7.21171E-26 5.99491E-04 1.13180E-13 1.71588E-13
 -1        38-6.20318E-03 2.72790E-02 2.81514E-25 4.96163E-04 1.35494E-13 3.60989E-13
 -1        39-5.90556E-03 2.60943E-02 5.25663E-25 3.60452E-04 5.94838E-14 5.10217E-13
 -1        40-5.75894E-03 2.53851E-02 5.76110E-25 2.49450E-04-3.97726E-14 5.33543E-13
 -1        41-5.71929E-03 2.47607E-02 5.06908E-25 3.58375E-04-1.14876E-13 4.92334E-13
 -1        42-5.35976E-03 2.33185E-02 2.50607E-25 7.81360E-04-1.57671E-13 3.32398E-13
 -1        43-4.68089E-03 2.03852E-02 6.11322E-26 1.31664E-03-1.73829E-13 1.17084E-13
 -1        44-3.69875E-03 1.61672E-02 5.01484E-26 1.62742E-03-1.69001E-13-7.06808E-14
 -1        45-2.69725E-03 1.15719E-02 9.04253E-26 1.57309E-03-1.68665E-13-1.52194E-13
 -1        46-1.74330E-03 7.52393E-03 2.39883E-25 1.26932E-03-1.73202E-13-3.13442E-13
 -1        47-1.09336E-03 4.51478E-03 5.06313E-25 8.99562E-04-1.36914E-13-4.88681E-13
 -1        48-6.90752E-04 2.55967E-03 5.55671E-25 5.72164E-04-3.90321E-14-5.27999E-13
 -1        49-4.79234E-04 1.36180E-03 3.64662E-25 3.39098E-04 8.70963E-14-4.29896E-13
 -1        50-2.80338E-04 6.17505E-04 1.14001E-25 1.60874E-04 1.71073E-13-2.11745E-13
 -1        51-3.09937E-05-4.95496E-04 2.38788E-25 1.76588E-04-2.93074E-13-2.30029E-13
 -1        52 1.27665E-04-1.25288E-03 4.40627E-25 3.35982E-04-1.96183E-13-4.36574E-13
 -1        53 4.01046E-04-2.49502E-03 5.70617E-25 5.61622E-04-9.07806E-14-5.29393E-13
 -1        54 8.27804E-04-4.51515E-03 4.23312E-25 8.96464E-04 1.96504E-14-4.64809E-13
 -1        55 1.48841E-03-7.61293E-03 2.04493E-25 1.28140E-03 9.24339E-14-3.17164E-13
 -1        56 2.36413E-03-1.17864E-02 7.26168E-26 1.58026E-03 1.26725E-13-1.68662E-13
 -1        57 3.40694E-03-1.65402E-02 3.29709E-26 1.63010E-03 1.56296E-13-2.22772E-15
 -1        58 4.33897E-03-2.09132E-02 7.01040E-26 1.33401E-03 1.68770E-13 1.22062E-13
 -1        59 4.96089E-03-2.39395E-02 2.49910E-25 8.07904E-04 1.50986E-13 3.34572E-13
 -1        60 5.20863E-03-2.53825E-02 4.53149E-25 3.66273E-04 7.92549E-14 4.76716E-13
 -1        61 5.31897E-03-2.59505E-02 6.44891E-25 2.43869E-04-2.10817E-15 5.72677E-13
 -1        62 5.44018E-03-2.66086E-02 5.69647E-25 3.73598E-04-9.71459E-14 5.31659E-13
 -1        63 5.66901E-03-2.77690E-02 2.75501E-25 5.29383E-04-1.50410E-13 3.53328E-13
 -1        64 5.94047E-03-2.92851E-02 5.99692E-26 6.17946E-04-9.81372E-14 1.60344E-13
 -1        65 6.31066E-03-3.10394E-02 2.98680E-26 7.31161E-04 2.64527E-15 1.31794E-13
 -1        66 6.73839E-03-3.32496E-02 1.21364E-25 9.28548E-04 6.18985E-14 2.45158E-13
 -1        67 7.38795E-03-3.61101E-02 2.36685E-25 1.23746E-03 2.45303E-14 3.47948E-13
 -1        68 7.66290E-03-3.99249E-02 2.23130E-25 1.05540E-03-5.89024E-14 3.36401E-13
 -1        69 1.06799E-02-4.25533E-02 5.13595E-26 3.00581E-03-7.73601E-14 1.59910E-13
 -1        70-3.09937E-05-4.95496E-04 2.38677E-25 1.76588E-04-2.93037E-13-2.29948E-13
 -1        71 1.27665E-04-1.25288E-03 4.40649E-25 3.35982E-04-1.96193E-13-4.36589E-13
 -1        72 4.01046E-04-2.49502E-03 5.70613E-25 5.61622E-04-9.07791E-14-5.29392E-13
 -1        73 8.27804E-04-4.51515E-03 4.23386E-25 8.96464E-04 1.96298E-14-4.64853E-13
 -1        74 1.48841E-03-7.61293E-03 2.04461E-25 1.28140E-03 9.24449E-14-3.17143E-13
 -1        75 2.36413E-03-1.17864E-02 7.26151E-26 1.58026E-03 1.26724E-13-1.68660E-13
 -1        76 3.40694E-03-1.65402E-02 3.29705E-26 1.63010E-03 1.56297E-13-2.22485E-15
 -1        77 4.33897E-03-2.09132E-02 7.01070E-26 1.33401E-03 1.68780E-13 1.22058E-13
 -1        78 4.96089E-03-2.39395E-02 2.49909E-25 8.07904E-04 1.50984E-13 3.34573E-13
 -1        79 5.20863E-03-2.53825E-02 4.53140E-25 3.66273E-04 7.92523E-14 4.76712E-13
 -1        80 5.31897E-03-2.59505E-02 6.44927E-25 2.43869E-04-2.09813E-15 5.72694E-13
 -1        81 5.44018E-03-2.66086E-02 5.69667E-25 3.73598E-04-9.71435E-14 5.31669E-13
 -1        82 5.66901E-03-2.77690E-02 2.75496E-25 5.29383E-04-1.50409E-13 3.53326E-13
 -1        83 5.94047E-03-2.92851E-02 5.99740E-26 6.17946E-04-9.81365E-14 1.60354E-13
 -1        84 6.31066E-03-3.10394E-02 2.98660E-26 7.31161E-04 2.65045E-15 1.31791E-13
 -1        85 6.73839E-03-3.32496E-02 1.21364E-25 9.28548E-04 6.18989E-14 2.45158E-13
 -1        86 7.38795E-03-3.61101E-02 2.36684E-25 1.23746E-03 2.45300E-14 3.47948E-13
 -1        87 7.66290E-03-3.99249E-02 2.23130E-25 1.05540E-03-5.89023E-14 3.36401E-13
 -1        88 1.06799E-02-4.25533E-02 5.13595E-26 3.00581E-03-7.73601E-14 1.59910E-13
 -1        89-4.03276E-04-1.01600E-03 3.38646E-26 9.65040E-04-2.59387E-15 1.50011E-13
 -1        90-5.23954E-04-7.30466E-04 2.19776E-25 1.87145E-03 1.18450E-15 3.36399E-13
 -1        91-3.89888E-04-6.52189E-04 2.48317E-25 1.48525E-03 5.83611E-15 3.53670E-13
 -1        92-3.55484E-04-5.71808E-04 1.11810E-25 1.20414E-03 1.30745E-14 2.41855E-13
 -1        93-3.33688E-04-5.04275E-04 2.05704E-26 9.31236E-04 6.85037E-15 1.08760E-13
 -1        94-3.51032E-04-4.67736E-04 3.23751E-26 7.85616E-04-3.37756E-15 1.47963E-13
 -1        95-2.67085E-04-4.68068E-04 2.42768E-25 6.67151E-04-5.16186E-15 3.61986E-13
 -1        96-2.32686E-04-4.77485E-04 5.72886E-25 4.66249E-04-1.22471E-14 5.38269E-13
 -1        97-2.19988E-04-4.75342E-04 6.54151E-25 2.99046E-04-2.20101E-14 5.71705E-13
 -1        98-2.55331E-04-4.68324E-04 4.97094E-25 4.57019E-04-1.32912E-14 5.02399E-13
 -1        99-1.99437E-04-4.49137E-04 2.07535E-25 1.03290E-03 1.94425E-15 3.37117E-13
 -1       100-1.70959E-04-3.84333E-04 1.00004E-26 1.72695E-03 1.11455E-14 1.26072E-13
 -1       101-1.45905E-04-2.70240E-04-1.27644E-26 2.12348E-03-1.23425E-14-4.23731E-14
 -1       102-1.66558E-04-1.53729E-04 4.48312E-26 2.06087E-03-3.26721E-14-1.68282E-13
 -1       103-1.27446E-04-7.34821E-05 1.93708E-25 1.66789E-03-3.51086E-14-3.20843E-13
 -1       104-1.32779E-04-1.87590E-05 4.81056E-25 1.16552E-03-5.34432E-14-4.91251E-13
 -1       105-1.44853E-04 3.01974E-05 6.06525E-25 7.31189E-04-6.37749E-14-5.47682E-13
 -1       106-1.75785E-04 6.83651E-05 4.14297E-25 4.42848E-04-6.31770E-14-4.59506E-13
 -1       107-1.55666E-04 8.04371E-05 7.95106E-26 2.30866E-04-5.33949E-14-2.35213E-13
 -1       108-1.55666E-04 8.04371E-05 7.94667E-26 2.30866E-04-5.33750E-14-2.35179E-13
 -1       109-1.75785E-04 6.83651E-05 4.14362E-25 4.42848E-04-6.31884E-14-4.59541E-13
 -1       110-1.44853E-04 3.01974E-05 6.06535E-25 7.31189E-04-6.37780E-14-5.47685E-13
 -1       111-1.32779E-04-1.87590E-05 4.81044E-25 1.16552E-03-5.34373E-14-4.91244E-13
 -1       112-1.27446E-04-7.34821E-05 1.93718E-25 1.66789E-03-3.51177E-14-3.20849E-13
 -1       113-1.66558E-04-1.53729E-04 4.48344E-26 2.06087E-03-3.26708E-14-1.68286E-13
 -1       114-1.45905E-04-2.70240E-04-1.27641E-26 2.12348E-03-1.23447E-14-4.23798E-14
 -1       115-1.70959E-04-3.84333E-04 1.00015E-26 1.72695E-03 1.11465E-14 1.26077E-13
 -1       116-1.99437E-04-4.49137E-04 2.07535E-25 1.03290E-03 1.94364E-15 3.37117E-13
 -1       117-2.55331E-04-4.68324E-04 4.97097E-25 4.57019E-04-1.32919E-14 5.02400E-13
 -1       118-2.19988E-04-4.75342E-04 6.54140E-25 2.99046E-04-2.20129E-14 5.71700E-13
 -1       119-2.32686E-04-4.77485E-04 5.72881E-25 4.66249E-04-1.22479E-14 5.38266E-13
 -1       120-2.67085E-04-4.68068E-04 2.42777E-25 6.67151E-04-5.16097E-15 3.61991E-13
 -1       121-3.51032E-04-4.67736E-04 3.23805E-26 7.85616E-04-3.37466E-15 1.47970E-13
 -1       122-3.33688E-04-5.04275E-04 2.05701E-26 9.31236E-04 6.84927E-15 1.08759E-13
 -1       123-3.55484E-04-5.71808E-04 1.11809E-25 1.20414E-03 1.30736E-14 2.41855E-13
 -1       124-3.89888E-04-6.52189E-04 2.48318E-25 1.48525E-03 5.83659E-15 3.53671E-13
 -1       125-5.23954E-04-7.30466E-04 2.19775E-25 1.87145E-03 1.18433E-15 3.36398E-13
 -1       126-4.03276E-04-1.01600E-03 3.38647E-26 9.65040E-04-2.59390E-15 1.50011E-13
 -3
    1PSTEP                       296          74           1          
  100CL  174 7.40000E-01         126                     1   74           1
 -4  ERROR       1    1
 -5  STR(%)      1    1    0    0
 -1         1 6.45129E+01
 -1         2 6.45129E+01
 -1         3 5.00751E+01
 -1         4 5.00751E+01
 -1         5 4.60701E+01
 -1         6 4.60701E+01
 -1         7 5.83303E+01
 -1         8 5.83303E+01
 -1         9 5.00751E+01
 -1        10 5.00751E+01
 -1        11 6.45129E+01
 -1        12 6.45129E+01
 -1        13 6.45129E+01
 -1        14 6.38085E+01
 -1        15 6.37231E+01
 -1        16 6.34729E+01
 -1        17 6.31193E+01
 -1        18 6.29482E+01
 -1        19 6.27967E+01
 -1        20 6.27389E+01
 -1        21 6.24245E+01
 -1        22 6.28834E+01
 -1        23 6.39737E+01
 -1        24 6.44518E+01
 -1        25 6.44518E+01
 -1        26 6.38720E+01
 -1        27 6.22383E+01
 -1        28 6.07059E+01
 -1        29 5.96021E+01
 -1        30 5.86346E+01
 -1        31 5.16616E+01
 -1        32 6.45129E+01
 -1        33 6.38085E+01
 -1        34 6.37231E+01
 -1        35 6.34729E+01
 -1        36 6.31193E+01
 -1        37 6.29482E+01
 -1        38 6.27967E+01
 -1        39 6.27389E+01
 -1        40 6.24245E+01
 -1        41 6.28834E+01
 -1        42 6.39737E+01
 -1        43 6.44518E+01
 -1        44 6.44518E+01
 -1        45 6.38720E+01
 -1        46 6.22383E+01
 -1        47 6.07059E+01
 -1        48 5.96021E+01
 -1        49 5.86346E+01
 -1        50 5.16616E+01
 -1        51 4.83423E+01
 -1        52 5.42810E+01
 -1        53 5.58614E+01
 -1        54 5.72663E+01
 -1        55 5.89030E+01
 -1        56 5.98306E+01
 -1        57 5.99534E+01
 -1        58 5.99534E+01
 -1        59 5.91909E+01
 -1        60 5.81763E+01
 -1        61 5.78231E+01
 -1        62 5.81961E+01
 -1        63 5.83884E+01
 -1        64 5.83884E+01
 -1        65 5.84819E+01
 -1        66 5.85823E+01
 -1        67 5.86233E+01
 -1        68 5.86233E+01
 -1        69 5.84879E+01
 -1        70 4.83423E+01
 -1        71 5.42810E+01
 -1        72 5.58614E+01
 -1        73 5.72663E+01
 -1        74 5.89030E+01
 -1        75 5.98306E+01
 -1        76 5.99534E+01
 -1        77 5.99534E+01
 -1        78 5.91909E+01
 -1        79 5.81763E+01
 -1        80 5.78231E+01
 -1        81 5.81961E+01
 -1        82 5.83884E+01
 -1        83 5.83884E+01
 -1        84 5.84819E+01
 -1        85 5.85823E+01
 -1        86 5.86233E+01
 -1        87 5.86233E+01
 -1        88 5.84879E+01
 -1        89 6.45129E+01
 -1        90 6.38085E+01
 -1        91 6.37231E+01
 -1        92 6.34729E+01
 -1        93 6.31193E+01
 -1        94 6.29482E+01
 -1        95 6.27967E+01
 -1        96 6.27389E+01
 -1        97 6.24245E+01
 -1        98 6.28834E+01
 -1        99 6.39737E+01
 -1       100 6.44518E+01
 -1       101 6.44518E+01
 -1       102 6.38720E+01
 -1       103 6.22383E+01
 -1       104 6.07059E+01
 -1       105 5.96021E+01
 -1       106 5.86346E+01
 -1       107 5.16616E+01
 -1       108 5.16616E+01
 -1       109 5.86346E+01
 -1       110 5.96021E+01
 -1       111 6.07059E+01
 -1       112 6.22383E+01
 -1       113 6.38720E+01
 -1       114 6.44518E+01
 -1       115 6.44518E+01
 -1       116 6.39737E+01
 -1       117 6.28834E+01
 -1       118 6.24245E+01
 -1       119 6.27389E+01
 -1       120 6.27967E+01
 -1       121 6.29482E+01
 -1       122 6.31193E+01
 -1       123 6.34729E+01
 -1       124 6.37231E+01
 -1       125 6.38085E+01
 -1       126 6.45129E+01
 -3
    1PSTEP                       297          75           1          
  100CL  175 7.50000E-01         126                     1   75           1
 -4  DISP        4    1
 -5  D1          1    2    1    0
 -5  D2          1    2    2    0
 -5  D3          1    2    3    0
 -5  ALL         1    2    0    0    1ALL
 -1         1 0.00000E+00 0.00000E+00 0.00000E+00
 -1         2 0.00000E+00 0.00000E+00 0.00000E+00
 -1         3 2.94607E-01-3.12693E-02 0.00000E+00
 -1         4 2.94607E-01-3.12693E-02 0.00000E+00
 -1         5 2.85536E-01-7.28531E-02 0.00000E+00
 -1         6 2.85536E-01-7.28531E-02 0.00000E+00
 -1         7 0.00000E+00 0.00000E+00 0.00000E+00
 -1         8 0.00000E+00 0.00000E+00 0.00000E+00
 -1         9 2.90072E-01-5.20589E-02 0.00000E+00
 -1        10 2.90072E-01-5.20589E-02 0.00000E+00
 -1        11 0.00000E+00 0.00000E+00 0.00000E+00
 -1        12 0.00000E+00 0.00000E+00 0.00000E+00
 -1        13 1.55235E-03 2.04583E-03 0.00000E+00
 -1        14 4.95297E-03 3.99353E-03 0.00000E+00
 -1        15 1.04835E-02 5.58687E-03 0.00000E+00
 -1        16 1.78715E-02 6.80562E-03 0.00000E+00
 -1        17 2.69632E-02 7.63560E-03 0.00000E+00
 -1        18 3.76665E-02 8.06455E-03 0.00000E+00
 -1        19 4.98910E-02 8.05995E-03 0.00000E+00
 -1        20 6.35303E-02 7.59102E-03 0.00000E+00
 -1        21 7.84541E-02 6.65908E-03 0.00000E+00
 -1        22 9.45744E-02 5.27841E-03 0.00000E+00
 -1        23 1.11836E-01 3.44875E-03 0.00000E+00
 -1        24 1.30201E-01 1.13200E-03 0.00000E+00
 -1        25 1.49560E-01-1.71724E-03 0.00000E+00
 -1        26 1.69709E-01-5.11377E-03 0.00000E+00
 -1        27 1.90362E-01-8.99824E-03 0.00000E+00
 -1        28 2.11246E-01-1.32452E-02 0.00000E+00
 -1        29 2.32157E-01-1.76948E-02 0.00000E+00
 -1        30 2.53013E-01-2.22182E-02 0.00000E+00
 -1        31 2.73817E-01-2.67467E-02 0.00000E+00
 -1        32 1.55235E-03 2.04583E-03 0.00000E+00
 -1        33 4.95297E-03 3.99353E-03 0.00000E+00
 -1        34 1.04835E-02 5.58687E-03 0.00000E+00
 -1        35 1.78715E-02 6.80562E-03 0.00000E+00
 -1        36 2.69632E-02 7.63560E-03 0.00000E+00
 -1        37 3.76665E-02 8.06455E-03 0.00000E+00
 -1        38 4.98910E-02 8.05995E-03 0.00000E+00
 -1        39 6.35303E-02 7.59102E-03 0.00000E+00
 -1        40 7.84541E-02 6.65908E-03 0.00000E+00
 -1        41 9.45744E-02 5.27841E-03 0.00000E+00
 -1        42 1.11836E-01 3.44875E-03 0.00000E+00
 -1        43 1.30201E-01 1.13200E-03 0.00000E+00
 -1        44 1.49560E-01-1.71724E-03 0.00000E+00
 -1        45 1.69709E-01-5.11377E-03 0.00000E+00
 -1        46 1.90362E-01-8.99824E-03 0.00000E+00
 -1        47 2.11246E-01-1.32452E-02 0.00000E+00
 -1        48 2.32157E-01-1.76948E-02 0.00000E+00
 -1        49 2.53013E-01-2.22182E-02 0.00000E+00
 -1        50 2.73817E-01-2.67467E-02 0.00000E+00
 -1        51 2.64737E-01-6.83318E-02 0.00000E+00
 -1        52 2.43918E-01-6.38156E-02 0.00000E+00
 -1        53 2.23071E-01-5.92680E-02 0.00000E+00
 -1        54 2.02241E-01-5.46366E-02 0.00000E+00
 -1        55 1.81580E-01-4.98934E-02 0.00000E+00
 -1        56 1.61336E-01-4.50727E-02 0.00000E+00
 -1        57 1.41787E-01-4.02778E-02 0.00000E+00
 -1        58 1.23157E-01-3.56401E-02 0.00000E+00
 -1        59 1.05577E-01-3.12714E-02 0.00000E+00
 -1        60 8.91005E-02-2.72298E-02 0.00000E+00
 -1        61 7.37548E-02-2.35186E-02 0.00000E+00
 -1        62 5.95815E-02-2.01053E-02 0.00000E+00
 -1        63 4.66726E-02-1.69585E-02 0.00000E+00
 -1        64 3.51430E-02-1.40643E-02 0.00000E+00
 -1        65 2.50919E-02-1.14150E-02 0.00000E+00
 -1        66 1.65780E-02-8.97539E-03 0.00000E+00
 -1        67 9.68562E-03-6.67554E-03 0.00000E+00
 -1        68 4.54033E-03-4.44048E-03 0.00000E+00
 -1        69 1.41747E-03-2.17685E-03 0.00000E+00
 -1        70 2.64737E-01-6.83318E-02 0.00000E+00
 -1        71 2.43918E-01-6.38156E-02 0.00000E+00
 -1        72 2.23071E-01-5.92680E-02 0.00000E+00
 -1        73 2.02241E-01-5.46366E-02 0.00000E+00
 -1        74 1.81580E-01-4.98934E-02 0.00000E+00
 -1        75 1.61336E-01-4.50727E-02 0.00000E+00
 -1        76 1.41787E-01-4.02778E-02 0.00000E+00
 -1        77 1.23157E-01-3.56401E-02 0.00000E+00
 -1        78 1.05577E-01-3.12714E-02 0.00000E+00
 -1        79 8.91005E-02-2.72298E-02 0.00000E+00
 -1        80 7.37548E-02-2.35186E-02 0.00000E+00
 -1        81 5.95815E-02-2.01053E-02 0.00000E+00
 -1        82 4.66726E-02-1.69585E-02 0.00000E+00
 -1        83 3.51430E-02-1.40643E-02 0.00000E+00
 -1        84 2.50919E-02-1.14150E-02 0.00000E+00
 -1        85 1.65780E-02-8.97539E-03 0.00000E+00
 -1        86 9.68562E-03-6.67554E-03 0.00000E+00
 -1        87 4.54033E-03-4.44048E-03 0.00000E+00
 -1        88 1.41747E-03-2.17685E-03 0.00000E+00
 -1        89 9.30912E-04-5.07063E-05 0.00000E+00
 -1        90 4.32916E-03-1.84007E-04 0.00000E+00
 -1        91 9.68668E-03-4.90214E-04 0.00000E+00
 -1        92 1.68607E-02-1.02380E-03 0.00000E+00
 -1        93 2.56854E-02-1.82199E-03 0.00000E+00
 -1        94 3.60816E-02-2.92478E-03 0.00000E+00
 -1        95 4.79817E-02-4.36926E-03 0.00000E+00
 -1        96 6.12783E-02-6.17555E-03 0.00000E+00
 -1        97 7.58452E-02-8.34728E-03 0.00000E+00
 -1        98 9.15913E-02-1.08904E-02 0.00000E+00
 -1        99 1.08475E-01-1.38243E-02 0.00000E+00
 -1       100 1.26470E-01-1.71697E-02 0.00000E+00
 -1       101 1.45500E-01-2.09231E-02 0.00000E+00
 -1       102 1.65395E-01-2.50357E-02 0.00000E+00
 -1       103 1.85895E-01-2.94099E-02 0.00000E+00
 -1       104 2.06709E-01-3.39243E-02 0.00000E+00
 -1       105 2.27604E-01-3.84764E-02 0.00000E+00
 -1       106 2.48466E-01-4.30155E-02 0.00000E+00
 -1       107 2.69278E-01-4.75377E-02 0.00000E+00
 -1       108 2.69278E-01-4.75377E-02 0.00000E+00
 -1       109 2.48466E-01-4.30155E-02 0.00000E+00
 -1       110 2.27604E-01-3.84764E-02 0.00000E+00
 -1       111 2.06709E-01-3.39243E-02 0.00000E+00
 -1       112 1.85895E-01-2.94099E-02 0.00000E+00
 -1       113 1.65395E-01-2.50357E-02 0.00000E+00
 -1       114 1.45500E-01-2.09231E-02 0.00000E+00
 -1       115 1.26470E-01-1.71697E-02 0.00000E+00
 -1       116 1.08475E-01-1.38243E-02 0.00000E+00
 -1       117 9.15913E-02-1.08904E-02 0.00000E+00
 -1       118 7.58452E-02-8.34728E-03 0.00000E+00
 -1       119 6.12783E-02-6.17555E-03 0.00000E+00
 -1       120 4.79817E-02-4.36926E-03 0.00000E+00
 -1       121 3.60816E-02-2.92478E-03 0.00000E+00
 -1       122 2.56854E-02-1.82199E-03 0.00000E+00
 -1       123 1.68607E-02-1.02380E-03 0.00000E+00
 -1       124 9.68668E-03-4.90214E-04 0.00000E+00
 -1       125 4.32916E-03-1.84007E-04 0.00000E+00
 -1       126 9.30912E-04-5.07063E-05 0.00000E+00
 -3
    1PSTEP                       298          75           1          
  100CL  175 7.50000E-01         126                     1   75           1
 -4  STRESS      6    1
 -5  SXX         1    4    1    1
 -5  SYY         1    4    2    2
 -5  SZZ         1    4    3    3
 -5  SXY         1    4    1    2
 -5  SYZ         1    4    2    3
 -5  SZX         1    4    3    1
 -1         1 9.59299E+03 2.32913E+04 9.36148E+03 5.38645E+03 1.87330E-10 2.45790E-10
 -1         2 9.59299E+03 2.32913E+04 9.36148E+03 5.38645E+03 1.87330E-10 2.45790E-10
 -1         3-5.89454E+01 1.01563E+01-1.46429E+01 1.68369E+01 2.29312E-08-8.99747E-08
 -1         4-5.89454E+01 1.01563E+01-1.46429E+01 1.68369E+01 2.29313E-08-8.99747E-08
 -1         5-1.10954E+01 5.76852E+01 1.39680E+01 3.32970E+01 6.25058E-08-8.05165E-08
 -1         6-1.10954E+01 5.76852E+01 1.39680E+01 3.32970E+01 6.25084E-08-8.05167E-08
 -1         7-1.00052E+04-2.20832E+04-1.01762E+04 3.79025E+03 1.86305E-10-1.88618E-10
 -1         8-1.00052E+04-2.20832E+04-1.01762E+04 3.79025E+03 1.86305E-10-1.88618E-10
 -1         9-3.53941E+01 4.02855E+01 1.46008E+00 2.37377E+01 3.55163E-08-9.07801E-08
 -1        10-3.53941E+01 4.02855E+01 1.46008E+00 2.37377E+01 3.55160E-08-9.07796E-08
 -1        11-1.58716E+02-8.20670E+02-1.93960E+02 2.84482E+03 1.57459E-10 2.34394E-11
 -1        12-1.58716E+02-8.20670E+02-1.93960E+02 2.84482E+03 1.57459E-10 2.34394E-11
 -1        13 3.53399E+03 2.06181E+04 6.87438E+03 1.61956E+03 1.90052E-08 2.70971E-08
 -1        14 4.55083E+03 2.00771E+04 7.02296E+03 1.61159E+03 1.60791E-08 5.53281E-08
 -1        15 4.22549E+03 1.82165E+04 6.42634E+03 2.12812E+03 2.78321E-09 5.30287E-08
 -1        16 4.10972E+03 1.67791E+04 6.00159E+03 2.37004E+03-1.81038E-09 2.76978E-08
 -1        17 3.99660E+03 1.56078E+04 5.64579E+03 2.58463E+03 6.93726E-09 2.91785E-08
 -1        18 3.90101E+03 1.45649E+04 5.32835E+03 2.78796E+03 2.27177E-08 3.95056E-08
 -1        19 3.87769E+03 1.35184E+04 5.03113E+03 2.92412E+03 1.64481E-08 9.89510E-08
 -1        20 3.79549E+03 1.24733E+04 4.71653E+03 2.97821E+03-1.28306E-08 1.31284E-07
 -1        21 3.70615E+03 1.15978E+04 4.44546E+03 2.98817E+03-3.63731E-08 1.15810E-07
 -1        22 3.62087E+03 1.08806E+04 4.21798E+03 3.01935E+03-4.23194E-08 7.00809E-08
 -1        23 3.61536E+03 1.01325E+04 4.00410E+03 3.05150E+03-2.64188E-08 1.80199E-08
 -1        24 3.49610E+03 8.98608E+03 3.64362E+03 3.00713E+03-1.27800E-09 3.50419E-10
 -1        25 3.15562E+03 7.29533E+03 3.06219E+03 2.74953E+03 4.76025E-09 1.71097E-08
 -1        26 2.51280E+03 5.18883E+03 2.26856E+03 2.23137E+03-3.55833E-09 2.12331E-08
 -1        27 1.72784E+03 3.10231E+03 1.43121E+03 1.53087E+03-1.60376E-08 2.05098E-08
 -1        28 9.25881E+02 1.43200E+03 7.02279E+02 8.59183E+02-1.65040E-08-5.73980E-09
 -1        29 3.26493E+02 4.35696E+02 2.27773E+02 3.71866E+02-9.10627E-09-2.71233E-08
 -1        30-1.22339E+00 3.60971E+01 1.03674E+01 1.19790E+02 2.11842E-09-5.73012E-08
 -1        31-7.60521E+01-1.59307E+01-2.76064E+01 3.35442E+01 1.05326E-08-7.63037E-08
 -1        32 3.53399E+03 2.06181E+04 6.87438E+03 1.61956E+03 1.90052E-08 2.70971E-08
 -1        33 4.55083E+03 2.00771E+04 7.02296E+03 1.61159E+03 1.60791E-08 5.53281E-08
 -1        34 4.22549E+03 1.82165E+04 6.42634E+03 2.12812E+03 2.78324E-09 5.30286E-08
 -1        35 4.10972E+03 1.67791E+04 6.00159E+03 2.37004E+03-1.81033E-09 2.76989E-08
 -1        36 3.99660E+03 1.56078E+04 5.64579E+03 2.58463E+03 6.93721E-09 2.91775E-08
 -1        37 3.90101E+03 1.45649E+04 5.32835E+03 2.78796E+03 2.27174E-08 3.95062E-08
 -1        38 3.87769E+03 1.35184E+04 5.03113E+03 2.92412E+03 1.64489E-08 9.89517E-08
 -1        39 3.79549E+03 1.24733E+04 4.71653E+03 2.97821E+03-1.28306E-08 1.31284E-07
 -1        40 3.70615E+03 1.15978E+04 4.44546E+03 2.98817E+03-3.63732E-08 1.15810E-07
 -1        41 3.62087E+03 1.08806E+04 4.21798E+03 3.01935E+03-4.23192E-08 7.00791E-08
 -1        42 3.61536E+03 1.01325E+04 4.00410E+03 3.05150E+03-2.64190E-08 1.80217E-08
 -1        43 3.49610E+03 8.98608E+03 3.64362E+03 3.00713E+03-1.27783E-09 3.49927E-10
 -1        44 3.15562E+03 7.29533E+03 3.06219E+03 2.74953E+03 4.75994E-09 1.71122E-08
 -1        45 2.51280E+03 5.18883E+03 2.26856E+03 2.23137E+03-3.55821E-09 2.12356E-08
 -1        46 1.72784E+03 3.10231E+03 1.43121E+03 1.53087E+03-1.60376E-08 2.05108E-08
 -1        47 9.25881E+02 1.43200E+03 7.02279E+02 8.59183E+02-1.65041E-08-5.74350E-09
 -1        48 3.26493E+02 4.35696E+02 2.27773E+02 3.71866E+02-9.10597E-09-2.71233E-08
 -1        49-1.22339E+00 3.60971E+01 1.03674E+01 1.19790E+02 2.11890E-09-5.73012E-08
 -1        50-7.60521E+01-1.59307E+01-2.76064E+01 3.35442E+01 1.05281E-08-7.63037E-08
 -1        51-1.32905E+01 7.65160E+01 1.89329E+01 7.09130E+01 4.36088E-08-5.82750E-08
 -1        52-6.55118E+00-3.70928E+00-3.14561E+00 1.12032E+02 3.01855E-08-3.83980E-08
 -1        53-1.01789E+02-5.34591E+02-1.91348E+02 5.97966E+01 2.67713E-08-1.71938E-08
 -1        54-4.38298E+02-1.74150E+03-6.57497E+02-1.86627E+02 1.33267E-08 1.39284E-08
 -1        55-1.06760E+03-3.57390E+03-1.40737E+03-6.65056E+02-3.32226E-09 2.58690E-08
 -1        56-1.90527E+03-5.68978E+03-2.31724E+03-1.28632E+03-1.17940E-08 3.28833E-08
 -1        57-2.70390E+03-7.61440E+03-3.16624E+03-1.88515E+03 7.99563E-10 1.48256E-08
 -1        58-3.30180E+03-9.06021E+03-3.80943E+03-2.30496E+03 2.46856E-08 1.54870E-08
 -1        59-3.63380E+03-1.00034E+04-4.21292E+03-2.50024E+03 3.65065E-08 4.75951E-08
 -1        60-3.78251E+03-1.06723E+04-4.47222E+03-2.51931E+03 2.29355E-08 9.93711E-08
 -1        61-3.83778E+03-1.13434E+04-4.70432E+03-2.45778E+03-5.00282E-09 1.30379E-07
 -1        62-3.93437E+03-1.22047E+04-5.01243E+03-2.37740E+03-3.15758E-08 1.28182E-07
 -1        63-4.07894E+03-1.31970E+04-5.38003E+03-2.29421E+03-4.03360E-08 8.39214E-08
 -1        64-4.23669E+03-1.41691E+04-5.74635E+03-2.16949E+03-2.52933E-08 3.15240E-08
 -1        65-4.34092E+03-1.50807E+04-6.07702E+03-1.96074E+03-3.52418E-09 2.06502E-08
 -1        66-4.49418E+03-1.61429E+04-6.47458E+03-1.65945E+03 4.18340E-09 3.85109E-08
 -1        67-4.68239E+03-1.74588E+04-6.97206E+03-1.27419E+03 6.64713E-10 5.82957E-08
 -1        68-5.32494E+03-1.92087E+04-7.76233E+03-9.39919E+02-8.19363E-09 5.04167E-08
 -1        69-4.15537E+03-1.95850E+04-7.53201E+03 7.77820E+01-1.08959E-08 2.28218E-08
 -1        70-1.32905E+01 7.65160E+01 1.89329E+01 7.09130E+01 4.36042E-08-5.82746E-08
 -1        71-6.55118E+00-3.70928E+00-3.14561E+00 1.12032E+02 3.01851E-08-3.84044E-08
 -1        72-1.01789E+02-5.34591E+02-1.91348E+02 5.97966E+01 2.67713E-08-1.71953E-08
 -1        73-4.38298E+02-1.74150E+03-6.57497E+02-1.86627E+02 1.33265E-08 1.39286E-08
 -1        74-1.06760E+03-3.57390E+03-1.40737E+03-6.65056E+02-3.32273E-09 2.58671E-08
 -1        75-1.90527E+03-5.68978E+03-2.31724E+03-1.28632E+03-1.17935E-08 3.28831E-08
 -1        76-2.70390E+03-7.61440E+03-3.16624E+03-1.88515E+03 7.99205E-10 1.48243E-08
 -1        77-3.30180E+03-9.06021E+03-3.80943E+03-2.30496E+03 2.46891E-08 1.54869E-08
 -1        78-3.63380E+03-1.00034E+04-4.21292E+03-2.50024E+03 3.65054E-08 4.75951E-08
 -1        79-3.78251E+03-1.06723E+04-4.47222E+03-2.51931E+03 2.29332E-08 9.93780E-08
 -1        80-3.83778E+03-1.13434E+04-4.70432E+03-2.45778E+03-5.00057E-09 1.30377E-07
 -1        81-3.93437E+03-1.22047E+04-5.01243E+03-2.37740E+03-3.15741E-08 1.28183E-07
 -1        82-4.07894E+03-1.31970E+04-5.38003E+03-2.29421E+03-4.03370E-08 8.39200E-08
 -1        83-4.23669E+03-1.41691E+04-5.74635E+03-2.16949E+03-2.52933E-08 3.15230E-08
 -1        84-4.34092E+03-1.50807E+04-6.07702E+03-1.96074E+03-3.52411E-09 2.06533E-08
 -1        85-4.49418E+03-1.61429E+04-6.47458E+03-1.65945E+03 4.18330E-09 3.85074E-08
 -1        86-4.68239E+03-1.74588E+04-6.97206E+03-1.27419E+03 6.64635E-10 5.82961E-08
 -1        87-5.32494E+03-1.92087E+04-7.76233E+03-9.39919E+02-8.19363E-09 5.04167E-08
 -1        88-4.15537E+03-1.95850E+04-7.53201E+03 7.77820E+01-1.08959E-08 2.28218E-08
 -1        89-1.42741E+02-8.20671E+02-2.57401E+02 1.39462E+02 1.66318E-09 2.24376E-08
 -1        90-1.68343E+02-7.45644E+02-2.20571E+02 4.52975E+02 3.22609E-09 5.38422E-08
 -1        91-9.20184E+01-6.68464E+02-1.85742E+02 3.58940E+02 3.05005E-09 5.71639E-08
 -1        92-8.31285E+01-5.95767E+02-1.65723E+02 2.73278E+02 8.82176E-10 3.28517E-08
 -1        93-8.19162E+01-5.23679E+02-1.48948E+02 1.96976E+02 2.93712E-09 2.07077E-08
 -1        94-8.54218E+01-4.92107E+02-1.44914E+02 1.89742E+02 3.02613E-09 3.63880E-08
 -1        95-3.11921E+01-4.53998E+02-1.20315E+02 2.00503E+02-1.16324E-08 9.26104E-08
 -1        96-1.84322E+01-4.06170E+02-1.04679E+02 1.84644E+02-2.31477E-08 1.35495E-07
 -1        97-2.89926E+01-3.35605E+02-8.90850E+01 1.43601E+02-2.14831E-08 1.27446E-07
 -1        98-4.90684E+01-2.99263E+02-8.68278E+01 1.29370E+02-9.56125E-09 8.56382E-08
 -1        99 2.69912E+01-3.04279E+02-6.84514E+01 1.73105E+02 7.63611E-09 3.29454E-08
 -1       100 1.53169E+02-3.70913E+02-5.42844E+01 2.90365E+02 1.30594E-08 2.67536E-09
 -1       101 3.15751E+02-4.40063E+02-3.03494E+01 4.32912E+02 4.26985E-09 1.34807E-08
 -1       102 4.19955E+02-4.69786E+02-1.16355E+01 5.29305E+02-9.05211E-09 2.79955E-08
 -1       103 4.42969E+02-3.96297E+02 1.49926E+01 5.13107E+02-1.12321E-08 2.55563E-08
 -1       104 3.26568E+02-2.53952E+02 2.17525E+01 4.03447E+02-2.37255E-09 6.03756E-09
 -1       105 1.58546E+02-9.15491E+01 1.99090E+01 2.53920E+02 1.07616E-08-2.21933E-08
 -1       106 1.36514E+01 1.01294E+01 7.04853E+00 1.29066E+02 2.03569E-08-4.26101E-08
 -1       107-4.12990E+01 3.57062E+01-1.69776E+00 5.36632E+01 2.71119E-08-6.76041E-08
 -1       108-4.12990E+01 3.57062E+01-1.69776E+00 5.36632E+01 2.71142E-08-6.76050E-08
 -1       109 1.36514E+01 1.01294E+01 7.04853E+00 1.29066E+02 2.03570E-08-4.25981E-08
 -1       110 1.58546E+02-9.15491E+01 1.99090E+01 2.53920E+02 1.07613E-08-2.21906E-08
 -1       111 3.26568E+02-2.53952E+02 2.17525E+01 4.03447E+02-2.37220E-09 6.04412E-09
 -1       112 4.42969E+02-3.96297E+02 1.49926E+01 5.13107E+02-1.12313E-08 2.55579E-08
 -1       113 4.19955E+02-4.69786E+02-1.16355E+01 5.29305E+02-9.05311E-09 2.79956E-08
 -1       114 3.15751E+02-4.40063E+02-3.03494E+01 4.32912E+02 4.27061E-09 1.34829E-08
 -1       115 1.53169E+02-3.70913E+02-5.42844E+01 2.90365E+02 1.30584E-08 2.67629E-09
 -1       116 2.69912E+01-3.04279E+02-6.84514E+01 1.73105E+02 7.63704E-09 3.29419E-08
 -1       117-4.90684E+01-2.99263E+02-8.68278E+01 1.29370E+02-9.56138E-09 8.56407E-08
 -1       118-2.89926E+01-3.35605E+02-8.90850E+01 1.43601E+02-2.14835E-08 1.27446E-07
 -1       119-1.84322E+01-4.06170E+02-1.04679E+02 1.84644E+02-2.31479E-08 1.35495E-07
 -1       120-3.11921E+01-4.53998E+02-1.20315E+02 2.00503E+02-1.16321E-08 9.26104E-08
 -1       121-8.54218E+01-4.92107E+02-1.44914E+02 1.89742E+02 3.02624E-09 3.63868E-08
 -1       122-8.19162E+01-5.23679E+02-1.48948E+02 1.96976E+02 2.93709E-09 2.07092E-08
 -1       123-8.31285E+01-5.95767E+02-1.65723E+02 2.73278E+02 8.82316E-10 3.28503E-08
 -1       124-9.20184E+01-6.68464E+02-1.85742E+02 3.58940E+02 3.05013E-09 5.71641E-08
 -1       125-1.68343E+02-7.45644E+02-2.20571E+02 4.52975E+02 3.22610E-09 5.38421E-08
 -1       126-1.42741E+02-8.20671E+02-2.57401E+02 1.39462E+02 1.66318E-09 2.24376E-08
 -3
    1PSTEP                       299          75           1          
  100CL  175 7.50000E-01         126                     1   75           1
 -4  TOSTRAIN    6    1
 -5  EXX         1    4    1    1
 -5  EYY         1    4    2    2
 -5  EZZ         1    4    3    3
 -5  EXY         1    4    1    2
 -5  EYZ         1    4    2    3
 -5  EZX         1    4    3    1
 -1         1-1.59188E-04 4.20753E-02-3.45111E-27 1.55233E-02-5.11234E-19 5.70250E-16
 -1         2-1.59188E-04 4.20753E-02-3.45111E-27 1.55233E-02-5.11234E-19 5.70250E-16
 -1         3-1.46590E-04 8.31400E-05 1.80563E-25-4.91344E-05-5.38231E-14-2.96985E-13
 -1         4-1.46590E-04 8.31400E-05 1.80563E-25-4.91344E-05-5.38227E-14-2.96985E-13
 -1         5-1.24670E-04 1.85200E-04 2.13709E-25-1.37721E-05 7.58801E-14-3.22493E-13
 -1         6-1.24670E-04 1.85200E-04 2.13714E-25-1.37721E-05 7.58874E-14-3.22497E-13
 -1         7-1.58749E-04-4.23451E-02-2.21843E-27 1.41746E-02 3.22122E-19-3.99561E-16
 -1         8-1.58749E-04-4.23451E-02-2.21843E-27 1.41746E-02 3.22122E-19-3.99561E-16
 -1         9-1.35630E-04 1.41956E-04 1.97038E-25-4.25515E-05-1.77294E-14-3.16359E-13
 -1        10-1.35630E-04 1.41956E-04 1.97036E-25-4.25515E-05-1.77295E-14-3.16357E-13
 -1        11-1.58969E-04-9.99249E-04-1.65169E-27 9.30901E-03-1.74773E-19 5.43106E-17
 -1        12-1.58969E-04-9.99249E-04-1.65169E-27 9.30901E-03-1.74773E-19 5.43106E-17
 -1        13-1.16240E-02 4.19778E-02 1.75700E-26 2.65438E-03 6.19890E-14 8.45584E-14
 -1        14-9.04046E-03 4.01250E-02 6.66867E-26 8.44094E-04 6.39288E-14 1.73214E-13
 -1        15-8.53639E-03 3.69268E-02 5.80195E-26 1.08345E-03 2.89057E-14 1.68585E-13
 -1        16-7.84811E-03 3.43308E-02 1.49209E-26 8.34327E-04 8.16146E-15 8.91411E-14
 -1        17-7.42564E-03 3.23117E-02 1.77215E-26 6.78888E-04 3.86183E-14 8.82645E-14
 -1        18-7.12018E-03 3.05841E-02 3.33400E-26 6.45459E-04 9.64229E-14 1.08113E-13
 -1        19-6.62756E-03 2.87647E-02 1.96660E-25 6.77110E-04 1.27217E-13 2.96196E-13
 -1        20-6.18062E-03 2.69149E-02 3.62494E-25 6.45655E-04 7.53695E-14 4.19248E-13
 -1        21-5.82953E-03 2.53566E-02 3.06428E-25 5.28380E-04 8.74242E-16 3.92600E-13
 -1        22-5.64246E-03 2.41570E-02 1.28373E-25 4.54503E-04-5.42935E-14 2.59002E-13
 -1        23-5.32417E-03 2.28893E-02 9.72849E-27 5.94039E-04-5.85440E-14 8.44428E-14
 -1        24-4.88833E-03 2.08557E-02-2.64213E-27 9.79474E-04-3.49664E-15 2.60740E-15
 -1        25-4.15754E-03 1.75558E-02 5.80760E-27 1.43389E-03 3.48229E-14 4.51259E-14
 -1        26-3.18927E-03 1.30938E-02 9.15064E-27 1.69858E-03 1.66706E-14 6.76597E-14
 -1        27-2.02720E-03 8.26165E-03 1.28010E-26 1.61093E-03-2.00865E-14 8.21050E-14
 -1        28-1.10345E-03 4.15598E-03 3.12371E-27 1.20102E-03-5.62379E-14 5.34894E-15
 -1        29-5.33862E-04 1.52229E-03 1.30587E-26 6.52733E-04-6.34496E-14-6.77819E-14
 -1        30-3.11822E-04 3.56808E-04 6.49974E-26 2.08242E-04-7.11975E-14-1.72230E-13
 -1        31-2.06234E-04 8.66162E-05 1.22898E-25-2.59470E-06-7.20070E-14-2.39823E-13
 -1        32-1.16240E-02 4.19778E-02 1.75700E-26 2.65438E-03 6.19890E-14 8.45584E-14
 -1        33-9.04046E-03 4.01250E-02 6.66867E-26 8.44094E-04 6.39287E-14 1.73214E-13
 -1        34-8.53639E-03 3.69268E-02 5.80193E-26 1.08345E-03 2.89057E-14 1.68584E-13
 -1        35-7.84811E-03 3.43308E-02 1.49223E-26 8.34327E-04 8.16216E-15 8.91445E-14
 -1        36-7.42564E-03 3.23117E-02 1.77204E-26 6.78888E-04 3.86175E-14 8.82612E-14
 -1        37-7.12018E-03 3.05841E-02 3.33406E-26 6.45459E-04 9.64225E-14 1.08115E-13
 -1        38-6.62756E-03 2.87647E-02 1.96663E-25 6.77110E-04 1.27220E-13 2.96197E-13
 -1        39-6.18062E-03 2.69149E-02 3.62494E-25 6.45655E-04 7.53695E-14 4.19248E-13
 -1        40-5.82953E-03 2.53566E-02 3.06430E-25 5.28380E-04 8.74560E-16 3.92602E-13
 -1        41-5.64246E-03 2.41570E-02 1.28366E-25 4.54503E-04-5.42947E-14 2.58996E-13
 -1        42-5.32417E-03 2.28893E-02 9.73034E-27 5.94039E-04-5.85425E-14 8.44486E-14
 -1        43-4.88833E-03 2.08557E-02-2.64258E-27 9.79474E-04-3.49669E-15 2.60570E-15
 -1        44-4.15754E-03 1.75558E-02 5.80928E-27 1.43389E-03 3.48252E-14 4.51338E-14
 -1        45-3.18927E-03 1.30938E-02 9.15306E-27 1.69858E-03 1.66741E-14 6.76671E-14
 -1        46-2.02720E-03 8.26165E-03 1.28013E-26 1.61093E-03-2.00851E-14 8.21079E-14
 -1        47-1.10345E-03 4.15598E-03 3.12246E-27 1.20102E-03-5.62429E-14 5.33801E-15
 -1        48-5.33862E-04 1.52229E-03 1.30590E-26 6.52733E-04-6.34487E-14-6.77823E-14
 -1        49-3.11822E-04 3.56808E-04 6.49984E-26 2.08242E-04-7.11961E-14-1.72231E-13
 -1        50-2.06234E-04 8.66162E-05 1.22895E-25-2.59470E-06-7.20203E-14-2.39817E-13
 -1        51-2.28704E-04 3.10765E-04 1.08289E-25 4.02408E-05 5.00837E-14-2.31234E-13
 -1        52-2.85539E-04 2.71924E-04 4.82757E-26 2.34523E-04 3.72673E-14-1.54360E-13
 -1        53-1.00954E-04-7.27199E-04 1.76587E-26 6.61485E-04 5.59560E-14-8.71147E-14
 -1        54 4.37014E-04-3.27796E-03 4.08936E-27 1.20935E-03 5.84336E-14 2.31581E-14
 -1        55 1.33300E-03-7.39988E-03 1.32497E-26 1.63178E-03 2.48072E-14 8.11983E-14
 -1        56 2.38448E-03-1.23466E-02 2.46183E-26 1.70913E-03 7.66250E-15 1.13507E-13
 -1        57 3.39874E-03-1.69767E-02 2.84507E-27 1.42943E-03 2.14090E-14 4.35005E-14
 -1        58 4.12255E-03-2.04266E-02 1.53726E-26 9.83428E-04 9.57677E-14 1.71178E-14
 -1        59 4.54450E-03-2.25523E-02 7.04772E-26 6.10489E-04 1.70393E-13 1.04015E-13
 -1        60 4.77027E-03-2.38698E-02 2.13090E-25 4.57547E-04 1.81647E-13 2.82138E-13
 -1        61 5.04386E-03-2.51189E-02 3.55982E-25 5.19910E-04 1.16567E-13 4.10510E-13
 -1        62 5.38608E-03-2.67533E-02 3.61769E-25 6.56252E-04 1.74336E-14 4.30637E-13
 -1        63 5.78756E-03-2.86934E-02 1.71570E-25 7.05880E-04-6.12411E-14 2.98361E-13
 -1        64 6.14292E-03-3.05781E-02 2.61888E-26 6.57462E-04-5.99856E-14 1.18764E-13
 -1        65 6.51638E-03-3.23290E-02 7.56068E-27 6.74164E-04 1.82148E-15 6.84125E-14
 -1        66 6.90725E-03-3.43707E-02 3.05129E-26 8.48513E-04 3.51709E-14 1.22013E-13
 -1        67 7.51402E-03-3.70379E-02 7.06876E-26 1.13893E-03 2.70368E-14 1.88758E-13
 -1        68 7.71586E-03-4.04910E-02 5.28294E-26 8.65407E-04-1.35239E-14 1.66663E-13
 -1        69 1.05261E-02-4.23976E-02 1.08461E-26 2.60514E-03-3.45492E-14 7.60565E-14
 -1        70-2.28704E-04 3.10765E-04 1.08279E-25 4.02408E-05 5.00708E-14-2.31226E-13
 -1        71-2.85539E-04 2.71924E-04 4.82858E-26 2.34523E-04 3.72572E-14-1.54379E-13
 -1        72-1.00954E-04-7.27199E-04 1.76595E-26 6.61485E-04 5.59538E-14-8.71190E-14
 -1        73 4.37014E-04-3.27796E-03 4.08986E-27 1.20935E-03 5.84333E-14 2.31589E-14
 -1        74 1.33300E-03-7.39988E-03 1.32481E-26 1.63178E-03 2.48033E-14 8.11934E-14
 -1        75 2.38448E-03-1.23466E-02 2.46177E-26 1.70913E-03 7.66375E-15 1.13506E-13
 -1        76 3.39874E-03-1.69767E-02 2.84416E-27 1.42943E-03 2.14062E-14 4.34968E-14
 -1        77 4.12255E-03-2.04266E-02 1.53764E-26 9.83428E-04 9.57783E-14 1.71135E-14
 -1        78 4.54450E-03-2.25523E-02 7.04761E-26 6.10489E-04 1.70390E-13 1.04016E-13
 -1        79 4.77027E-03-2.38698E-02 2.13119E-25 4.57547E-04 1.81647E-13 2.82162E-13
 -1        80 5.04386E-03-2.51189E-02 3.55972E-25 5.19910E-04 1.16572E-13 4.10500E-13
 -1        81 5.38608E-03-2.67533E-02 3.61769E-25 6.56252E-04 1.74398E-14 4.30638E-13
 -1        82 5.78756E-03-2.86934E-02 1.71565E-25 7.05880E-04-6.12455E-14 2.98357E-13
 -1        83 6.14292E-03-3.05781E-02 2.61875E-26 6.57462E-04-5.99862E-14 1.18760E-13
 -1        84 6.51638E-03-3.23290E-02 7.56389E-27 6.74164E-04 1.82369E-15 6.84223E-14
 -1        85 6.90725E-03-3.43707E-02 3.05074E-26 8.48513E-04 3.51687E-14 1.22002E-13
 -1        86 7.51402E-03-3.70379E-02 7.06884E-26 1.13893E-03 2.70368E-14 1.88760E-13
 -1        87 7.71586E-03-4.04910E-02 5.28295E-26 8.65407E-04-1.35239E-14 1.66663E-13
 -1        88 1.05261E-02-4.23976E-02 1.08461E-26 2.60514E-03-3.45492E-14 7.60565E-14
 -1        89-5.48907E-04-7.50578E-04 7.34675E-27 5.41989E-04 8.38513E-15 7.26677E-14
 -1        90-6.62300E-04-4.95033E-04 5.93233E-26 1.61341E-03 2.52301E-14 1.73549E-13
 -1        91-5.11186E-04-4.57353E-04 6.82350E-26 1.36075E-03 3.28528E-14 1.83161E-13
 -1        92-4.70430E-04-3.89947E-04 2.14304E-26 1.10478E-03 1.99211E-14 1.04945E-13
 -1        93-4.54630E-04-3.16238E-04 8.51839E-27 8.63146E-04 2.23367E-14 6.42671E-14
 -1        94-4.88629E-04-2.51126E-04 1.97996E-26 8.42164E-04 3.57909E-14 1.13135E-13
 -1        95-4.20001E-04-2.00415E-04 1.72032E-25 9.03191E-04 3.86171E-14 3.00943E-13
 -1        96-3.97273E-04-1.42928E-04 3.95885E-25 8.43521E-04 4.96520E-14 4.44080E-13
 -1        97-3.92835E-04-6.97810E-05 3.48736E-25 6.68447E-04 5.84662E-14 4.16047E-13
 -1        98-4.36096E-04-9.10241E-06 1.43392E-25 5.81597E-04 6.10666E-14 2.73343E-13
 -1        99-3.89835E-04 3.14837E-05 1.25330E-26 7.77348E-04 6.03440E-14 9.17102E-14
 -1       100-3.82890E-04 9.66544E-05 9.37201E-28 1.27039E-03 4.25166E-14-7.65299E-15
 -1       101-3.79399E-04 2.11686E-04 3.23519E-27 1.86121E-03 2.95804E-14 3.49709E-14
 -1       102-4.02398E-04 3.31571E-04 1.74511E-26 2.22824E-03 9.34330E-15 9.51290E-14
 -1       103-3.47097E-04 4.03559E-04 1.55309E-26 2.12550E-03 6.59446E-16 9.07480E-14
 -1       104-3.33219E-04 4.25190E-04-2.71697E-27 1.57112E-03 1.10046E-15 2.10535E-14
 -1       105-3.17408E-04 4.03370E-04 9.06508E-27 8.46390E-04 1.81255E-15-8.01641E-14
 -1       106-2.98681E-04 3.29216E-04 4.39609E-26 2.78306E-04 2.53712E-15-1.53499E-13
 -1       107-2.17469E-04 2.10113E-04 1.08727E-25 1.93703E-05-1.12557E-14-2.36508E-13
 -1       108-2.17469E-04 2.10113E-04 1.08732E-25 1.93703E-05-1.12501E-14-2.36514E-13
 -1       109-2.98681E-04 3.29216E-04 4.39413E-26 2.78306E-04 2.55355E-15-1.53464E-13
 -1       110-3.17408E-04 4.03370E-04 9.06345E-27 8.46390E-04 1.81531E-15-8.01556E-14
 -1       111-3.33219E-04 4.25190E-04-2.71557E-27 1.57112E-03 1.11028E-15 2.10725E-14
 -1       112-3.47097E-04 4.03559E-04 1.55333E-26 2.12550E-03 6.64158E-16 9.07518E-14
 -1       113-4.02398E-04 3.31571E-04 1.74519E-26 2.22824E-03 9.34048E-15 9.51306E-14
 -1       114-3.79399E-04 2.11686E-04 3.23669E-27 1.86121E-03 2.95855E-14 3.49766E-14
 -1       115-3.82890E-04 9.66544E-05 9.37453E-28 1.27039E-03 4.25146E-14-7.64897E-15
 -1       116-3.89835E-04 3.14837E-05 1.25300E-26 7.77348E-04 6.03429E-14 9.16986E-14
 -1       117-4.36096E-04-9.10241E-06 1.43402E-25 5.81597E-04 6.10688E-14 2.73351E-13
 -1       118-3.92835E-04-6.97810E-05 3.48739E-25 6.68447E-04 5.84651E-14 4.16048E-13
 -1       119-3.97273E-04-1.42928E-04 3.95884E-25 8.43521E-04 4.96509E-14 4.44079E-13
 -1       120-4.20001E-04-2.00415E-04 1.72031E-25 9.03191E-04 3.86180E-14 3.00943E-13
 -1       121-4.88629E-04-2.51126E-04 1.97973E-26 8.42164E-04 3.57904E-14 1.13131E-13
 -1       122-4.54630E-04-3.16238E-04 8.52005E-27 8.63146E-04 2.23375E-14 6.42720E-14
 -1       123-4.70430E-04-3.89947E-04 2.14286E-26 1.10478E-03 1.99209E-14 1.04940E-13
 -1       124-5.11186E-04-4.57353E-04 6.82352E-26 1.36075E-03 3.28531E-14 1.83161E-13
 -1       125-6.62300E-04-4.95033E-04 5.93231E-26 1.61341E-03 2.52301E-14 1.73548E-13
 -1       126-5.48907E-04-7.50578E-04 7.34678E-27 5.41989E-04 8.38513E-15 7.26678E-14
 -3
    1PSTEP                       300          75           1          
  100CL  175 7.50000E-01         126                     1   75           1
 -4  ERROR       1    1
 -5  STR(%)      1    1    0    0
 -1         1 6.36276E+01
 -1         2 6.36276E+01
 -1         3 2.08854E+01
 -1         4 2.08854E+01
 -1         5 3.55370E+01
 -1         6 3.55370E+01
 -1         7 5.82151E+01
 -1         8 5.82151E+01
 -1         9 3.55370E+01
 -1        10 3.55370E+01
 -1        11 6.36276E+01
 -1        12 6.36276E+01
 -1        13 6.36276E+01
 -1        14 6.31226E+01
 -1        15 6.31226E+01
 -1        16 6.29199E+01
 -1        17 6.25138E+01
 -1        18 6.23497E+01
 -1        19 6.22912E+01
 -1        20 6.22912E+01
 -1        21 6.19856E+01
 -1        22 6.16306E+01
 -1        23 6.18267E+01
 -1        24 6.22060E+01
 -1        25 6.22060E+01
 -1        26 6.15143E+01
 -1        27 5.78909E+01
 -1        28 5.04134E+01
 -1        29 3.64060E+01
 -1        30 2.69857E+01
 -1        31 2.69857E+01
 -1        32 6.36276E+01
 -1        33 6.31226E+01
 -1        34 6.31226E+01
 -1        35 6.29199E+01
 -1        36 6.25138E+01
 -1        37 6.23497E+01
 -1        38 6.22912E+01
 -1        39 6.22912E+01
 -1        40 6.19856E+01
 -1        41 6.16306E+01
 -1        42 6.18267E+01
 -1        43 6.22060E+01
 -1        44 6.22060E+01
 -1        45 6.15143E+01
 -1        46 5.78909E+01
 -1        47 5.04134E+01
 -1        48 3.64060E+01
 -1        49 2.69857E+01
 -1        50 2.69857E+01
 -1        51 3.55370E+01
 -1        52 3.62591E+01
 -1        53 4.14767E+01
 -1        54 5.49409E+01
 -1        55 6.11272E+01
 -1        56 6.25961E+01
 -1        57 6.25961E+01
 -1        58 6.16402E+01
 -1        59 6.03171E+01
 -1        60 5.95865E+01
 -1        61 5.94204E+01
 -1        62 5.94204E+01
 -1        63 5.93302E+01
 -1        64 5.90716E+01
 -1        65 5.87402E+01
 -1        66 5.88564E+01
 -1        67 5.88639E+01
 -1        68 5.88639E+01
 -1        69 5.87158E+01
 -1        70 3.55370E+01
 -1        71 3.62591E+01
 -1        72 4.14767E+01
 -1        73 5.49409E+01
 -1        74 6.11272E+01
 -1        75 6.25961E+01
 -1        76 6.25961E+01
 -1        77 6.16402E+01
 -1        78 6.03171E+01
 -1        79 5.95865E+01
 -1        80 5.94204E+01
 -1        81 5.94204E+01
 -1        82 5.93302E+01
 -1        83 5.90716E+01
 -1        84 5.87402E+01
 -1        85 5.88564E+01
 -1        86 5.88639E+01
 -1        87 5.88639E+01
 -1        88 5.87158E+01
 -1        89 6.36276E+01
 -1        90 6.31226E+01
 -1        91 6.31226E+01
 -1        92 6.29199E+01
 -1        93 6.25138E+01
 -1        94 6.23497E+01
 -1        95 6.22912E+01
 -1        96 6.22912E+01
 -1        97 6.19856E+01
 -1        98 6.16306E+01
 -1        99 6.18267E+01
 -1       100 6.22060E+01
 -1       101 6.25961E+01
 -1       102 6.25961E+01
 -1       103 6.11272E+01
 -1       104 5.49409E+01
 -1       105 4.14767E+01
 -1       106 3.62591E+01
 -1       107 3.55370E+01
 -1       108 3.55370E+01
 -1       109 3.62591E+01
 -1       110 4.14767E+01
 -1       111 5.49409E+01
 -1       112 6.11272E+01
 -1       113 6.25961E+01
 -1       114 6.25961E+01
 -1       115 6.22060E+01
 -1       116 6.18267E+01
 -1       117 6.16306E+01
 -1       118 6.19856E+01
 -1       119 6.22912E+01
 -1       120 6.22912E+01
 -1       121 6.23497E+01
 -1       122 6.25138E+01
 -1       123 6.29199E+01
 -1       124 6.31226E+01
 -1       125 6.31226E+01
 -1       126 6.36276E+01
 -3
    1PSTEP                       301          76           1          
  100CL  176 7.60000E-01         126                     1   76           1
 -4  DISP        4    1
 -5  D1          1    2    1    0
 -5  D2          1    2    2    0
 -5  D3          1    2    3    0
 -5  ALL         1    2    0    0    1ALL
 -1         1 0.00000E+00 0.00000E+00 0.00000E+00
 -1         2 0.00000E+00 0.00000E+00 0.00000E+00
 -1         3 2.99400E-01-3.24807E-02 0.00000E+00
 -1         4 2.99400E-01-3.24807E-02 0.00000E+00
 -1         5 2.90139E-01-7.44755E-02 0.00000E+00
 -1         6 2.90139E-01-7.44755E-02 0.00000E+00
 -1         7 0.00000E+00 0.00000E+00 0.00000E+00
 -1         8 0.00000E+00 0.00000E+00 0.00000E+00
 -1         9 2.94772E-01-5.34763E-02 0.00000E+00
 -1        10 2.94772E-01-5.34763E-02 0.00000E+00
 -1        11 0.00000E+00 0.00000E+00 0.00000E+00
 -1        12 0.00000E+00 0.00000E+00 0.00000E+00
 -1        13 1.53482E-03 2.04123E-03 0.00000E+00
 -1        14 4.88892E-03 4.00876E-03 0.00000E+00
 -1        15 1.03960E-02 5.66447E-03 0.00000E+00
 -1        16 1.78631E-02 6.96787E-03 0.00000E+00
 -1        17 2.71618E-02 7.86089E-03 0.00000E+00
 -1        18 3.81568E-02 8.30984E-03 0.00000E+00
 -1        19 5.07171E-02 8.29328E-03 0.00000E+00
 -1        20 6.47423E-02 7.78538E-03 0.00000E+00
 -1        21 8.01061E-02 6.76749E-03 0.00000E+00
 -1        22 9.66677E-02 5.24290E-03 0.00000E+00
 -1        23 1.14291E-01 3.24410E-03 0.00000E+00
 -1        24 1.32910E-01 7.88966E-04 0.00000E+00
 -1        25 1.52467E-01-2.14171E-03 0.00000E+00
 -1        26 1.72841E-01-5.58701E-03 0.00000E+00
 -1        27 1.93787E-01-9.53436E-03 0.00000E+00
 -1        28 2.15012E-01-1.38905E-02 0.00000E+00
 -1        29 2.36261E-01-1.84945E-02 0.00000E+00
 -1        30 2.57399E-01-2.31848E-02 0.00000E+00
 -1        31 2.78417E-01-2.78529E-02 0.00000E+00
 -1        32 1.53482E-03 2.04123E-03 0.00000E+00
 -1        33 4.88892E-03 4.00876E-03 0.00000E+00
 -1        34 1.03960E-02 5.66447E-03 0.00000E+00
 -1        35 1.78631E-02 6.96787E-03 0.00000E+00
 -1        36 2.71618E-02 7.86089E-03 0.00000E+00
 -1        37 3.81568E-02 8.30984E-03 0.00000E+00
 -1        38 5.07171E-02 8.29328E-03 0.00000E+00
 -1        39 6.47423E-02 7.78538E-03 0.00000E+00
 -1        40 8.01061E-02 6.76749E-03 0.00000E+00
 -1        41 9.66677E-02 5.24290E-03 0.00000E+00
 -1        42 1.14291E-01 3.24410E-03 0.00000E+00
 -1        43 1.32910E-01 7.88966E-04 0.00000E+00
 -1        44 1.52467E-01-2.14171E-03 0.00000E+00
 -1        45 1.72841E-01-5.58701E-03 0.00000E+00
 -1        46 1.93787E-01-9.53436E-03 0.00000E+00
 -1        47 2.15012E-01-1.38905E-02 0.00000E+00
 -1        48 2.36261E-01-1.84945E-02 0.00000E+00
 -1        49 2.57399E-01-2.31848E-02 0.00000E+00
 -1        50 2.78417E-01-2.78529E-02 0.00000E+00
 -1        51 2.69130E-01-6.98786E-02 0.00000E+00
 -1        52 2.48058E-01-6.52983E-02 0.00000E+00
 -1        53 2.26890E-01-6.06596E-02 0.00000E+00
 -1        54 2.05711E-01-5.58930E-02 0.00000E+00
 -1        55 1.84732E-01-5.09912E-02 0.00000E+00
 -1        56 1.64234E-01-4.60287E-02 0.00000E+00
 -1        57 1.44485E-01-4.11444E-02 0.00000E+00
 -1        58 1.25646E-01-3.64735E-02 0.00000E+00
 -1        59 1.07779E-01-3.20919E-02 0.00000E+00
 -1        60 9.09142E-02-2.80052E-02 0.00000E+00
 -1        61 7.51332E-02-2.41941E-02 0.00000E+00
 -1        62 6.05569E-02-2.06496E-02 0.00000E+00
 -1        63 4.73096E-02-1.73770E-02 0.00000E+00
 -1        64 3.54896E-02-1.43730E-02 0.00000E+00
 -1        65 2.51922E-02-1.16150E-02 0.00000E+00
 -1        66 1.65151E-02-9.06419E-03 0.00000E+00
 -1        67 9.57581E-03-6.67608E-03 0.00000E+00
 -1        68 4.46793E-03-4.40269E-03 0.00000E+00
 -1        69 1.39232E-03-2.14746E-03 0.00000E+00
 -1        70 2.69130E-01-6.98786E-02 0.00000E+00
 -1        71 2.48058E-01-6.52983E-02 0.00000E+00
 -1        72 2.26890E-01-6.06596E-02 0.00000E+00
 -1        73 2.05711E-01-5.58930E-02 0.00000E+00
 -1        74 1.84732E-01-5.09912E-02 0.00000E+00
 -1        75 1.64234E-01-4.60287E-02 0.00000E+00
 -1        76 1.44485E-01-4.11444E-02 0.00000E+00
 -1        77 1.25646E-01-3.64735E-02 0.00000E+00
 -1        78 1.07779E-01-3.20919E-02 0.00000E+00
 -1        79 9.09142E-02-2.80052E-02 0.00000E+00
 -1        80 7.51332E-02-2.41941E-02 0.00000E+00
 -1        81 6.05569E-02-2.06496E-02 0.00000E+00
 -1        82 4.73096E-02-1.73770E-02 0.00000E+00
 -1        83 3.54896E-02-1.43730E-02 0.00000E+00
 -1        84 2.51922E-02-1.16150E-02 0.00000E+00
 -1        85 1.65151E-02-9.06419E-03 0.00000E+00
 -1        86 9.57581E-03-6.67608E-03 0.00000E+00
 -1        87 4.46793E-03-4.40269E-03 0.00000E+00
 -1        88 1.39232E-03-2.14746E-03 0.00000E+00
 -1        89 9.12283E-04-4.02861E-05 0.00000E+00
 -1        90 4.25471E-03-1.58671E-04 0.00000E+00
 -1        91 9.57210E-03-4.50640E-04 0.00000E+00
 -1        92 1.68050E-02-9.83140E-04 0.00000E+00
 -1        93 2.58183E-02-1.80428E-03 0.00000E+00
 -1        94 3.64882E-02-2.95175E-03 0.00000E+00
 -1        95 4.87031E-02-4.45719E-03 0.00000E+00
 -1        96 6.23638E-02-6.34566E-03 0.00000E+00
 -1        97 7.73599E-02-8.62765E-03 0.00000E+00
 -1        98 9.35547E-02-1.12966E-02 0.00000E+00
 -1        99 1.10819E-01-1.43408E-02 0.00000E+00
 -1       100 1.29079E-01-1.77613E-02 0.00000E+00
 -1       101 1.48302E-01-2.15679E-02 0.00000E+00
 -1       102 1.68403E-01-2.57458E-02 0.00000E+00
 -1       103 1.89176E-01-3.02219E-02 0.00000E+00
 -1       104 2.10325E-01-3.48731E-02 0.00000E+00
 -1       105 2.31572E-01-3.95738E-02 0.00000E+00
 -1       106 2.52738E-01-4.42437E-02 0.00000E+00
 -1       107 2.73781E-01-4.88662E-02 0.00000E+00
 -1       108 2.73781E-01-4.88662E-02 0.00000E+00
 -1       109 2.52738E-01-4.42437E-02 0.00000E+00
 -1       110 2.31572E-01-3.95738E-02 0.00000E+00
 -1       111 2.10325E-01-3.48731E-02 0.00000E+00
 -1       112 1.89176E-01-3.02219E-02 0.00000E+00
 -1       113 1.68403E-01-2.57458E-02 0.00000E+00
 -1       114 1.48302E-01-2.15679E-02 0.00000E+00
 -1       115 1.29079E-01-1.77613E-02 0.00000E+00
 -1       116 1.10819E-01-1.43408E-02 0.00000E+00
 -1       117 9.35547E-02-1.12966E-02 0.00000E+00
 -1       118 7.73599E-02-8.62765E-03 0.00000E+00
 -1       119 6.23638E-02-6.34566E-03 0.00000E+00
 -1       120 4.87031E-02-4.45719E-03 0.00000E+00
 -1       121 3.64882E-02-2.95175E-03 0.00000E+00
 -1       122 2.58183E-02-1.80428E-03 0.00000E+00
 -1       123 1.68050E-02-9.83140E-04 0.00000E+00
 -1       124 9.57210E-03-4.50640E-04 0.00000E+00
 -1       125 4.25471E-03-1.58671E-04 0.00000E+00
 -1       126 9.12283E-04-4.02861E-05 0.00000E+00
 -3
    1PSTEP                       302          76           1          
  100CL  176 7.60000E-01         126                     1   76           1
 -4  STRESS      6    1
 -5  SXX         1    4    1    1
 -5  SYY         1    4    2    2
 -5  SZZ         1    4    3    3
 -5  SXY         1    4    1    2
 -5  SYZ         1    4    2    3
 -5  SZX         1    4    3    1
 -1         1 9.56384E+03 2.32349E+04 9.33870E+03 5.32338E+03-1.40500E-10-1.53714E-10
 -1         2 9.56384E+03 2.32349E+04 9.33870E+03 5.32338E+03-1.40500E-10-1.53714E-10
 -1         3-1.40361E+02-1.08308E+02-7.46204E+01-3.67351E+01-2.99992E-08-1.73780E-07
 -1         4-1.40361E+02-1.08308E+02-7.46204E+01-3.67351E+01-2.99987E-08-1.73784E-07
 -1         5 5.28336E+01 2.34500E+02 8.61278E+01 7.37375E+01 1.83159E-07-8.17755E-08
 -1         6 5.28336E+01 2.34500E+02 8.61278E+01 7.37375E+01 1.83160E-07-8.18159E-08
 -1         7-9.87375E+03-2.18078E+04-1.00378E+04 3.73096E+03-1.95867E-10 2.08330E-10
 -1         8-9.87375E+03-2.18078E+04-1.00378E+04 3.73096E+03-1.95875E-10 2.08326E-10
 -1         9-5.40734E+01 7.69288E+01 6.85048E+00 9.10522E+00 7.32878E-08-1.22536E-07
 -1        10-5.40734E+01 7.69288E+01 6.85048E+00 9.10522E+00 7.32862E-08-1.22523E-07
 -1        11-1.15454E+02-7.06654E+02-1.47442E+02 2.78916E+03-1.31695E-10 1.40404E-11
 -1        12-1.15454E+02-7.06654E+02-1.47442E+02 2.78916E+03-1.31681E-10 1.40475E-11
 -1        13 3.53267E+03 2.06891E+04 6.89331E+03 1.56210E+03-8.86579E-09-2.07114E-08
 -1        14 4.59441E+03 2.04948E+04 7.14739E+03 1.54414E+03-2.14778E-09-3.87143E-08
 -1        15 4.34937E+03 1.90338E+04 6.68112E+03 2.14572E+03 1.49935E-08-4.09048E-08
 -1        16 4.30715E+03 1.77621E+04 6.32285E+03 2.52617E+03 2.43662E-08-7.60726E-09
 -1        17 4.22295E+03 1.64794E+04 5.94684E+03 2.81988E+03 1.80058E-08 1.59723E-08
 -1        18 4.11171E+03 1.52656E+04 5.57979E+03 3.02241E+03 2.98094E-09 3.01525E-08
 -1        19 4.07087E+03 1.41250E+04 5.25191E+03 3.15422E+03-8.72675E-10 1.60982E-08
 -1        20 3.97663E+03 1.29313E+04 4.89238E+03 3.22692E+03 7.59440E-09 6.23363E-09
 -1        21 3.83325E+03 1.17167E+04 4.51171E+03 3.20540E+03 1.32789E-08-8.50872E-09
 -1        22 3.62891E+03 1.06134E+04 4.14310E+03 3.11248E+03 3.14520E-08-3.01574E-08
 -1        23 3.50502E+03 9.73447E+03 3.85925E+03 3.01042E+03 5.27968E-08-3.18893E-08
 -1        24 3.36935E+03 8.81738E+03 3.55861E+03 2.94319E+03 5.32585E-08 1.43010E-08
 -1        25 3.13846E+03 7.50788E+03 3.11697E+03 2.78701E+03 4.05497E-08 5.32871E-08
 -1        26 2.63773E+03 5.63443E+03 2.43250E+03 2.39156E+03 2.02884E-08 9.37938E-08
 -1        27 1.90911E+03 3.49007E+03 1.59684E+03 1.72926E+03-9.60363E-09 1.20949E-07
 -1        28 1.03876E+03 1.53743E+03 7.66118E+02 9.86907E+02-4.58389E-08 1.28646E-07
 -1        29 3.06058E+02 2.38940E+02 1.62444E+02 3.73319E+02-7.52287E-08 1.03745E-07
 -1        30-1.20631E+02-2.75400E+02-1.19002E+02 2.98631E+01-8.30883E-08 3.34827E-08
 -1        31-1.93054E+02-2.25802E+02-1.25732E+02-5.09532E+01-6.54196E-08-6.46440E-08
 -1        32 3.53267E+03 2.06891E+04 6.89331E+03 1.56210E+03-8.86579E-09-2.07114E-08
 -1        33 4.59441E+03 2.04948E+04 7.14739E+03 1.54414E+03-2.14777E-09-3.87144E-08
 -1        34 4.34937E+03 1.90338E+04 6.68112E+03 2.14572E+03 1.49935E-08-4.09048E-08
 -1        35 4.30715E+03 1.77621E+04 6.32285E+03 2.52617E+03 2.43663E-08-7.60732E-09
 -1        36 4.22295E+03 1.64794E+04 5.94684E+03 2.81988E+03 1.80058E-08 1.59735E-08
 -1        37 4.11171E+03 1.52656E+04 5.57979E+03 3.02241E+03 2.98091E-09 3.01505E-08
 -1        38 4.07087E+03 1.41250E+04 5.25191E+03 3.15422E+03-8.72667E-10 1.61023E-08
 -1        39 3.97663E+03 1.29313E+04 4.89238E+03 3.22692E+03 7.59441E-09 6.23181E-09
 -1        40 3.83325E+03 1.17167E+04 4.51171E+03 3.20540E+03 1.32789E-08-8.50688E-09
 -1        41 3.62891E+03 1.06134E+04 4.14310E+03 3.11248E+03 3.14517E-08-3.01579E-08
 -1        42 3.50502E+03 9.73447E+03 3.85925E+03 3.01042E+03 5.27966E-08-3.18912E-08
 -1        43 3.36935E+03 8.81738E+03 3.55861E+03 2.94319E+03 5.32584E-08 1.43014E-08
 -1        44 3.13846E+03 7.50788E+03 3.11697E+03 2.78701E+03 4.05500E-08 5.32886E-08
 -1        45 2.63773E+03 5.63443E+03 2.43250E+03 2.39156E+03 2.02892E-08 9.38000E-08
 -1        46 1.90911E+03 3.49007E+03 1.59684E+03 1.72926E+03-9.60336E-09 1.20955E-07
 -1        47 1.03876E+03 1.53743E+03 7.66118E+02 9.86907E+02-4.58390E-08 1.28641E-07
 -1        48 3.06058E+02 2.38940E+02 1.62444E+02 3.73319E+02-7.52281E-08 1.03745E-07
 -1        49-1.20631E+02-2.75400E+02-1.19002E+02 2.98631E+01-8.30882E-08 3.34827E-08
 -1        50-1.93054E+02-2.25802E+02-1.25732E+02-5.09532E+01-6.54206E-08-6.46367E-08
 -1        51 8.59217E+01 3.63713E+02 1.34603E+02 1.58623E+02 1.26666E-07 2.23270E-08
 -1        52 1.62190E+02 3.85836E+02 1.63880E+02 2.73759E+02 6.27616E-08 9.95508E-08
 -1        53 5.85510E+01-2.84499E+02-6.84057E+01 2.18064E+02 2.14425E-09 1.36616E-07
 -1        54-3.91079E+02-1.76094E+03-6.49479E+02-1.17755E+02-3.92678E-08 1.45335E-07
 -1        55-1.14911E+03-3.76276E+03-1.49006E+03-6.99333E+02-5.28357E-08 1.11611E-07
 -1        56-2.03283E+03-5.79019E+03-2.38691E+03-1.35688E+03-4.77381E-08 6.32176E-08
 -1        57-2.75449E+03-7.37571E+03-3.10517E+03-1.89735E+03-3.39553E-08 2.05819E-08
 -1        58-3.20609E+03-8.43998E+03-3.58017E+03-2.20428E+03-1.13786E-08-2.00922E-08
 -1        59-3.43972E+03-9.24975E+03-3.90858E+03-2.31882E+03 1.78070E-08-3.68707E-08
 -1        60-3.62723E+03-1.01492E+04-4.25323E+03-2.35859E+03 4.12426E-08-2.97461E-08
 -1        61-3.82155E+03-1.12213E+04-4.65848E+03-2.40549E+03 4.00592E-08-4.36019E-09
 -1        62-4.04611E+03-1.23730E+04-5.10127E+03-2.43361E+03 3.17643E-08 9.10818E-09
 -1        63-4.24606E+03-1.34866E+04-5.52570E+03-2.39368E+03 2.45399E-08 2.05923E-08
 -1        64-4.42560E+03-1.45767E+04-5.93789E+03-2.26440E+03 7.76542E-09 3.51807E-08
 -1        65-4.56394E+03-1.56838E+04-6.34575E+03-2.05907E+03-5.59446E-09 1.87828E-08
 -1        66-4.74094E+03-1.68505E+04-6.78821E+03-1.78091E+03-3.55666E-09-2.04401E-08
 -1        67-4.88385E+03-1.79922E+04-7.21427E+03-1.40039E+03 7.01617E-09-4.58963E-08
 -1        68-5.41523E+03-1.93733E+04-7.84443E+03-1.02606E+03 1.37970E-08-4.09121E-08
 -1        69-4.16493E+03-1.94550E+04-7.48813E+03 3.51896E+01 1.29773E-08-2.39336E-08
 -1        70 8.59217E+01 3.63713E+02 1.34603E+02 1.58623E+02 1.26663E-07 2.23068E-08
 -1        71 1.62190E+02 3.85836E+02 1.63880E+02 2.73759E+02 6.27636E-08 9.95509E-08
 -1        72 5.85510E+01-2.84499E+02-6.84057E+01 2.18064E+02 2.14237E-09 1.36616E-07
 -1        73-3.91079E+02-1.76094E+03-6.49479E+02-1.17755E+02-3.92674E-08 1.45352E-07
 -1        74-1.14911E+03-3.76276E+03-1.49006E+03-6.99333E+02-5.28367E-08 1.11592E-07
 -1        75-2.03283E+03-5.79019E+03-2.38691E+03-1.35688E+03-4.77385E-08 6.32176E-08
 -1        76-2.75449E+03-7.37571E+03-3.10517E+03-1.89735E+03-3.39554E-08 2.05847E-08
 -1        77-3.20609E+03-8.43998E+03-3.58017E+03-2.20428E+03-1.13786E-08-2.00942E-08
 -1        78-3.43972E+03-9.24975E+03-3.90858E+03-2.31882E+03 1.78070E-08-3.68767E-08
 -1        79-3.62723E+03-1.01492E+04-4.25323E+03-2.35859E+03 4.12422E-08-2.97537E-08
 -1        80-3.82155E+03-1.12213E+04-4.65848E+03-2.40549E+03 4.00607E-08-4.35523E-09
 -1        81-4.04611E+03-1.23730E+04-5.10127E+03-2.43361E+03 3.17644E-08 9.10793E-09
 -1        82-4.24606E+03-1.34866E+04-5.52570E+03-2.39368E+03 2.45395E-08 2.05923E-08
 -1        83-4.42560E+03-1.45767E+04-5.93789E+03-2.26440E+03 7.76550E-09 3.51768E-08
 -1        84-4.56394E+03-1.56838E+04-6.34575E+03-2.05907E+03-5.59308E-09 1.87871E-08
 -1        85-4.74094E+03-1.68505E+04-6.78821E+03-1.78091E+03-3.55525E-09-2.04410E-08
 -1        86-4.88385E+03-1.79922E+04-7.21427E+03-1.40039E+03 7.01588E-09-4.58954E-08
 -1        87-5.41523E+03-1.93733E+04-7.84443E+03-1.02606E+03 1.37971E-08-4.09122E-08
 -1        88-4.16493E+03-1.94550E+04-7.48813E+03 3.51896E+01 1.29774E-08-2.39336E-08
 -1        89-1.54107E+02-7.20350E+02-2.29179E+02 7.99509E+01 3.48043E-09-1.87119E-08
 -1        90-1.92849E+02-6.46530E+02-1.95920E+02 3.44891E+02 7.23044E-09-4.28780E-08
 -1        91-1.24413E+02-5.92299E+02-1.70264E+02 2.71686E+02 9.95407E-09-4.69499E-08
 -1        92-9.53783E+01-5.42022E+02-1.50774E+02 2.69439E+02 1.11993E-08-1.55615E-08
 -1        93-6.86250E+01-4.67480E+02-1.25184E+02 2.55585E+02 6.24309E-09 1.73698E-08
 -1        94-6.86090E+01-4.04543E+02-1.10774E+02 2.48920E+02 1.15280E-09 3.33984E-08
 -1        95-1.43168E+01-3.37945E+02-7.87152E+01 2.53025E+02 9.61369E-09 1.92335E-08
 -1        96 2.63596E+01-2.92120E+02-5.67461E+01 2.79391E+02 1.97167E-08 6.62331E-09
 -1        97 5.96195E+01-2.30673E+02-3.16149E+01 2.96645E+02 2.87172E-08-3.72243E-09
 -1        98 4.48057E+01-1.63540E+02-1.86985E+01 2.82464E+02 3.89480E-08-3.25477E-08
 -1        99 6.49667E+01-9.53197E+01 5.06906E+00 2.56291E+02 3.52366E-08-3.94647E-08
 -1       100 1.19817E+02-1.05858E+02 1.49148E+01 3.00152E+02 1.94669E-08-6.77992E-09
 -1       101 2.63406E+02-1.88117E+02 2.94419E+01 4.25522E+02 3.83171E-09 3.69030E-08
 -1       102 4.12560E+02-2.93253E+02 3.90961E+01 5.60009E+02-1.28138E-08 7.93806E-08
 -1       103 5.03502E+02-3.09534E+02 5.90077E+01 5.96851E+02-3.27509E-08 1.21342E-07
 -1       104 4.26677E+02-2.30167E+02 5.85653E+01 5.14993E+02-4.65654E-08 1.43128E-07
 -1       105 2.43491E+02-8.04312E+01 4.84098E+01 3.45269E+02-4.21916E-08 1.28734E-07
 -1       106 3.76731E+01 4.74292E+01 2.52995E+01 1.64193E+02-1.60276E-08 6.82683E-08
 -1       107-6.00826E+01 8.18255E+01 6.50155E+00 4.70415E+01 2.46684E-08-1.97641E-08
 -1       108-6.00826E+01 8.18255E+01 6.50155E+00 4.70415E+01 2.46725E-08-1.97752E-08
 -1       109 3.76731E+01 4.74292E+01 2.52995E+01 1.64193E+02-1.60310E-08 6.82683E-08
 -1       110 2.43491E+02-8.04312E+01 4.84098E+01 3.45269E+02-4.21908E-08 1.28734E-07
 -1       111 4.26677E+02-2.30167E+02 5.85653E+01 5.14993E+02-4.65655E-08 1.43136E-07
 -1       112 5.03502E+02-3.09534E+02 5.90077E+01 5.96851E+02-3.27509E-08 1.21337E-07
 -1       113 4.12560E+02-2.93253E+02 3.90961E+01 5.60009E+02-1.28132E-08 7.93734E-08
 -1       114 2.63406E+02-1.88117E+02 2.94419E+01 4.25522E+02 3.83183E-09 3.69009E-08
 -1       115 1.19817E+02-1.05858E+02 1.49148E+01 3.00152E+02 1.94670E-08-6.77993E-09
 -1       116 6.49667E+01-9.53197E+01 5.06906E+00 2.56291E+02 3.52369E-08-3.94620E-08
 -1       117 4.48057E+01-1.63540E+02-1.86985E+01 2.82464E+02 3.89485E-08-3.25454E-08
 -1       118 5.96195E+01-2.30673E+02-3.16149E+01 2.96645E+02 2.87168E-08-3.72895E-09
 -1       119 2.63596E+01-2.92120E+02-5.67461E+01 2.79391E+02 1.97167E-08 6.62718E-09
 -1       120-1.43168E+01-3.37945E+02-7.87152E+01 2.53025E+02 9.61385E-09 1.92321E-08
 -1       121-6.86090E+01-4.04543E+02-1.10774E+02 2.48920E+02 1.15240E-09 3.33995E-08
 -1       122-6.86250E+01-4.67480E+02-1.25184E+02 2.55585E+02 6.24283E-09 1.73671E-08
 -1       123-9.53783E+01-5.42022E+02-1.50774E+02 2.69439E+02 1.11991E-08-1.55611E-08
 -1       124-1.24413E+02-5.92299E+02-1.70264E+02 2.71686E+02 9.95431E-09-4.69501E-08
 -1       125-1.92849E+02-6.46530E+02-1.95920E+02 3.44891E+02 7.23032E-09-4.28779E-08
 -1       126-1.54107E+02-7.20350E+02-2.29179E+02 7.99509E+01 3.48039E-09-1.87120E-08
 -3
    1PSTEP                       303          76           1          
  100CL  176 7.60000E-01         126                     1   76           1
 -4  TOSTRAIN    6    1
 -5  EXX         1    4    1    1
 -5  EYY         1    4    2    2
 -5  EZZ         1    4    3    3
 -5  EXY         1    4    1    2
 -5  EYZ         1    4    2    3
 -5  EZX         1    4    3    1
 -1         1-1.57142E-04 4.19708E-02-1.65513E-27 1.53481E-02 3.50281E-19-3.18270E-16
 -1         2-1.57142E-04 4.19708E-02-1.65513E-27 1.53481E-02 3.50281E-19-3.18270E-16
 -1         3-1.04372E-04-2.18904E-04 5.64711E-25-1.17086E-04-3.25780E-13-4.71826E-13
 -1         4-1.04372E-04-2.18904E-04 5.64720E-25-1.17086E-04-3.25784E-13-4.71838E-13
 -1         5-1.86764E-04 5.60092E-04 7.51470E-25-6.98321E-05 4.28253E-13-4.91182E-13
 -1         6-1.86764E-04 5.60092E-04 7.51629E-25-6.98321E-05 4.28201E-13-4.91303E-13
 -1         7-1.55858E-04-4.17938E-02-2.64626E-27 1.39231E-02-1.82123E-19 4.54271E-16
 -1         8-1.55858E-04-4.17938E-02-2.64626E-27 1.39231E-02-2.07291E-19 4.54259E-16
 -1         9-1.45568E-04 1.75228E-04 3.37888E-25-1.43057E-04 4.88959E-14-4.61502E-13
 -1        10-1.45568E-04 1.75228E-04 3.37849E-25-1.43057E-04 4.89089E-14-4.61462E-13
 -1        11-1.56500E-04-7.95442E-04-1.19709E-27 9.12272E-03-2.12869E-19 6.50569E-17
 -1        12-1.56500E-04-7.95442E-04-1.19710E-27 9.12272E-03-1.65903E-19 6.50790E-17
 -1        13-1.16576E-02 4.20998E-02 8.47318E-27 2.49058E-03-2.99464E-14-6.54883E-14
 -1        14-9.26630E-03 4.09142E-02 3.04005E-26 5.59507E-04-1.66823E-14-1.23647E-13
 -1        15-8.98379E-03 3.85218E-02 3.74132E-26 8.41060E-04 3.02910E-14-1.36875E-13
 -1        16-8.40089E-03 3.63280E-02 8.43352E-27 7.98763E-04 7.06402E-14-3.68756E-14
 -1        17-7.92178E-03 3.41600E-02 8.84353E-27 7.93443E-04 6.44940E-14 3.91184E-14
 -1        18-7.53334E-03 3.21253E-02 1.81197E-26 7.43042E-04 3.03549E-14 9.26034E-14
 -1        19-7.02792E-03 3.01541E-02 4.41104E-27 7.36581E-04 1.02194E-14 5.09857E-14
 -1        20-6.56222E-03 2.80832E-02 5.11107E-28 8.00701E-04 2.82986E-14 1.23182E-14
 -1        21-6.06603E-03 2.58911E-02 2.22867E-27 8.22477E-04 3.13256E-14-3.95251E-14
 -1        22-5.65377E-03 2.38390E-02 3.73079E-26 7.14779E-04 6.19013E-14-1.25970E-13
 -1        23-5.22240E-03 2.21479E-02 7.27592E-26 6.09435E-04 1.20400E-13-1.57145E-13
 -1        24-4.89333E-03 2.04862E-02 4.74835E-26 7.44567E-04 1.73310E-13-2.15416E-14
 -1        25-4.38037E-03 1.80211E-02 7.74761E-26 1.15080E-03 1.84579E-13 1.07308E-13
 -1        26-3.55863E-03 1.41844E-02 1.79308E-25 1.57515E-03 1.80269E-13 2.51022E-13
 -1        27-2.37510E-03 9.33550E-03 3.02255E-25 1.71094E-03 1.32944E-13 3.69715E-13
 -1        28-1.28425E-03 4.61629E-03 3.89250E-25 1.43877E-03 4.01966E-14 4.41696E-13
 -1        29-5.03579E-04 1.20921E-03 3.31148E-25 8.60248E-04-7.93657E-14 4.09033E-13
 -1        30-1.70429E-04-3.45016E-04 1.24007E-25 2.54608E-04-1.99177E-13 2.12636E-13
 -1        31-1.11605E-04-4.32992E-04 1.02817E-25-6.64039E-05-2.81406E-13-1.01346E-13
 -1        32-1.16576E-02 4.20998E-02 8.47318E-27 2.49058E-03-2.99464E-14-6.54883E-14
 -1        33-9.26630E-03 4.09142E-02 3.04006E-26 5.59507E-04-1.66823E-14-1.23648E-13
 -1        34-8.98379E-03 3.85218E-02 3.74132E-26 8.41060E-04 3.02909E-14-1.36875E-13
 -1        35-8.40089E-03 3.63280E-02 8.43338E-27 7.98763E-04 7.06402E-14-3.68758E-14
 -1        36-7.92178E-03 3.41600E-02 8.84432E-27 7.93443E-04 6.44947E-14 3.91221E-14
 -1        37-7.53334E-03 3.21253E-02 1.81177E-26 7.43042E-04 3.03533E-14 9.25973E-14
 -1        38-7.02792E-03 3.01541E-02 4.41436E-27 7.36581E-04 1.02227E-14 5.09988E-14
 -1        39-6.56222E-03 2.80832E-02 5.10409E-28 8.00701E-04 2.82970E-14 1.23125E-14
 -1        40-6.06603E-03 2.58911E-02 2.22793E-27 8.22477E-04 3.13278E-14-3.95195E-14
 -1        41-5.65377E-03 2.38390E-02 3.73078E-26 7.14779E-04 6.19001E-14-1.25971E-13
 -1        42-5.22240E-03 2.21479E-02 7.27614E-26 6.09435E-04 1.20397E-13-1.57151E-13
 -1        43-4.89333E-03 2.04862E-02 4.74828E-26 7.44567E-04 1.73310E-13-2.15400E-14
 -1        44-4.38037E-03 1.80211E-02 7.74786E-26 1.15080E-03 1.84581E-13 1.07312E-13
 -1        45-3.55863E-03 1.41844E-02 1.79329E-25 1.57515E-03 1.80280E-13 2.51039E-13
 -1        46-2.37510E-03 9.33550E-03 3.02285E-25 1.71094E-03 1.32953E-13 3.69731E-13
 -1        47-1.28425E-03 4.61629E-03 3.89222E-25 1.43877E-03 4.01897E-14 4.41682E-13
 -1        48-5.03579E-04 1.20921E-03 3.31146E-25 8.60248E-04-7.93638E-14 4.09032E-13
 -1        49-1.70429E-04-3.45016E-04 1.24008E-25 2.54608E-04-1.99177E-13 2.12636E-13
 -1        50-1.11605E-04-4.32992E-04 1.02800E-25-6.64039E-05-2.81399E-13-1.01323E-13
 -1        51-3.92367E-04 9.76055E-04 2.63285E-25-1.13562E-05 4.03537E-13-1.07238E-13
 -1        52-5.58401E-04 1.26895E-03 2.40249E-25 2.95294E-04 3.20801E-13 2.07330E-13
 -1        53-3.31602E-04 3.61695E-05 3.75491E-25 8.84779E-04 1.93622E-13 3.99473E-13
 -1        54 3.35947E-04-3.14149E-03 4.73538E-25 1.46315E-03 8.30134E-14 4.82497E-13
 -1        55 1.33428E-03-7.75638E-03 3.14403E-25 1.74604E-03-5.88170E-15 4.02014E-13
 -1        56 2.35494E-03-1.26167E-02 1.20295E-25 1.59655E-03-5.97278E-14 2.51492E-13
 -1        57 3.19477E-03-1.65169E-02 2.06839E-26 1.15043E-03-7.71695E-14 1.05152E-13
 -1        58 3.70522E-03-1.90427E-02 1.84647E-27 7.46422E-04-6.01377E-14-4.68786E-14
 -1        59 4.03957E-03-2.07658E-02 3.12756E-26 6.24678E-04 1.22528E-14-1.33122E-13
 -1        60 4.37403E-03-2.25536E-02 5.45249E-26 7.19664E-04 9.75038E-14-1.36473E-13
 -1        61 4.86556E-03-2.47500E-02 3.58602E-26 8.12513E-04 1.23867E-13-5.42152E-14
 -1        62 5.36913E-03-2.71110E-02 2.47787E-26 8.02414E-04 1.11694E-13-1.17490E-15
 -1        63 5.82875E-03-2.93459E-02 2.20145E-26 7.53561E-04 9.83328E-14 4.42748E-14
 -1        64 6.23132E-03-3.14669E-02 2.61321E-26 7.46626E-04 5.27848E-14 1.06091E-13
 -1        65 6.70923E-03-3.36407E-02 4.09682E-27 7.85532E-04-6.43685E-15 6.37301E-14
 -1        66 7.16857E-03-3.59338E-02 4.32771E-27 8.09727E-04-2.34869E-14-6.40323E-14
 -1        67 7.70017E-03-3.82275E-02 4.38564E-26 8.87834E-04 4.31140E-15-1.51753E-13
 -1        68 7.73208E-03-4.08483E-02 3.89786E-26 5.73601E-04 3.56571E-14-1.37254E-13
 -1        69 1.03795E-02-4.20715E-02 1.40673E-26 2.41009E-03 4.16014E-14-7.99621E-14
 -1        70-3.92367E-04 9.76055E-04 2.63263E-25-1.13562E-05 4.03501E-13-1.07294E-13
 -1        71-5.58401E-04 1.26895E-03 2.40250E-25 2.95294E-04 3.20806E-13 2.07327E-13
 -1        72-3.31602E-04 3.61695E-05 3.75490E-25 8.84779E-04 1.93617E-13 3.99475E-13
 -1        73 3.35947E-04-3.14149E-03 4.73633E-25 1.46315E-03 8.30375E-14 4.82546E-13
 -1        74 1.33428E-03-7.75638E-03 3.14306E-25 1.74604E-03-5.91102E-15 4.01959E-13
 -1        75 2.35494E-03-1.26167E-02 1.20296E-25 1.59655E-03-5.97290E-14 2.51492E-13
 -1        76 3.19477E-03-1.65169E-02 2.06861E-26 1.15043E-03-7.71664E-14 1.05160E-13
 -1        77 3.70522E-03-1.90427E-02 1.84507E-27 7.46422E-04-6.01403E-14-4.68846E-14
 -1        78 4.03957E-03-2.07658E-02 3.12839E-26 6.24678E-04 1.22458E-14-1.33140E-13
 -1        79 4.37403E-03-2.25536E-02 5.45317E-26 7.19664E-04 9.74945E-14-1.36496E-13
 -1        80 4.86556E-03-2.47500E-02 3.58603E-26 8.12513E-04 1.23877E-13-5.42016E-14
 -1        81 5.36913E-03-2.71110E-02 2.47788E-26 8.02414E-04 1.11694E-13-1.17577E-15
 -1        82 5.82875E-03-2.93459E-02 2.20141E-26 7.53561E-04 9.83314E-14 4.42752E-14
 -1        83 6.23132E-03-3.14669E-02 2.61271E-26 7.46626E-04 5.27822E-14 1.06079E-13
 -1        84 6.70923E-03-3.36407E-02 4.10028E-27 7.85532E-04-6.42933E-15 6.37431E-14
 -1        85 7.16857E-03-3.59338E-02 4.32803E-27 8.09727E-04-2.34827E-14-6.40356E-14
 -1        86 7.70017E-03-3.82275E-02 4.38548E-26 8.87834E-04 4.31083E-15-1.51750E-13
 -1        87 7.73208E-03-4.08483E-02 3.89786E-26 5.73601E-04 3.56573E-14-1.37254E-13
 -1        88 1.03795E-02-4.20715E-02 1.40673E-26 2.41009E-03 4.16015E-14-7.99621E-14
 -1        89-6.39066E-04-5.37888E-04 5.54078E-27 3.32967E-04 8.87396E-15-6.12472E-14
 -1        90-7.67109E-04-2.88868E-04 3.87806E-26 1.23203E-03 1.17487E-14-1.40962E-13
 -1        91-6.41807E-04-2.71823E-04 4.70366E-26 1.04266E-03 1.31253E-14-1.55529E-13
 -1        92-6.16163E-04-1.94195E-04 3.39012E-27 1.06057E-03 2.76206E-14-5.58130E-14
 -1        93-6.06276E-04-7.42568E-05 4.37114E-27 1.01502E-03 3.07429E-14 5.13530E-14
 -1        94-6.51013E-04 4.98366E-05 2.25505E-26 9.66418E-04 2.81752E-14 1.04862E-13
 -1        95-5.99587E-04 1.52211E-04 8.02102E-27 9.73923E-04 4.61617E-14 5.23347E-14
 -1        96-5.96542E-04 2.59154E-04 7.60550E-27 1.04202E-03 6.74530E-14 2.28225E-15
 -1        97-6.00233E-04 3.86089E-04 1.49276E-26 1.05538E-03 8.49516E-14-4.05983E-14
 -1        98-6.39872E-04 4.94210E-04 5.29142E-26 9.25792E-04 8.42610E-14-1.42093E-13
 -1        99-5.91416E-04 5.58063E-04 5.62008E-26 7.95602E-04 6.18527E-14-1.60666E-13
 -1       100-5.94054E-04 6.11975E-04-1.40647E-27 9.56347E-04 5.05910E-14-4.41329E-14
 -1       101-5.92799E-04 6.84620E-04 1.59871E-26 1.48618E-03 5.83586E-14 1.05437E-13
 -1       102-6.01848E-04 7.49112E-04 1.24226E-25 2.06891E-03 6.63245E-14 2.52612E-13
 -1       103-5.20413E-04 7.66184E-04 3.26882E-25 2.26513E-03 6.66290E-14 4.02822E-13
 -1       104-4.74150E-04 7.25273E-04 4.77033E-25 1.89317E-03 5.80431E-14 4.85635E-13
 -1       105-4.17591E-04 6.27081E-04 3.74034E-25 1.12355E-03 5.20992E-14 4.37200E-13
 -1       106-3.64415E-04 4.73979E-04 5.77311E-26 3.31548E-04 4.62211E-14 2.23202E-13
 -1       107-2.51986E-04 2.80089E-04-5.71868E-26-7.70747E-05 4.57515E-14-9.20019E-14
 -1       108-2.51986E-04 2.80089E-04-5.71497E-26-7.70747E-05 4.57483E-14-9.20402E-14
 -1       109-3.64415E-04 4.73979E-04 5.77314E-26 3.31548E-04 4.62110E-14 2.23206E-13
 -1       110-4.17591E-04 6.27081E-04 3.74034E-25 1.12355E-03 5.21016E-14 4.37199E-13
 -1       111-4.74150E-04 7.25273E-04 4.77080E-25 1.89317E-03 5.80537E-14 4.85659E-13
 -1       112-5.20413E-04 7.66184E-04 3.26852E-25 2.26513E-03 6.66223E-14 4.02807E-13
 -1       113-6.01848E-04 7.49112E-04 1.24201E-25 2.06891E-03 6.63169E-14 2.52590E-13
 -1       114-5.92799E-04 6.84620E-04 1.59872E-26 1.48618E-03 5.83563E-14 1.05430E-13
 -1       115-5.94054E-04 6.11975E-04-1.40482E-27 9.56347E-04 5.05915E-14-4.41331E-14
 -1       116-5.91416E-04 5.58063E-04 5.61979E-26 7.95602E-04 6.18566E-14-1.60658E-13
 -1       117-6.39872E-04 4.94210E-04 5.29131E-26 9.25792E-04 8.42650E-14-1.42086E-13
 -1       118-6.00233E-04 3.86089E-04 1.49294E-26 1.05538E-03 8.49438E-14-4.06180E-14
 -1       119-5.96542E-04 2.59154E-04 7.60676E-27 1.04202E-03 6.74565E-14 2.29441E-15
 -1       120-5.99587E-04 1.52211E-04 8.02034E-27 9.73923E-04 4.61610E-14 5.23301E-14
 -1       121-6.51013E-04 4.98366E-05 2.25516E-26 9.66418E-04 2.81748E-14 1.04866E-13
 -1       122-6.06276E-04-7.42568E-05 4.36917E-27 1.01502E-03 3.07404E-14 5.13445E-14
 -1       123-6.16163E-04-1.94195E-04 3.39013E-27 1.06057E-03 2.76200E-14-5.58115E-14
 -1       124-6.41807E-04-2.71823E-04 4.70370E-26 1.04266E-03 1.31261E-14-1.55530E-13
 -1       125-7.67109E-04-2.88868E-04 3.87803E-26 1.23203E-03 1.17484E-14-1.40961E-13
 -1       126-6.39066E-04-5.37888E-04 5.54080E-27 3.32967E-04 8.87383E-15-6.12473E-14
 -3
    1PSTEP                       304          76           1          
  100CL  176 7.60000E-01         126                     1   76           1
 -4  ERROR       1    1
 -5  STR(%)      1    1    0    0
 -1         1 6.32355E+01
 -1         2 6.32355E+01
 -1         3 4.71527E+01
 -1         4 4.71527E+01
 -1         5 3.82059E+01
 -1         6 3.82059E+01
 -1         7 5.84349E+01
 -1         8 5.84349E+01
 -1         9 4.71527E+01
 -1        10 4.71527E+01
 -1        11 6.32355E+01
 -1        12 6.32355E+01
 -1        13 6.32355E+01
 -1        14 6.24606E+01
 -1        15 6.23526E+01
 -1        16 6.23004E+01
 -1        17 6.21268E+01
 -1        18 6.19013E+01
 -1        19 6.15242E+01
 -1        20 6.13621E+01
 -1        21 6.11371E+01
 -1        22 6.07747E+01
 -1        23 6.00837E+01
 -1        24 5.98394E+01
 -1        25 5.98394E+01
 -1        26 5.95707E+01
 -1        27 5.63411E+01
 -1        28 4.72946E+01
 -1        29 5.89871E+01
 -1        30 6.65480E+01
 -1        31 6.65480E+01
 -1        32 6.32355E+01
 -1        33 6.24606E+01
 -1        34 6.23526E+01
 -1        35 6.23004E+01
 -1        36 6.21268E+01
 -1        37 6.19013E+01
 -1        38 6.15242E+01
 -1        39 6.13621E+01
 -1        40 6.11371E+01
 -1        41 6.07747E+01
 -1        42 6.00837E+01
 -1        43 5.98394E+01
 -1        44 5.98394E+01
 -1        45 5.95707E+01
 -1        46 5.63411E+01
 -1        47 4.72946E+01
 -1        48 5.89871E+01
 -1        49 6.65480E+01
 -1        50 6.65480E+01
 -1        51 4.30146E+01
 -1        52 4.30146E+01
 -1        53 6.56573E+01
 -1        54 6.56573E+01
 -1        55 6.43777E+01
 -1        56 6.51310E+01
 -1        57 6.51310E+01
 -1        58 6.33493E+01
 -1        59 6.21243E+01
 -1        60 6.18824E+01
 -1        61 6.15715E+01
 -1        62 6.09748E+01
 -1        63 6.03120E+01
 -1        64 5.98805E+01
 -1        65 5.95156E+01
 -1        66 5.92198E+01
 -1        67 5.89290E+01
 -1        68 5.89055E+01
 -1        69 5.89055E+01
 -1        70 4.30146E+01
 -1        71 4.30146E+01
 -1        72 6.56573E+01
 -1        73 6.56573E+01
 -1        74 6.43777E+01
 -1        75 6.51310E+01
 -1        76 6.51310E+01
 -1        77 6.33493E+01
 -1        78 6.21243E+01
 -1        79 6.18824E+01
 -1        80 6.15715E+01
 -1        81 6.09748E+01
 -1        82 6.03120E+01
 -1        83 5.98805E+01
 -1        84 5.95156E+01
 -1        85 5.92198E+01
 -1        86 5.89290E+01
 -1        87 5.89055E+01
 -1        88 5.89055E+01
 -1        89 6.32355E+01
 -1        90 6.24606E+01
 -1        91 6.23526E+01
 -1        92 6.23004E+01
 -1        93 6.21268E+01
 -1        94 6.19013E+01
 -1        95 6.15242E+01
 -1        96 6.13621E+01
 -1        97 6.15715E+01
 -1        98 6.18824E+01
 -1        99 6.21243E+01
 -1       100 6.33493E+01
 -1       101 6.51310E+01
 -1       102 6.51310E+01
 -1       103 6.43777E+01
 -1       104 6.56573E+01
 -1       105 6.56573E+01
 -1       106 6.65480E+01
 -1       107 6.65480E+01
 -1       108 6.65480E+01
 -1       109 6.65480E+01
 -1       110 6.56573E+01
 -1       111 6.56573E+01
 -1       112 6.43777E+01
 -1       113 6.51310E+01
 -1       114 6.51310E+01
 -1       115 6.33493E+01
 -1       116 6.21243E+01
 -1       117 6.18824E+01
 -1       118 6.15715E+01
 -1       119 6.13621E+01
 -1       120 6.15242E+01
 -1       121 6.19013E+01
 -1       122 6.21268E+01
 -1       123 6.23004E+01
 -1       124 6.23526E+01
 -1       125 6.24606E+01
 -1       126 6.32355E+01
 -3
    1PSTEP                       305          77           1          
  100CL  177 7.70000E-01         126                     1   77           1
 -4  DISP        4    1
 -5  D1          1    2    1    0
 -5  D2          1    2    2    0
 -5  D3          1    2    3    0
 -5  ALL         1    2    0    0    1ALL
 -1         1 0.00000E+00 0.00000E+00 0.00000E+00
 -1         2 0.00000E+00 0.00000E+00 0.00000E+00
 -1         3 3.04347E-01-3.36683E-02 0.00000E+00
 -1         4 3.04347E-01-3.36683E-02 0.00000E+00
 -1         5 2.94773E-01-7.63318E-02 0.00000E+00
 -1         6 2.94773E-01-7.63318E-02 0.00000E+00
 -1         7 0.00000E+00 0.00000E+00 0.00000E+00
 -1         8 0.00000E+00 0.00000E+00 0.00000E+00
 -1         9 2.99563E-01-5.49983E-02 0.00000E+00
 -1        10 2.99563E-01-5.49983E-02 0.00000E+00
 -1        11 0.00000E+00 0.00000E+00 0.00000E+00
 -1        12 0.00000E+00 0.00000E+00 0.00000E+00
 -1        13 1.52980E-03 2.04054E-03 0.00000E+00
 -1        14 4.85238E-03 4.02576E-03 0.00000E+00
 -1        15 1.03449E-02 5.73874E-03 0.00000E+00
 -1        16 1.78889E-02 7.12594E-03 0.00000E+00
 -1        17 2.73902E-02 8.08841E-03 0.00000E+00
 -1        18 3.86845E-02 8.56322E-03 0.00000E+00
 -1        19 5.15964E-02 8.52923E-03 0.00000E+00
 -1        20 6.60059E-02 7.97048E-03 0.00000E+00
 -1        21 8.17815E-02 6.86988E-03 0.00000E+00
 -1        22 9.87675E-02 5.22588E-03 0.00000E+00
 -1        23 1.16794E-01 3.07158E-03 0.00000E+00
 -1        24 1.35746E-01 4.43465E-04 0.00000E+00
 -1        25 1.55535E-01-2.63784E-03 0.00000E+00
 -1        26 1.76065E-01-6.17699E-03 0.00000E+00
 -1        27 1.97167E-01-1.01684E-02 0.00000E+00
 -1        28 2.18621E-01-1.45655E-02 0.00000E+00
 -1        29 2.40178E-01-1.92499E-02 0.00000E+00
 -1        30 2.61662E-01-2.40659E-02 0.00000E+00
 -1        31 2.83027E-01-2.88843E-02 0.00000E+00
 -1        32 1.52980E-03 2.04054E-03 0.00000E+00
 -1        33 4.85238E-03 4.02576E-03 0.00000E+00
 -1        34 1.03449E-02 5.73874E-03 0.00000E+00
 -1        35 1.78889E-02 7.12594E-03 0.00000E+00
 -1        36 2.73902E-02 8.08841E-03 0.00000E+00
 -1        37 3.86845E-02 8.56322E-03 0.00000E+00
 -1        38 5.15964E-02 8.52923E-03 0.00000E+00
 -1        39 6.60059E-02 7.97048E-03 0.00000E+00
 -1        40 8.17815E-02 6.86988E-03 0.00000E+00
 -1        41 9.87675E-02 5.22588E-03 0.00000E+00
 -1        42 1.16794E-01 3.07158E-03 0.00000E+00
 -1        43 1.35746E-01 4.43465E-04 0.00000E+00
 -1        44 1.55535E-01-2.63784E-03 0.00000E+00
 -1        45 1.76065E-01-6.17699E-03 0.00000E+00
 -1        46 1.97167E-01-1.01684E-02 0.00000E+00
 -1        47 2.18621E-01-1.45655E-02 0.00000E+00
 -1        48 2.40178E-01-1.92499E-02 0.00000E+00
 -1        49 2.61662E-01-2.40659E-02 0.00000E+00
 -1        50 2.83027E-01-2.88843E-02 0.00000E+00
 -1        51 2.73427E-01-7.15766E-02 0.00000E+00
 -1        52 2.52016E-01-6.68277E-02 0.00000E+00
 -1        53 2.30528E-01-6.20053E-02 0.00000E+00
 -1        54 2.09087E-01-5.70578E-02 0.00000E+00
 -1        55 1.87924E-01-5.20168E-02 0.00000E+00
 -1        56 1.67283E-01-4.69837E-02 0.00000E+00
 -1        57 1.47350E-01-4.20802E-02 0.00000E+00
 -1        58 1.28231E-01-3.73927E-02 0.00000E+00
 -1        59 1.09995E-01-3.29585E-02 0.00000E+00
 -1        60 9.27217E-02-2.87779E-02 0.00000E+00
 -1        61 7.65365E-02-2.48491E-02 0.00000E+00
 -1        62 6.15829E-02-2.11831E-02 0.00000E+00
 -1        63 4.79925E-02-1.77963E-02 0.00000E+00
 -1        64 3.58662E-02-1.46818E-02 0.00000E+00
 -1        65 2.53182E-02-1.18096E-02 0.00000E+00
 -1        66 1.64849E-02-9.14825E-03 0.00000E+00
 -1        67 9.50172E-03-6.67892E-03 0.00000E+00
 -1        68 4.42263E-03-4.37324E-03 0.00000E+00
 -1        69 1.38009E-03-2.12584E-03 0.00000E+00
 -1        70 2.73427E-01-7.15766E-02 0.00000E+00
 -1        71 2.52016E-01-6.68277E-02 0.00000E+00
 -1        72 2.30528E-01-6.20053E-02 0.00000E+00
 -1        73 2.09087E-01-5.70578E-02 0.00000E+00
 -1        74 1.87924E-01-5.20168E-02 0.00000E+00
 -1        75 1.67283E-01-4.69837E-02 0.00000E+00
 -1        76 1.47350E-01-4.20802E-02 0.00000E+00
 -1        77 1.28231E-01-3.73927E-02 0.00000E+00
 -1        78 1.09995E-01-3.29585E-02 0.00000E+00
 -1        79 9.27217E-02-2.87779E-02 0.00000E+00
 -1        80 7.65365E-02-2.48491E-02 0.00000E+00
 -1        81 6.15829E-02-2.11831E-02 0.00000E+00
 -1        82 4.79925E-02-1.77963E-02 0.00000E+00
 -1        83 3.58662E-02-1.46818E-02 0.00000E+00
 -1        84 2.53182E-02-1.18096E-02 0.00000E+00
 -1        85 1.64849E-02-9.14825E-03 0.00000E+00
 -1        86 9.50172E-03-6.67892E-03 0.00000E+00
 -1        87 4.42263E-03-4.37324E-03 0.00000E+00
 -1        88 1.38009E-03-2.12584E-03 0.00000E+00
 -1        89 9.05573E-04-3.13935E-05 0.00000E+00
 -1        90 4.20859E-03-1.36572E-04 0.00000E+00
 -1        91 9.49483E-03-4.14242E-04 0.00000E+00
 -1        92 1.67829E-02-9.42371E-04 0.00000E+00
 -1        93 2.59776E-02-1.78229E-03 0.00000E+00
 -1        94 3.69279E-02-2.97419E-03 0.00000E+00
 -1        95 4.94758E-02-4.54432E-03 0.00000E+00
 -1        96 6.35029E-02-6.51576E-03 0.00000E+00
 -1        97 7.88969E-02-8.90056E-03 0.00000E+00
 -1        98 9.55117E-02-1.16900E-02 0.00000E+00
 -1        99 1.13189E-01-1.48618E-02 0.00000E+00
 -1       100 1.31804E-01-1.83975E-02 0.00000E+00
 -1       101 1.51281E-01-2.22878E-02 0.00000E+00
 -1       102 1.71542E-01-2.65184E-02 0.00000E+00
 -1       103 1.92455E-01-3.10471E-02 0.00000E+00
 -1       104 2.13807E-01-3.57868E-02 0.00000E+00
 -1       105 2.35341E-01-4.06201E-02 0.00000E+00
 -1       106 2.56845E-01-4.54473E-02 0.00000E+00
 -1       107 2.78234E-01-5.02305E-02 0.00000E+00
 -1       108 2.78234E-01-5.02305E-02 0.00000E+00
 -1       109 2.56845E-01-4.54473E-02 0.00000E+00
 -1       110 2.35341E-01-4.06201E-02 0.00000E+00
 -1       111 2.13807E-01-3.57868E-02 0.00000E+00
 -1       112 1.92455E-01-3.10471E-02 0.00000E+00
 -1       113 1.71542E-01-2.65184E-02 0.00000E+00
 -1       114 1.51281E-01-2.22878E-02 0.00000E+00
 -1       115 1.31804E-01-1.83975E-02 0.00000E+00
 -1       116 1.13189E-01-1.48618E-02 0.00000E+00
 -1       117 9.55117E-02-1.16900E-02 0.00000E+00
 -1       118 7.88969E-02-8.90056E-03 0.00000E+00
 -1       119 6.35029E-02-6.51576E-03 0.00000E+00
 -1       120 4.94758E-02-4.54432E-03 0.00000E+00
 -1       121 3.69279E-02-2.97419E-03 0.00000E+00
 -1       122 2.59776E-02-1.78229E-03 0.00000E+00
 -1       123 1.67829E-02-9.42371E-04 0.00000E+00
 -1       124 9.49483E-03-4.14242E-04 0.00000E+00
 -1       125 4.20859E-03-1.36572E-04 0.00000E+00
 -1       126 9.05573E-04-3.13935E-05 0.00000E+00
 -3
    1PSTEP                       306          77           1          
  100CL  177 7.70000E-01         126                     1   77           1
 -4  STRESS      6    1
 -5  SXX         1    4    1    1
 -5  SYY         1    4    2    2
 -5  SZZ         1    4    3    3
 -5  SXY         1    4    1    2
 -5  SYZ         1    4    2    3
 -5  SZX         1    4    3    1
 -1         1 9.55836E+03 2.32281E+04 9.33496E+03 5.30558E+03-3.28015E-10-3.46262E-10
 -1         2 9.55836E+03 2.32281E+04 9.33496E+03 5.30558E+03-3.28015E-10-3.46262E-10
 -1         3-1.27019E+02-1.02454E+02-6.88567E+01-2.89998E+01-3.52355E-08-1.06929E-07
 -1         4-1.27019E+02-1.02454E+02-6.88567E+01-2.89998E+01-3.52359E-08-1.06930E-07
 -1         5 5.80742E+01 2.19247E+02 8.31282E+01 8.02422E+01 1.42170E-07-1.65758E-08
 -1         6 5.80742E+01 2.19247E+02 8.31282E+01 8.02422E+01 1.42171E-07-1.65760E-08
 -1         7-9.77411E+03-2.16036E+04-9.93524E+03 3.70362E+03-3.31738E-10 3.50342E-10
 -1         8-9.77411E+03-2.16036E+04-9.93524E+03 3.70362E+03-3.31738E-10 3.50342E-10
 -1         9-4.37886E+01 6.94693E+01 7.70030E+00 1.76172E+01 6.10365E-08-5.77192E-08
 -1        10-4.37886E+01 6.94693E+01 7.70030E+00 1.76172E+01 6.10375E-08-5.77169E-08
 -1        11-7.58390E+01-6.08646E+02-1.06960E+02 2.76975E+03-3.01483E-10-2.82761E-11
 -1        12-7.58390E+01-6.08646E+02-1.06960E+02 2.76975E+03-3.01483E-10-2.82761E-11
 -1        13 3.53825E+03 2.07741E+04 6.91784E+03 1.53379E+03-1.84790E-08-4.87344E-08
 -1        14 4.64272E+03 2.08840E+04 7.26529E+03 1.49965E+03-6.48110E-09-7.25847E-08
 -1        15 4.47305E+03 1.98259E+04 6.92796E+03 2.17470E+03 2.15580E-08-7.57971E-08
 -1        16 4.50842E+03 1.87753E+04 6.65146E+03 2.69033E+03 3.47477E-08-3.95637E-08
 -1        17 4.46619E+03 1.74261E+04 6.27097E+03 3.07766E+03 1.89942E-08-4.44061E-09
 -1        18 4.34393E+03 1.60029E+04 5.84555E+03 3.29144E+03-4.92394E-09-1.93543E-08
 -1        19 4.26890E+03 1.46795E+04 5.45875E+03 3.39920E+03-9.86726E-09-6.75070E-08
 -1        20 4.14697E+03 1.33458E+04 5.05313E+03 3.45451E+03 1.51616E-08-1.23831E-07
 -1        21 3.97295E+03 1.19559E+04 4.61541E+03 3.41094E+03 5.55666E-08-1.46895E-07
 -1        22 3.70306E+03 1.05922E+04 4.15550E+03 3.26173E+03 8.23959E-08-1.09296E-07
 -1        23 3.47363E+03 9.42428E+03 3.76043E+03 3.05632E+03 8.40460E-08-4.54393E-08
 -1        24 3.23257E+03 8.35765E+03 3.38771E+03 2.87186E+03 7.21893E-08 1.09167E-08
 -1        25 2.96691E+03 7.18887E+03 2.97625E+03 2.66510E+03 5.10290E-08 6.16310E-08
 -1        26 2.55285E+03 5.68801E+03 2.42365E+03 2.34039E+03 2.57816E-08 1.14775E-07
 -1        27 1.99158E+03 3.88769E+03 1.73734E+03 1.81585E+03-6.06371E-09 1.58297E-07
 -1        28 1.24332E+03 2.02937E+03 9.72104E+02 1.16260E+03-4.47887E-08 1.78250E-07
 -1        29 5.06547E+02 5.90541E+02 3.27141E+02 5.35733E+02-8.46808E-08 1.61410E-07
 -1        30-5.78307E+00-1.20875E+02-3.82387E+01 1.20466E+02-9.73135E-08 9.64723E-08
 -1        31-1.54037E+02-1.89412E+02-1.03087E+02-2.18070E+01-7.71288E-08-4.01528E-09
 -1        32 3.53825E+03 2.07741E+04 6.91784E+03 1.53379E+03-1.84790E-08-4.87344E-08
 -1        33 4.64272E+03 2.08840E+04 7.26529E+03 1.49965E+03-6.48110E-09-7.25847E-08
 -1        34 4.47305E+03 1.98259E+04 6.92796E+03 2.17470E+03 2.15580E-08-7.57969E-08
 -1        35 4.50842E+03 1.87753E+04 6.65146E+03 2.69033E+03 3.47477E-08-3.95635E-08
 -1        36 4.46619E+03 1.74261E+04 6.27097E+03 3.07766E+03 1.89942E-08-4.44155E-09
 -1        37 4.34393E+03 1.60029E+04 5.84555E+03 3.29144E+03-4.92477E-09-1.93507E-08
 -1        38 4.26890E+03 1.46795E+04 5.45875E+03 3.39920E+03-9.86707E-09-6.75112E-08
 -1        39 4.14697E+03 1.33458E+04 5.05313E+03 3.45451E+03 1.51616E-08-1.23831E-07
 -1        40 3.97295E+03 1.19559E+04 4.61541E+03 3.41094E+03 5.55666E-08-1.46896E-07
 -1        41 3.70306E+03 1.05922E+04 4.15550E+03 3.26173E+03 8.23959E-08-1.09296E-07
 -1        42 3.47363E+03 9.42428E+03 3.76043E+03 3.05632E+03 8.40464E-08-4.54375E-08
 -1        43 3.23257E+03 8.35765E+03 3.38771E+03 2.87186E+03 7.21887E-08 1.09162E-08
 -1        44 2.96691E+03 7.18887E+03 2.97625E+03 2.66510E+03 5.10289E-08 6.16267E-08
 -1        45 2.55285E+03 5.68801E+03 2.42365E+03 2.34039E+03 2.57816E-08 1.14776E-07
 -1        46 1.99158E+03 3.88769E+03 1.73734E+03 1.81585E+03-6.06374E-09 1.58293E-07
 -1        47 1.24332E+03 2.02937E+03 9.72104E+02 1.16260E+03-4.47887E-08 1.78254E-07
 -1        48 5.06547E+02 5.90541E+02 3.27141E+02 5.35733E+02-8.46814E-08 1.61419E-07
 -1        49-5.78307E+00-1.20875E+02-3.82387E+01 1.20466E+02-9.73134E-08 9.64649E-08
 -1        50-1.54037E+02-1.89412E+02-1.03087E+02-2.18070E+01-7.71281E-08-3.99507E-09
 -1        51 8.20800E+01 3.01652E+02 1.14876E+02 1.62900E+02 9.48562E-08 7.80103E-08
 -1        52 1.20443E+02 1.80518E+02 8.99045E+01 2.49606E+02 3.39096E-08 1.56873E-07
 -1        53-5.74689E+01-6.64506E+02-2.17489E+02 1.24831E+02-2.46466E-08 1.93334E-07
 -1        54-5.74403E+02-2.17238E+03-8.29529E+02-2.71288E+02-6.06616E-08 1.70379E-07
 -1        55-1.31148E+03-3.92662E+03-1.58922E+03-8.28145E+02-6.48872E-08 1.16615E-07
 -1        56-2.05595E+03-5.51122E+03-2.30594E+03-1.36137E+03-5.39083E-08 7.06888E-08
 -1        57-2.60563E+03-6.72851E+03-2.85404E+03-1.75646E+03-4.20405E-08 2.06197E-08
 -1        58-2.97890E+03-7.70963E+03-3.27670E+03-1.99357E+03-2.77469E-08-3.23971E-08
 -1        59-3.26063E+03-8.69732E+03-3.67542E+03-2.14183E+03-7.96625E-09-8.94184E-08
 -1        60-3.55824E+03-9.86432E+03-4.13908E+03-2.27017E+03 2.06171E-08-1.40333E-07
 -1        61-3.85362E+03-1.11565E+04-4.64618E+03-2.39982E+03 5.44790E-08-1.49338E-07
 -1        62-4.14399E+03-1.24542E+04-5.15667E+03-2.47855E+03 7.25405E-08-1.11828E-07
 -1        63-4.38400E+03-1.36997E+04-5.63677E+03-2.46181E+03 5.93119E-08-5.12660E-08
 -1        64-4.60611E+03-1.49808E+04-6.12602E+03-2.34596E+03 2.86204E-08-1.30870E-08
 -1        65-4.79410E+03-1.62996E+04-6.62185E+03-2.16057E+03-1.31391E-09-1.26496E-08
 -1        66-4.98663E+03-1.75281E+04-7.09240E+03-1.90184E+03-1.19803E-08-4.93737E-08
 -1        67-5.07037E+03-1.84685E+04-7.43288E+03-1.51371E+03 6.55222E-10-9.40026E-08
 -1        68-5.49461E+03-1.95087E+04-7.91320E+03-1.09446E+03 2.01327E-08-9.31850E-08
 -1        69-4.17442E+03-1.93541E+04-7.45447E+03 1.13556E+01 2.19432E-08-4.08296E-08
 -1        70 8.20800E+01 3.01652E+02 1.14876E+02 1.62900E+02 9.48556E-08 7.80033E-08
 -1        71 1.20443E+02 1.80518E+02 8.99045E+01 2.49606E+02 3.39091E-08 1.56875E-07
 -1        72-5.74689E+01-6.64506E+02-2.17489E+02 1.24831E+02-2.46453E-08 1.93336E-07
 -1        73-5.74403E+02-2.17238E+03-8.29529E+02-2.71288E+02-6.06621E-08 1.70374E-07
 -1        74-1.31148E+03-3.92662E+03-1.58922E+03-8.28145E+02-6.48868E-08 1.16627E-07
 -1        75-2.05595E+03-5.51122E+03-2.30594E+03-1.36137E+03-5.39084E-08 7.06883E-08
 -1        76-2.60563E+03-6.72851E+03-2.85404E+03-1.75646E+03-4.20403E-08 2.06207E-08
 -1        77-2.97890E+03-7.70963E+03-3.27670E+03-1.99357E+03-2.77503E-08-3.23845E-08
 -1        78-3.26063E+03-8.69732E+03-3.67542E+03-2.14183E+03-7.96557E-09-8.94156E-08
 -1        79-3.55824E+03-9.86432E+03-4.13908E+03-2.27017E+03 2.06142E-08-1.40333E-07
 -1        80-3.85362E+03-1.11565E+04-4.64618E+03-2.39982E+03 5.44786E-08-1.49339E-07
 -1        81-4.14399E+03-1.24542E+04-5.15667E+03-2.47855E+03 7.25404E-08-1.11827E-07
 -1        82-4.38400E+03-1.36997E+04-5.63677E+03-2.46181E+03 5.93119E-08-5.12688E-08
 -1        83-4.60611E+03-1.49808E+04-6.12602E+03-2.34596E+03 2.86197E-08-1.30870E-08
 -1        84-4.79410E+03-1.62996E+04-6.62185E+03-2.16057E+03-1.31427E-09-1.26530E-08
 -1        85-4.98663E+03-1.75281E+04-7.09240E+03-1.90184E+03-1.19787E-08-4.93729E-08
 -1        86-5.07037E+03-1.84685E+04-7.43288E+03-1.51371E+03 6.55095E-10-9.40026E-08
 -1        87-5.49461E+03-1.95087E+04-7.91320E+03-1.09446E+03 2.01327E-08-9.31850E-08
 -1        88-4.17442E+03-1.93541E+04-7.45447E+03 1.13556E+01 2.19432E-08-4.08296E-08
 -1        89-1.61660E+02-6.31029E+02-2.03208E+02 4.55926E+01-5.51799E-10-4.34113E-08
 -1        90-2.10258E+02-5.46919E+02-1.69061E+02 2.60103E+02 4.62828E-09-8.80688E-08
 -1        91-1.50848E+02-4.98724E+02-1.47725E+02 1.95099E+02 1.18577E-08-9.09419E-08
 -1        92-1.05581E+02-4.59646E+02-1.26528E+02 2.64941E+02 9.08970E-09-4.43832E-08
 -1        93-4.91532E+01-3.85765E+02-9.19816E+01 3.20205E+02 6.66910E-09-4.35303E-09
 -1        94-3.38742E+01-3.02246E+02-6.70904E+01 3.34572E+02 1.25272E-08-7.70215E-09
 -1        95 2.09266E+01-2.08595E+02-2.76549E+01 3.33475E+02 2.67296E-08-5.86325E-08
 -1        96 6.77308E+01-1.50620E+02-1.20938E+00 3.65500E+02 4.57952E-08-1.23190E-07
 -1        97 1.22036E+02-9.30304E+01 2.81983E+01 4.06006E+02 5.74754E-08-1.56949E-07
 -1        98 1.29888E+02-3.35192E+01 4.48773E+01 4.17331E+02 5.20046E-08-1.29439E-07
 -1        99 1.52605E+02 4.01172E+01 7.06779E+01 3.91074E+02 3.75713E-08-7.03056E-08
 -1       100 1.68008E+02 5.83879E+01 7.76605E+01 3.86358E+02 1.96439E-08-1.13442E-08
 -1       101 2.37793E+02 1.21604E+01 8.15513E+01 4.32013E+02 1.37001E-09 4.01029E-08
 -1       102 3.34353E+02-9.67218E+01 7.47782E+01 5.12274E+02-1.89672E-08 9.20060E-08
 -1       103 4.44839E+02-1.81551E+02 8.01229E+01 5.55640E+02-3.64008E-08 1.43810E-07
 -1       104 4.34217E+02-1.98448E+02 7.05731E+01 5.19734E+02-5.51045E-08 1.81179E-07
 -1       105 2.95355E+02-1.09932E+02 5.51501E+01 3.86227E+02-5.89467E-08 1.84557E-07
 -1       106 8.52343E+01 1.14153E+01 2.87035E+01 2.06121E+02-3.31741E-08 1.36464E-07
 -1       107-3.77355E+01 6.42576E+01 7.91389E+00 6.79593E+01 1.29236E-08 4.11978E-08
 -1       108-3.77355E+01 6.42576E+01 7.91389E+00 6.79593E+01 1.29204E-08 4.12049E-08
 -1       109 8.52343E+01 1.14153E+01 2.87035E+01 2.06121E+02-3.31731E-08 1.36461E-07
 -1       110 2.95355E+02-1.09932E+02 5.51501E+01 3.86227E+02-5.89495E-08 1.84551E-07
 -1       111 4.34217E+02-1.98448E+02 7.05731E+01 5.19734E+02-5.51036E-08 1.81173E-07
 -1       112 4.44839E+02-1.81551E+02 8.01229E+01 5.55640E+02-3.64016E-08 1.43819E-07
 -1       113 3.34353E+02-9.67218E+01 7.47782E+01 5.12274E+02-1.89669E-08 9.20067E-08
 -1       114 2.37793E+02 1.21604E+01 8.15513E+01 4.32013E+02 1.36957E-09 4.01018E-08
 -1       115 1.68008E+02 5.83879E+01 7.76605E+01 3.86358E+02 1.96452E-08-1.13460E-08
 -1       116 1.52605E+02 4.01172E+01 7.06779E+01 3.91074E+02 3.75709E-08-7.03086E-08
 -1       117 1.29888E+02-3.35192E+01 4.48773E+01 4.17331E+02 5.20051E-08-1.29440E-07
 -1       118 1.22036E+02-9.30304E+01 2.81983E+01 4.06006E+02 5.74749E-08-1.56944E-07
 -1       119 6.77308E+01-1.50620E+02-1.20938E+00 3.65500E+02 4.57953E-08-1.23190E-07
 -1       120 2.09266E+01-2.08595E+02-2.76549E+01 3.33475E+02 2.67296E-08-5.86328E-08
 -1       121-3.38742E+01-3.02246E+02-6.70904E+01 3.34572E+02 1.25274E-08-7.70201E-09
 -1       122-4.91532E+01-3.85765E+02-9.19816E+01 3.20205E+02 6.66912E-09-4.35114E-09
 -1       123-1.05581E+02-4.59646E+02-1.26528E+02 2.64941E+02 9.08948E-09-4.43836E-08
 -1       124-1.50848E+02-4.98724E+02-1.47725E+02 1.95099E+02 1.18575E-08-9.09424E-08
 -1       125-2.10258E+02-5.46919E+02-1.69061E+02 2.60103E+02 4.62834E-09-8.80688E-08
 -1       126-1.61660E+02-6.31029E+02-2.03208E+02 4.55926E+01-5.51799E-10-4.34113E-08
 -3
    1PSTEP                       307          77           1          
  100CL  177 7.70000E-01         126                     1   77           1
 -4  TOSTRAIN    6    1
 -5  EXX         1    4    1    1
 -5  EYY         1    4    2    2
 -5  EZZ         1    4    3    3
 -5  EXY         1    4    1    2
 -5  EYZ         1    4    2    3
 -5  EZX         1    4    3    1
 -1         1-1.55885E-04 4.19546E-02-9.15596E-27 1.52979E-02 4.41990E-19-6.96512E-16
 -1         2-1.55885E-04 4.19546E-02-9.15596E-27 1.52979E-02 4.41990E-19-6.96512E-16
 -1         3-1.01830E-04-1.96484E-04 1.83401E-25-9.08141E-05-2.51914E-13-2.65560E-13
 -1         4-1.01830E-04-1.96484E-04 1.83400E-25-9.08141E-05-2.51916E-13-2.65562E-13
 -1         5-1.87346E-04 5.47669E-04 3.63631E-25-3.62582E-05 3.94596E-13-2.45881E-13
 -1         6-1.87346E-04 5.47669E-04 3.63634E-25-3.62582E-05 3.94597E-13-2.45883E-13
 -1         7-1.53899E-04-4.13849E-02-7.53636E-27 1.38008E-02-3.67293E-19 7.63378E-16
 -1         8-1.53899E-04-4.13849E-02-7.53636E-27 1.38008E-02-3.67293E-19 7.63378E-16
 -1         9-1.44588E-04 1.77933E-04 7.13912E-26-1.05577E-04 9.93491E-14-2.54312E-13
 -1        10-1.44588E-04 1.77933E-04 7.13930E-26-1.05577E-04 9.93554E-14-2.54307E-13
 -1        11-1.54892E-04-6.18559E-04-6.38870E-27 9.05563E-03-2.21949E-21-4.61159E-17
 -1        12-1.54892E-04-6.18559E-04-6.38870E-27 9.05563E-03-2.21949E-21-4.61159E-17
 -1        13-1.16986E-02 4.22542E-02 4.92726E-26 2.40550E-03-6.29424E-14-1.54453E-13
 -1        14-9.46703E-03 4.16497E-02 1.08530E-25 3.45279E-04-3.86586E-14-2.31049E-13
 -1        15-9.41339E-03 4.00657E-02 1.26872E-25 6.36934E-04 3.70091E-14-2.51022E-13
 -1        16-8.97374E-03 3.83816E-02 4.94509E-26 7.62374E-04 8.61384E-14-1.44276E-13
 -1        17-8.46988E-03 3.61669E-02 3.14573E-27 9.14910E-04 5.50206E-14-2.63740E-14
 -1        18-7.98151E-03 3.37682E-02 1.75959E-27 8.96443E-04-2.89405E-14-5.71222E-14
 -1        19-7.40597E-03 3.14609E-02 8.12466E-26 8.52514E-04-8.52025E-14-2.01878E-13
 -1        20-6.90101E-03 2.91427E-02 3.15560E-25 9.11441E-04-6.75916E-14-3.97042E-13
 -1        21-6.34031E-03 2.66303E-02 5.16648E-25 9.81585E-04 1.91054E-14-5.07623E-13
 -1        22-5.81110E-03 2.40544E-02 3.80611E-25 9.28567E-04 1.26931E-13-4.23599E-13
 -1        23-5.21908E-03 2.17092E-02 1.65151E-25 8.04769E-04 1.95999E-13-2.35642E-13
 -1        24-4.75917E-03 1.95980E-02 8.28726E-26 7.83977E-04 2.24909E-13-5.61549E-14
 -1        25-4.26061E-03 1.72812E-02 1.06563E-25 9.49604E-04 2.26354E-13 1.17857E-13
 -1        26-3.61389E-03 1.42000E-02 2.66202E-25 1.23356E-03 2.24618E-13 3.05174E-13
 -1        27-2.61672E-03 1.01914E-02 5.14147E-25 1.45671E-03 1.94833E-13 4.74288E-13
 -1        28-1.57829E-03 5.80808E-03 7.06823E-25 1.40980E-03 1.13581E-13 5.85582E-13
 -1        29-7.17475E-04 2.13856E-03 6.89155E-25 9.91226E-04-2.43747E-14 5.91937E-13
 -1        30-2.67565E-04 1.02099E-04 3.51912E-25 3.91913E-04-1.51761E-13 4.18949E-13
 -1        31-1.32186E-04-3.14382E-04 5.03158E-26-4.89405E-07-2.32351E-13 9.52623E-14
 -1        32-1.16986E-02 4.22542E-02 4.92726E-26 2.40550E-03-6.29424E-14-1.54453E-13
 -1        33-9.46703E-03 4.16497E-02 1.08530E-25 3.45279E-04-3.86586E-14-2.31049E-13
 -1        34-9.41339E-03 4.00657E-02 1.26871E-25 6.36934E-04 3.70092E-14-2.51022E-13
 -1        35-8.97374E-03 3.83816E-02 4.94509E-26 7.62374E-04 8.61386E-14-1.44276E-13
 -1        36-8.46988E-03 3.61669E-02 3.14615E-27 9.14910E-04 5.50200E-14-2.63771E-14
 -1        37-7.98151E-03 3.37682E-02 1.75448E-27 8.96443E-04-2.89403E-14-5.71102E-14
 -1        38-7.40597E-03 3.14609E-02 8.12554E-26 8.52514E-04-8.52052E-14-2.01891E-13
 -1        39-6.90101E-03 2.91427E-02 3.15560E-25 9.11441E-04-6.75916E-14-3.97042E-13
 -1        40-6.34031E-03 2.66303E-02 5.16660E-25 9.81585E-04 1.91034E-14-5.07629E-13
 -1        41-5.81110E-03 2.40544E-02 3.80608E-25 9.28567E-04 1.26932E-13-4.23597E-13
 -1        42-5.21908E-03 2.17092E-02 1.65147E-25 8.04769E-04 1.96003E-13-2.35636E-13
 -1        43-4.75917E-03 1.95980E-02 8.28730E-26 7.83977E-04 2.24907E-13-5.61558E-14
 -1        44-4.26061E-03 1.72812E-02 1.06550E-25 9.49604E-04 2.26348E-13 1.17844E-13
 -1        45-3.61389E-03 1.42000E-02 2.66205E-25 1.23356E-03 2.24619E-13 3.05178E-13
 -1        46-2.61672E-03 1.01914E-02 5.14122E-25 1.45671E-03 1.94828E-13 4.74276E-13
 -1        47-1.57829E-03 5.80808E-03 7.06855E-25 1.40980E-03 1.13588E-13 5.85595E-13
 -1        48-7.17475E-04 2.13856E-03 6.89204E-25 9.91226E-04-2.43637E-14 5.91965E-13
 -1        49-2.67565E-04 1.02099E-04 3.51854E-25 3.91913E-04-1.51771E-13 4.18927E-13
 -1        50-1.32186E-04-3.14382E-04 5.03149E-26-4.89405E-07-2.32321E-13 9.53208E-14
 -1        51-3.85842E-04 8.83926E-04 2.52174E-25 6.02736E-05 3.86607E-13 9.75456E-14
 -1        52-4.94532E-04 8.84317E-04 5.00399E-25 4.38357E-04 3.17386E-13 4.13517E-13
 -1        53-1.58827E-04-7.81697E-04 7.86696E-25 1.02396E-03 1.96575E-13 6.02183E-13
 -1        54 5.56778E-04-4.13928E-03 6.82974E-25 1.45037E-03 5.72629E-14 5.85549E-13
 -1        55 1.42852E-03-8.27829E-03 3.62610E-25 1.51198E-03-3.31423E-14 4.33421E-13
 -1        56 2.18452E-03-1.21035E-02 1.53217E-25 1.27149E-03-6.71863E-14 2.82165E-13
 -1        57 2.78909E-03-1.50459E-02 2.94359E-26 9.63601E-04-1.01100E-13 1.16049E-13
 -1        58 3.22110E-03-1.72742E-02 1.88946E-26 8.00359E-04-1.26253E-13-6.33202E-14
 -1        59 3.63508E-03-1.93774E-02 1.51144E-25 8.30173E-04-1.32450E-13-2.62501E-13
 -1        60 4.11280E-03-2.18131E-02 4.13519E-25 9.36797E-04-9.50198E-14-4.53387E-13
 -1        61 4.72234E-03-2.45575E-02 5.27783E-25 9.71316E-04 1.44778E-14-5.18852E-13
 -1        62 5.29572E-03-2.72724E-02 3.66131E-25 9.10297E-04 1.24440E-13-4.18667E-13
 -1        63 5.81645E-03-2.98002E-02 1.20814E-25 8.64580E-04 1.48525E-13-2.12846E-13
 -1        64 6.31180E-03-3.23331E-02 1.62848E-26 8.96761E-04 8.46041E-14-6.34355E-14
 -1        65 6.90049E-03-3.49800E-02-1.17007E-27 9.03844E-04-1.30421E-14-3.95934E-14
 -1        66 7.40436E-03-3.74305E-02 4.77147E-26 7.62511E-04-6.84499E-14-1.52781E-13
 -1        67 7.85315E-03-3.92852E-02 1.81150E-25 6.64408E-04-3.81645E-14-3.05187E-13
 -1        68 7.73258E-03-4.11346E-02 1.85493E-25 3.44311E-04 4.24127E-14-3.09365E-13
 -1        69 1.02579E-02-4.18127E-02 3.66687E-26 2.29442E-03 7.03437E-14-1.36429E-13
 -1        70-3.85842E-04 8.83926E-04 2.52148E-25 6.02736E-05 3.86595E-13 9.75260E-14
 -1        71-4.94532E-04 8.84317E-04 5.00406E-25 4.38357E-04 3.17388E-13 4.13523E-13
 -1        72-1.58827E-04-7.81697E-04 7.86710E-25 1.02396E-03 1.96582E-13 6.02187E-13
 -1        73 5.56778E-04-4.13928E-03 6.82945E-25 1.45037E-03 5.72546E-14 5.85536E-13
 -1        74 1.42852E-03-8.27829E-03 3.62676E-25 1.51198E-03-3.31244E-14 4.33456E-13
 -1        75 2.18452E-03-1.21035E-02 1.53217E-25 1.27149E-03-6.71875E-14 2.82164E-13
 -1        76 2.78909E-03-1.50459E-02 2.94392E-26 9.63601E-04-1.01098E-13 1.16052E-13
 -1        77 3.22110E-03-1.72742E-02 1.88792E-26 8.00359E-04-1.26248E-13-6.32782E-14
 -1        78 3.63508E-03-1.93774E-02 1.51130E-25 8.30173E-04-1.32445E-13-2.62493E-13
 -1        79 4.11280E-03-2.18131E-02 4.13514E-25 9.36797E-04-9.50289E-14-4.53383E-13
 -1        80 4.72234E-03-2.45575E-02 5.27786E-25 9.71316E-04 1.44756E-14-5.18855E-13
 -1        81 5.29572E-03-2.72724E-02 3.66127E-25 9.10297E-04 1.24441E-13-4.18663E-13
 -1        82 5.81645E-03-2.98002E-02 1.20823E-25 8.64580E-04 1.48522E-13-2.12855E-13
 -1        83 6.31180E-03-3.23331E-02 1.62844E-26 8.96761E-04 8.46018E-14-6.34349E-14
 -1        84 6.90049E-03-3.49800E-02-1.16761E-27 9.03844E-04-1.30456E-14-3.96040E-14
 -1        85 7.40436E-03-3.74305E-02 4.77132E-26 7.62511E-04-6.84442E-14-1.52779E-13
 -1        86 7.85315E-03-3.92852E-02 1.81150E-25 6.64408E-04-3.81649E-14-3.05186E-13
 -1        87 7.73258E-03-4.11346E-02 1.85493E-25 3.44311E-04 4.24126E-14-3.09365E-13
 -1        88 1.02579E-02-4.18127E-02 3.66687E-26 2.29442E-03 7.03437E-14-1.36429E-13
 -1        89-7.20344E-04-3.44193E-04 3.16487E-26 2.07959E-04-7.37738E-15-1.40983E-13
 -1        90-8.67227E-04-7.74843E-05 1.60233E-25 9.27505E-04-8.94156E-15-2.86584E-13
 -1        91-7.80119E-04-4.77198E-05 1.73729E-25 7.53211E-04 1.43565E-15-2.98198E-13
 -1        92-7.84693E-04 6.39724E-05 3.50159E-26 9.99105E-04 5.50171E-15-1.47235E-13
 -1        93-7.84693E-04 2.34116E-04-1.71469E-27 1.16972E-03 1.83653E-14-1.82094E-14
 -1        94-8.34853E-04 4.13018E-04-1.44821E-27 1.16479E-03 3.37853E-14-3.39045E-14
 -1        95-7.94760E-04 5.62147E-04 7.05748E-26 1.12031E-03 3.36737E-14-2.06898E-13
 -1        96-8.02644E-04 7.01851E-04 3.52820E-25 1.18066E-03 2.56469E-14-4.26668E-13
 -1        97-8.08983E-04 8.52438E-04 5.88691E-25 1.26045E-03 1.52924E-14-5.43353E-13
 -1        98-8.49150E-04 9.80464E-04 4.00817E-25 1.20858E-03 1.58441E-14-4.53386E-13
 -1        99-7.92002E-04 1.04755E-03 1.12724E-25 1.06028E-03 3.16271E-14-2.57337E-13
 -1       100-7.69032E-04 1.06487E-03-1.10479E-26 1.01770E-03 4.52977E-14-5.84159E-14
 -1       101-7.35760E-04 1.05794E-03 1.45147E-26 1.22933E-03 5.56423E-14 1.17914E-13
 -1       102-7.14683E-04 1.01786E-03 1.68649E-25 1.62796E-03 6.58431E-14 2.98068E-13
 -1       103-5.94099E-04 9.30407E-04 4.51863E-25 1.94219E-03 8.81929E-14 4.73831E-13
 -1       104-5.10757E-04 8.12834E-04 7.54437E-25 1.86594E-03 8.81038E-14 6.08990E-13
 -1       105-4.38151E-04 6.76521E-04 7.84356E-25 1.30287E-03 8.32871E-14 6.24092E-13
 -1       106-3.81049E-04 5.05396E-04 3.73787E-25 5.16677E-04 9.22184E-14 4.47043E-13
 -1       107-2.59014E-04 2.93267E-04-3.35056E-26 1.22159E-05 9.51382E-14 1.03153E-13
 -1       108-2.59014E-04 2.93267E-04-3.34705E-26 1.22159E-05 9.51386E-14 1.03178E-13
 -1       109-3.81049E-04 5.05396E-04 3.73782E-25 5.16677E-04 9.22176E-14 4.47033E-13
 -1       110-4.38151E-04 6.76521E-04 7.84325E-25 1.30287E-03 8.32719E-14 6.24080E-13
 -1       111-5.10757E-04 8.12834E-04 7.54395E-25 1.86594E-03 8.80989E-14 6.08972E-13
 -1       112-5.94099E-04 9.30407E-04 4.51922E-25 1.94219E-03 8.82023E-14 4.73857E-13
 -1       113-7.14683E-04 1.01786E-03 1.68648E-25 1.62796E-03 6.58451E-14 2.98069E-13
 -1       114-7.35760E-04 1.05794E-03 1.45101E-26 1.22933E-03 5.56394E-14 1.17911E-13
 -1       115-7.69032E-04 1.06487E-03-1.10469E-26 1.01770E-03 4.52991E-14-5.84229E-14
 -1       116-7.92002E-04 1.04755E-03 1.12731E-25 1.06028E-03 3.16224E-14-2.57346E-13
 -1       117-8.49150E-04 9.80464E-04 4.00824E-25 1.20858E-03 1.58444E-14-4.53390E-13
 -1       118-8.08983E-04 8.52438E-04 5.88658E-25 1.26045E-03 1.52960E-14-5.43337E-13
 -1       119-8.02644E-04 7.01851E-04 3.52822E-25 1.18066E-03 2.56466E-14-4.26670E-13
 -1       120-7.94760E-04 5.62147E-04 7.05744E-26 1.12031E-03 3.36734E-14-2.06898E-13
 -1       121-8.34853E-04 4.13018E-04-1.44841E-27 1.16479E-03 3.37861E-14-3.39043E-14
 -1       122-7.84693E-04 2.34116E-04-1.71561E-27 1.16972E-03 1.83666E-14-1.82034E-14
 -1       123-7.84693E-04 6.39724E-05 3.50160E-26 9.99105E-04 5.50078E-15-1.47236E-13
 -1       124-7.80119E-04-4.77198E-05 1.73731E-25 7.53211E-04 1.43497E-15-2.98199E-13
 -1       125-8.67227E-04-7.74843E-05 1.60233E-25 9.27505E-04-8.94136E-15-2.86583E-13
 -1       126-7.20344E-04-3.44193E-04 3.16487E-26 2.07959E-04-7.37738E-15-1.40983E-13
 -3
    1PSTEP                       308          77           1          
  100CL  177 7.70000E-01         126                     1   77           1
 -4  ERROR       1    1
 -5  STR(%)      1    1    0    0
 -1         1 6.29604E+01
 -1         2 6.29604E+01
 -1         3 5.01695E+01
 -1         4 5.01695E+01
 -1         5 3.99213E+01
 -1         6 3.99213E+01
 -1         7 5.86935E+01
 -1         8 5.86935E+01
 -1         9 5.01695E+01
 -1        10 5.01695E+01
 -1        11 6.29604E+01
 -1        12 6.29604E+01
 -1        13 6.29604E+01
 -1        14 6.19279E+01
 -1        15 6.16296E+01
 -1        16 6.16296E+01
 -1        17 6.16039E+01
 -1        18 6.13605E+01
 -1        19 6.07896E+01
 -1        20 6.04138E+01
 -1        21 6.00575E+01
 -1        22 5.95966E+01
 -1        23 5.87862E+01
 -1        24 5.82167E+01
 -1        25 5.79125E+01
 -1        26 5.77640E+01
 -1        27 5.61842E+01
 -1        28 5.05852E+01
 -1        29 3.43793E+01
 -1        30 5.07107E+01
 -1        31 5.07107E+01
 -1        32 6.29604E+01
 -1        33 6.19279E+01
 -1        34 6.16296E+01
 -1        35 6.16296E+01
 -1        36 6.16039E+01
 -1        37 6.13605E+01
 -1        38 6.07896E+01
 -1        39 6.04138E+01
 -1        40 6.00575E+01
 -1        41 5.95966E+01
 -1        42 5.87862E+01
 -1        43 5.82167E+01
 -1        44 5.79125E+01
 -1        45 5.77640E+01
 -1        46 5.61842E+01
 -1        47 5.05852E+01
 -1        48 3.43793E+01
 -1        49 5.07107E+01
 -1        50 5.07107E+01
 -1        51 4.09361E+01
 -1        52 4.09361E+01
 -1        53 4.37936E+01
 -1        54 6.24921E+01
 -1        55 6.80413E+01
 -1        56 6.80413E+01
 -1        57 6.72516E+01
 -1        58 6.57173E+01
 -1        59 6.48595E+01
 -1        60 6.43389E+01
 -1        61 6.34673E+01
 -1        62 6.24362E+01
 -1        63 6.15112E+01
 -1        64 6.09456E+01
 -1        65 6.04124E+01
 -1        66 5.97708E+01
 -1        67 5.90790E+01
 -1        68 5.91178E+01
 -1        69 5.91178E+01
 -1        70 4.09361E+01
 -1        71 4.09361E+01
 -1        72 4.37936E+01
 -1        73 6.24921E+01
 -1        74 6.80413E+01
 -1        75 6.80413E+01
 -1        76 6.72516E+01
 -1        77 6.57173E+01
 -1        78 6.48595E+01
 -1        79 6.43389E+01
 -1        80 6.34673E+01
 -1        81 6.24362E+01
 -1        82 6.15112E+01
 -1        83 6.09456E+01
 -1        84 6.04124E+01
 -1        85 5.97708E+01
 -1        86 5.90790E+01
 -1        87 5.91178E+01
 -1        88 5.91178E+01
 -1        89 6.29604E+01
 -1        90 6.19279E+01
 -1        91 6.16296E+01
 -1        92 6.16296E+01
 -1        93 6.16039E+01
 -1        94 6.13605E+01
 -1        95 6.15112E+01
 -1        96 6.24362E+01
 -1        97 6.34673E+01
 -1        98 6.43389E+01
 -1        99 6.48595E+01
 -1       100 6.57173E+01
 -1       101 6.72516E+01
 -1       102 6.80413E+01
 -1       103 6.80413E+01
 -1       104 6.24921E+01
 -1       105 4.37936E+01
 -1       106 5.07107E+01
 -1       107 5.07107E+01
 -1       108 5.07107E+01
 -1       109 5.07107E+01
 -1       110 4.37936E+01
 -1       111 6.24921E+01
 -1       112 6.80413E+01
 -1       113 6.80413E+01
 -1       114 6.72516E+01
 -1       115 6.57173E+01
 -1       116 6.48595E+01
 -1       117 6.43389E+01
 -1       118 6.34673E+01
 -1       119 6.24362E+01
 -1       120 6.15112E+01
 -1       121 6.13605E+01
 -1       122 6.16039E+01
 -1       123 6.16296E+01
 -1       124 6.16296E+01
 -1       125 6.19279E+01
 -1       126 6.29604E+01
 -3
    1PSTEP                       309          78           1          
  100CL  178 7.80000E-01         126                     1   78           1
 -4  DISP        4    1
 -5  D1          1    2    1    0
 -5  D2          1    2    2    0
 -5  D3          1    2    3    0
 -5  ALL         1    2    0    0    1ALL
 -1         1 0.00000E+00 0.00000E+00 0.00000E+00
 -1         2 0.00000E+00 0.00000E+00 0.00000E+00
 -1         3 3.09430E-01-3.48315E-02 0.00000E+00
 -1         4 3.09430E-01-3.48315E-02 0.00000E+00
 -1         5 2.99413E-01-7.84213E-02 0.00000E+00
 -1         6 2.99413E-01-7.84213E-02 0.00000E+00
 -1         7 0.00000E+00 0.00000E+00 0.00000E+00
 -1         8 0.00000E+00 0.00000E+00 0.00000E+00
 -1         9 3.04421E-01-5.66236E-02 0.00000E+00
 -1        10 3.04421E-01-5.66236E-02 0.00000E+00
 -1        11 0.00000E+00 0.00000E+00 0.00000E+00
 -1        12 0.00000E+00 0.00000E+00 0.00000E+00
 -1        13 1.50558E-03 2.05787E-03 0.00000E+00
 -1        14 4.83003E-03 4.08300E-03 0.00000E+00
 -1        15 1.03718E-02 5.84600E-03 0.00000E+00
 -1        16 1.80141E-02 7.28855E-03 0.00000E+00
 -1        17 2.76840E-02 8.30939E-03 0.00000E+00
 -1        18 3.92499E-02 8.82291E-03 0.00000E+00
 -1        19 5.25258E-02 8.77734E-03 0.00000E+00
 -1        20 6.73336E-02 8.15376E-03 0.00000E+00
 -1        21 8.35003E-02 6.95967E-03 0.00000E+00
 -1        22 1.00878E-01 5.20598E-03 0.00000E+00
 -1        23 1.19309E-01 2.90948E-03 0.00000E+00
 -1        24 1.38638E-01 9.63241E-05 0.00000E+00
 -1        25 1.58702E-01-3.18000E-03 0.00000E+00
 -1        26 1.79378E-01-6.86501E-03 0.00000E+00
 -1        27 2.00557E-01-1.09199E-02 0.00000E+00
 -1        28 2.22126E-01-1.53197E-02 0.00000E+00
 -1        29 2.43920E-01-2.00048E-02 0.00000E+00
 -1        30 2.65783E-01-2.48793E-02 0.00000E+00
 -1        31 2.87623E-01-2.98421E-02 0.00000E+00
 -1        32 1.50558E-03 2.05787E-03 0.00000E+00
 -1        33 4.83003E-03 4.08300E-03 0.00000E+00
 -1        34 1.03718E-02 5.84600E-03 0.00000E+00
 -1        35 1.80141E-02 7.28855E-03 0.00000E+00
 -1        36 2.76840E-02 8.30939E-03 0.00000E+00
 -1        37 3.92499E-02 8.82291E-03 0.00000E+00
 -1        38 5.25258E-02 8.77734E-03 0.00000E+00
 -1        39 6.73336E-02 8.15376E-03 0.00000E+00
 -1        40 8.35003E-02 6.95967E-03 0.00000E+00
 -1        41 1.00878E-01 5.20598E-03 0.00000E+00
 -1        42 1.19309E-01 2.90948E-03 0.00000E+00
 -1        43 1.38638E-01 9.63241E-05 0.00000E+00
 -1        44 1.58702E-01-3.18000E-03 0.00000E+00
 -1        45 1.79378E-01-6.86501E-03 0.00000E+00
 -1        46 2.00557E-01-1.09199E-02 0.00000E+00
 -1        47 2.22126E-01-1.53197E-02 0.00000E+00
 -1        48 2.43920E-01-2.00048E-02 0.00000E+00
 -1        49 2.65783E-01-2.48793E-02 0.00000E+00
 -1        50 2.87623E-01-2.98421E-02 0.00000E+00
 -1        51 2.77602E-01-7.34156E-02 0.00000E+00
 -1        52 2.55782E-01-6.83852E-02 0.00000E+00
 -1        53 2.34013E-01-6.33009E-02 0.00000E+00
 -1        54 2.12425E-01-5.81664E-02 0.00000E+00
 -1        55 1.91188E-01-5.30380E-02 0.00000E+00
 -1        56 1.70445E-01-4.79949E-02 0.00000E+00
 -1        57 1.50302E-01-4.30987E-02 0.00000E+00
 -1        58 1.30849E-01-3.83756E-02 0.00000E+00
 -1        59 1.12211E-01-3.38452E-02 0.00000E+00
 -1        60 9.45421E-02-2.95379E-02 0.00000E+00
 -1        61 7.79878E-02-2.54889E-02 0.00000E+00
 -1        62 6.26697E-02-2.17137E-02 0.00000E+00
 -1        63 4.87175E-02-1.82106E-02 0.00000E+00
 -1        64 3.62779E-02-1.49682E-02 0.00000E+00
 -1        65 2.55119E-02-1.19789E-02 0.00000E+00
 -1        66 1.65512E-02-9.23378E-03 0.00000E+00
 -1        67 9.49519E-03-6.71322E-03 0.00000E+00
 -1        68 4.38031E-03-4.37576E-03 0.00000E+00
 -1        69 1.34152E-03-2.11375E-03 0.00000E+00
 -1        70 2.77602E-01-7.34156E-02 0.00000E+00
 -1        71 2.55782E-01-6.83852E-02 0.00000E+00
 -1        72 2.34013E-01-6.33009E-02 0.00000E+00
 -1        73 2.12425E-01-5.81664E-02 0.00000E+00
 -1        74 1.91188E-01-5.30380E-02 0.00000E+00
 -1        75 1.70445E-01-4.79949E-02 0.00000E+00
 -1        76 1.50302E-01-4.30987E-02 0.00000E+00
 -1        77 1.30849E-01-3.83756E-02 0.00000E+00
 -1        78 1.12211E-01-3.38452E-02 0.00000E+00
 -1        79 9.45421E-02-2.95379E-02 0.00000E+00
 -1        80 7.79878E-02-2.54889E-02 0.00000E+00
 -1        81 6.26697E-02-2.17137E-02 0.00000E+00
 -1        82 4.87175E-02-1.82106E-02 0.00000E+00
 -1        83 3.62779E-02-1.49682E-02 0.00000E+00
 -1        84 2.55119E-02-1.19789E-02 0.00000E+00
 -1        85 1.65512E-02-9.23378E-03 0.00000E+00
 -1        86 9.49519E-03-6.71322E-03 0.00000E+00
 -1        87 4.38031E-03-4.37576E-03 0.00000E+00
 -1        88 1.34152E-03-2.11375E-03 0.00000E+00
 -1        89 8.70906E-04-1.86919E-05 0.00000E+00
 -1        90 4.16826E-03-1.09018E-04 0.00000E+00
 -1        91 9.49479E-03-3.76587E-04 0.00000E+00
 -1        92 1.68648E-02-9.01387E-04 0.00000E+00
 -1        93 2.62043E-02-1.75183E-03 0.00000E+00
 -1        94 3.74009E-02-2.98126E-03 0.00000E+00
 -1        95 5.02941E-02-4.62174E-03 0.00000E+00
 -1        96 6.47072E-02-6.68566E-03 0.00000E+00
 -1        97 8.04806E-02-9.17262E-03 0.00000E+00
 -1        98 9.74771E-02-1.20769E-02 0.00000E+00
 -1        99 1.15560E-01-1.53850E-02 0.00000E+00
 -1       100 1.34574E-01-1.90657E-02 0.00000E+00
 -1       101 1.54360E-01-2.30745E-02 0.00000E+00
 -1       102 1.74793E-01-2.73729E-02 0.00000E+00
 -1       103 1.95781E-01-3.19322E-02 0.00000E+00
 -1       104 2.17213E-01-3.67102E-02 0.00000E+00
 -1       105 2.38932E-01-4.16342E-02 0.00000E+00
 -1       106 2.60769E-01-4.66235E-02 0.00000E+00
 -1       107 2.82610E-01-5.16248E-02 0.00000E+00
 -1       108 2.82610E-01-5.16248E-02 0.00000E+00
 -1       109 2.60769E-01-4.66235E-02 0.00000E+00
 -1       110 2.38932E-01-4.16342E-02 0.00000E+00
 -1       111 2.17213E-01-3.67102E-02 0.00000E+00
 -1       112 1.95781E-01-3.19322E-02 0.00000E+00
 -1       113 1.74793E-01-2.73729E-02 0.00000E+00
 -1       114 1.54360E-01-2.30745E-02 0.00000E+00
 -1       115 1.34574E-01-1.90657E-02 0.00000E+00
 -1       116 1.15560E-01-1.53850E-02 0.00000E+00
 -1       117 9.74771E-02-1.20769E-02 0.00000E+00
 -1       118 8.04806E-02-9.17262E-03 0.00000E+00
 -1       119 6.47072E-02-6.68566E-03 0.00000E+00
 -1       120 5.02941E-02-4.62174E-03 0.00000E+00
 -1       121 3.74009E-02-2.98126E-03 0.00000E+00
 -1       122 2.62043E-02-1.75183E-03 0.00000E+00
 -1       123 1.68648E-02-9.01387E-04 0.00000E+00
 -1       124 9.49479E-03-3.76587E-04 0.00000E+00
 -1       125 4.16826E-03-1.09018E-04 0.00000E+00
 -1       126 8.70906E-04-1.86919E-05 0.00000E+00
 -3
    1PSTEP                       310          78           1          
  100CL  178 7.80000E-01         126                     1   78           1
 -4  STRESS      6    1
 -5  SXX         1    4    1    1
 -5  SYY         1    4    2    2
 -5  SZZ         1    4    3    3
 -5  SXY         1    4    1    2
 -5  SYZ         1    4    2    3
 -5  SZX         1    4    3    1
 -1         1 9.62148E+03 2.34281E+04 9.40852E+03 5.22401E+03-1.37744E-10-1.23482E-10
 -1         2 9.62148E+03 2.34281E+04 9.40852E+03 5.22401E+03-1.37744E-10-1.23482E-10
 -1         3 1.45864E+01 8.03334E+01 2.84539E+01 6.65224E+01-1.77886E-08 7.42604E-08
 -1         4 1.45864E+01 8.03334E+01 2.84539E+01 6.65224E+01-1.77891E-08 7.42653E-08
 -1         5-2.06875E+01-4.16768E+01-1.87162E+01 4.01041E+01-4.46517E-12 8.55434E-08
 -1         6-2.06875E+01-4.16768E+01-1.87162E+01 4.01041E+01-5.33257E-12 8.55296E-08
 -1         7-9.73312E+03-2.15007E+04-9.88203E+03 3.60470E+03-1.86117E-10 1.43256E-10
 -1         8-9.73312E+03-2.15007E+04-9.88203E+03 3.60470E+03-1.86117E-10 1.43260E-10
 -1         9 2.75806E+00 1.20561E+01 4.43260E+00 5.80973E+01-1.83880E-08 7.25782E-08
 -1        10 2.75806E+00 1.20561E+01 4.43260E+00 5.80973E+01-1.83870E-08 7.25691E-08
 -1        11-2.81021E+01-4.79748E+02-5.11860E+01 2.66450E+03-1.52421E-10-3.48256E-12
 -1        12-2.81021E+01-4.79748E+02-5.11860E+01 2.66450E+03-1.52421E-10-3.48989E-12
 -1        13 3.55808E+03 2.10738E+04 7.00223E+03 1.48849E+03-3.75678E-09-2.06641E-08
 -1        14 4.70192E+03 2.13846E+04 7.41378E+03 1.51072E+03 1.18849E-09-3.99057E-08
 -1        15 4.57885E+03 2.04766E+04 7.13114E+03 2.23718E+03 1.64358E-09-3.30424E-08
 -1        16 4.65834E+03 1.95865E+04 6.91069E+03 2.80881E+03-6.37670E-10-5.43628E-08
 -1        17 4.66772E+03 1.83457E+04 6.57411E+03 3.28553E+03-7.81604E-09-5.70417E-08
 -1        18 4.58000E+03 1.68286E+04 6.13384E+03 3.57891E+03-1.01531E-08-9.51953E-08
 -1        19 4.48761E+03 1.52341E+04 5.67009E+03 3.68215E+03-4.36536E-09-1.23998E-07
 -1        20 4.30588E+03 1.36608E+04 5.18338E+03 3.66676E+03 2.05575E-08-1.66892E-07
 -1        21 4.08191E+03 1.21631E+04 4.70201E+03 3.57224E+03 5.54303E-08-1.69934E-07
 -1        22 3.78637E+03 1.06757E+04 4.19997E+03 3.40764E+03 7.35637E-08-1.22147E-07
 -1        23 3.49832E+03 9.21437E+03 3.70564E+03 3.14328E+03 6.32393E-08-5.34568E-08
 -1        24 3.12459E+03 7.79606E+03 3.19551E+03 2.81604E+03 4.76016E-08-4.24364E-10
 -1        25 2.72509E+03 6.52016E+03 2.71480E+03 2.46790E+03 3.16637E-08 4.55798E-08
 -1        26 2.30607E+03 5.31948E+03 2.24636E+03 2.13149E+03 1.87199E-08 7.17080E-08
 -1        27 1.91664E+03 4.08214E+03 1.77323E+03 1.75486E+03-4.13692E-10 1.03929E-07
 -1        28 1.42224E+03 2.73304E+03 1.23307E+03 1.31440E+03-1.71068E-08 1.22719E-07
 -1        29 8.69994E+02 1.49522E+03 7.04587E+02 8.35043E+02-2.71691E-08 1.09061E-07
 -1        30 3.73195E+02 6.13159E+02 2.94719E+02 4.27047E+02-3.24780E-08 9.27791E-08
 -1        31 8.79601E+01 1.82067E+02 8.08398E+01 1.62301E+02-2.27466E-08 7.31862E-08
 -1        32 3.55808E+03 2.10738E+04 7.00223E+03 1.48849E+03-3.75678E-09-2.06641E-08
 -1        33 4.70192E+03 2.13846E+04 7.41378E+03 1.51072E+03 1.18848E-09-3.99057E-08
 -1        34 4.57885E+03 2.04766E+04 7.13114E+03 2.23718E+03 1.64362E-09-3.30423E-08
 -1        35 4.65834E+03 1.95865E+04 6.91069E+03 2.80881E+03-6.37678E-10-5.43628E-08
 -1        36 4.66772E+03 1.83457E+04 6.57411E+03 3.28553E+03-7.81607E-09-5.70419E-08
 -1        37 4.58000E+03 1.68286E+04 6.13384E+03 3.57891E+03-1.01529E-08-9.51951E-08
 -1        38 4.48761E+03 1.52341E+04 5.67009E+03 3.68215E+03-4.36534E-09-1.23996E-07
 -1        39 4.30588E+03 1.36608E+04 5.18338E+03 3.66676E+03 2.05575E-08-1.66892E-07
 -1        40 4.08191E+03 1.21631E+04 4.70201E+03 3.57224E+03 5.54302E-08-1.69932E-07
 -1        41 3.78637E+03 1.06757E+04 4.19997E+03 3.40764E+03 7.35635E-08-1.22148E-07
 -1        42 3.49832E+03 9.21437E+03 3.70564E+03 3.14328E+03 6.32393E-08-5.34548E-08
 -1        43 3.12459E+03 7.79606E+03 3.19551E+03 2.81604E+03 4.76010E-08-4.30784E-10
 -1        44 2.72509E+03 6.52016E+03 2.71480E+03 2.46790E+03 3.16643E-08 4.55798E-08
 -1        45 2.30607E+03 5.31948E+03 2.24636E+03 2.13149E+03 1.87194E-08 7.17080E-08
 -1        46 1.91664E+03 4.08214E+03 1.77323E+03 1.75486E+03-4.13923E-10 1.03931E-07
 -1        47 1.42224E+03 2.73304E+03 1.23307E+03 1.31440E+03-1.71059E-08 1.22722E-07
 -1        48 8.69994E+02 1.49522E+03 7.04587E+02 8.35043E+02-2.71709E-08 1.09061E-07
 -1        49 3.73195E+02 6.13159E+02 2.94719E+02 4.27047E+02-3.24772E-08 9.27716E-08
 -1        50 8.79601E+01 1.82067E+02 8.08398E+01 1.62301E+02-2.27460E-08 7.32045E-08
 -1        51-6.02842E+01-1.82587E+02-7.29064E+01 5.50679E+01-8.15655E-09 8.71457E-08
 -1        52-1.80311E+02-6.55241E+02-2.51121E+02-3.69292E+00-2.22914E-08 9.87990E-08
 -1        53-4.70253E+02-1.54969E+03-6.08565E+02-2.20787E+02-3.47748E-08 1.12062E-07
 -1        54-9.35127E+02-2.71198E+03-1.10236E+03-5.68683E+02-4.08638E-08 1.02273E-07
 -1        55-1.46145E+03-3.87461E+03-1.61801E+03-9.48476E+02-4.80947E-08 7.60704E-08
 -1        56-1.94741E+03-4.92239E+03-2.08886E+03-1.26695E+03-4.95190E-08 4.00485E-08
 -1        57-2.33465E+03-5.93511E+03-2.52136E+03-1.52656E+03-4.00135E-08 3.66623E-09
 -1        58-2.72138E+03-7.08643E+03-3.00002E+03-1.76940E+03-2.92364E-08-3.83306E-08
 -1        59-3.13720E+03-8.38330E+03-3.53711E+03-2.02187E+03-1.68764E-08-9.27910E-08
 -1        60-3.56132E+03-9.73630E+03-4.09842E+03-2.24936E+03 5.38385E-09-1.48365E-07
 -1        61-3.90603E+03-1.10750E+04-4.63455E+03-2.41570E+03 3.91906E-08-1.82743E-07
 -1        62-4.21971E+03-1.24702E+04-5.18320E+03-2.49957E+03 5.79337E-08-1.51674E-07
 -1        63-4.52083E+03-1.39563E+04-5.76198E+03-2.51287E+03 5.31615E-08-1.03127E-07
 -1        64-4.82049E+03-1.54738E+04-6.35563E+03-2.45135E+03 3.82780E-08-7.74414E-08
 -1        65-5.03292E+03-1.68442E+04-6.87780E+03-2.29454E+03 2.10556E-08-5.60821E-08
 -1        66-5.18703E+03-1.79638E+04-7.30012E+03-2.01325E+03 7.01434E-09-4.64029E-08
 -1        67-5.21490E+03-1.87778E+04-7.58082E+03-1.58356E+03 2.42443E-09-3.56595E-08
 -1        68-5.59373E+03-1.97108E+04-8.01156E+03-1.14210E+03 4.41220E-09-3.75628E-08
 -1        69-4.23083E+03-1.93903E+04-7.48284E+03-5.00746E+01 4.90969E-09-2.44876E-08
 -1        70-6.02842E+01-1.82587E+02-7.29064E+01 5.50679E+01-8.15265E-09 8.71701E-08
 -1        71-1.80311E+02-6.55241E+02-2.51121E+02-3.69292E+00-2.22919E-08 9.87967E-08
 -1        72-4.70253E+02-1.54969E+03-6.08565E+02-2.20787E+02-3.47743E-08 1.12066E-07
 -1        73-9.35127E+02-2.71198E+03-1.10236E+03-5.68683E+02-4.08648E-08 1.02260E-07
 -1        74-1.46145E+03-3.87461E+03-1.61801E+03-9.48476E+02-4.80914E-08 7.60720E-08
 -1        75-1.94741E+03-4.92239E+03-2.08886E+03-1.26695E+03-4.95190E-08 4.00488E-08
 -1        76-2.33465E+03-5.93511E+03-2.52136E+03-1.52656E+03-4.00106E-08 3.66619E-09
 -1        77-2.72138E+03-7.08643E+03-3.00002E+03-1.76940E+03-2.92328E-08-3.83452E-08
 -1        78-3.13720E+03-8.38330E+03-3.53711E+03-2.02187E+03-1.68772E-08-9.27841E-08
 -1        79-3.56132E+03-9.73630E+03-4.09842E+03-2.24936E+03 5.38336E-09-1.48366E-07
 -1        80-3.90603E+03-1.10750E+04-4.63455E+03-2.41570E+03 3.91922E-08-1.82736E-07
 -1        81-4.21971E+03-1.24702E+04-5.18320E+03-2.49957E+03 5.79337E-08-1.51674E-07
 -1        82-4.52083E+03-1.39563E+04-5.76198E+03-2.51287E+03 5.31616E-08-1.03123E-07
 -1        83-4.82049E+03-1.54738E+04-6.35563E+03-2.45135E+03 3.82777E-08-7.74413E-08
 -1        84-5.03292E+03-1.68442E+04-6.87780E+03-2.29454E+03 2.10564E-08-5.60782E-08
 -1        85-5.18703E+03-1.79638E+04-7.30012E+03-2.01325E+03 7.01430E-09-4.64063E-08
 -1        86-5.21490E+03-1.87778E+04-7.58082E+03-1.58356E+03 2.42489E-09-3.56590E-08
 -1        87-5.59373E+03-1.97108E+04-8.01156E+03-1.14210E+03 4.41213E-09-3.75628E-08
 -1        88-4.23083E+03-1.93903E+04-7.48284E+03-5.00746E+01 4.90971E-09-2.44876E-08
 -1        89-1.77479E+02-5.20508E+02-1.74645E+02-2.20058E+01 1.32282E-09-2.18807E-08
 -1        90-2.23706E+02-4.32061E+02-1.37200E+02 2.26068E+02 3.50524E-09-3.78462E-08
 -1        91-1.66838E+02-3.83994E+02-1.15456E+02 1.72041E+02 4.83370E-09-3.65417E-08
 -1        92-1.27321E+02-3.39199E+02-9.38329E+01 2.40698E+02 5.36441E-09-4.49996E-08
 -1        93-5.99829E+01-2.71253E+02-5.84375E+01 3.30336E+02 8.00933E-09-5.45852E-08
 -1        94-1.04280E+01-2.03407E+02-2.86663E+01 4.12002E+02 1.82035E-08-8.20332E-08
 -1        95 7.30882E+01-1.08227E+02 1.95960E+01 4.47757E+02 2.61659E-08-1.14362E-07
 -1        96 1.13779E+02-2.53066E+01 5.13093E+01 4.59854E+02 3.99702E-08-1.63091E-07
 -1        97 1.52504E+02 4.48830E+01 7.88660E+01 4.75258E+02 4.77906E-08-1.81866E-07
 -1        98 1.79696E+02 7.10586E+01 9.02404E+01 5.06003E+02 3.71264E-08-1.39881E-07
 -1        99 2.45356E+02 9.20606E+01 1.12579E+02 5.16124E+02 1.98801E-08-7.35739E-08
 -1       100 2.58459E+02 9.93562E+01 1.15745E+02 4.97988E+02 6.97258E-09-2.21902E-08
 -1       101 2.49300E+02 1.02974E+02 1.11542E+02 4.60794E+02-5.83339E-09 2.36363E-08
 -1       102 2.39135E+02 5.33365E+01 9.12963E+01 4.41304E+02-1.72624E-08 5.96219E-08
 -1       103 2.95351E+02-2.35374E+01 8.33100E+01 4.33833E+02-2.78725E-08 8.76561E-08
 -1       104 3.14754E+02-9.92318E+01 6.52708E+01 4.18888E+02-3.06847E-08 1.11731E-07
 -1       105 2.64198E+02-1.04531E+02 4.79545E+01 3.54189E+02-2.78340E-08 1.14845E-07
 -1       106 1.40271E+02-6.21257E+01 2.33421E+01 2.44670E+02-2.34215E-08 9.91046E-08
 -1       107 3.23347E+01-1.63649E+01 4.73669E+00 1.22818E+02-1.78338E-08 8.17400E-08
 -1       108 3.23347E+01-1.63649E+01 4.73669E+00 1.22818E+02-1.78397E-08 8.17558E-08
 -1       109 1.40271E+02-6.21257E+01 2.33421E+01 2.44670E+02-2.34212E-08 9.91100E-08
 -1       110 2.64198E+02-1.04531E+02 4.79545E+01 3.54189E+02-2.78342E-08 1.14838E-07
 -1       111 3.14754E+02-9.92318E+01 6.52708E+01 4.18888E+02-3.06861E-08 1.11725E-07
 -1       112 2.95351E+02-2.35374E+01 8.33100E+01 4.33833E+02-2.78725E-08 8.76562E-08
 -1       113 2.39135E+02 5.33365E+01 9.12963E+01 4.41304E+02-1.72623E-08 5.96232E-08
 -1       114 2.49300E+02 1.02974E+02 1.11542E+02 4.60794E+02-5.83357E-09 2.36303E-08
 -1       115 2.58459E+02 9.93562E+01 1.15745E+02 4.97988E+02 6.97309E-09-2.21763E-08
 -1       116 2.45356E+02 9.20606E+01 1.12579E+02 5.16124E+02 1.98798E-08-7.35781E-08
 -1       117 1.79696E+02 7.10586E+01 9.02404E+01 5.06003E+02 3.71269E-08-1.39880E-07
 -1       118 1.52504E+02 4.48830E+01 7.88660E+01 4.75258E+02 4.77906E-08-1.81870E-07
 -1       119 1.13779E+02-2.53066E+01 5.13093E+01 4.59854E+02 3.99702E-08-1.63092E-07
 -1       120 7.30882E+01-1.08227E+02 1.95960E+01 4.47757E+02 2.61656E-08-1.14363E-07
 -1       121-1.04280E+01-2.03407E+02-2.86663E+01 4.12002E+02 1.82032E-08-8.20372E-08
 -1       122-5.99829E+01-2.71253E+02-5.84375E+01 3.30336E+02 8.00911E-09-5.45853E-08
 -1       123-1.27321E+02-3.39199E+02-9.38329E+01 2.40698E+02 5.36439E-09-4.49992E-08
 -1       124-1.66838E+02-3.83994E+02-1.15456E+02 1.72041E+02 4.83347E-09-3.65419E-08
 -1       125-2.23706E+02-4.32061E+02-1.37200E+02 2.26068E+02 3.50539E-09-3.78462E-08
 -1       126-1.77479E+02-5.20508E+02-1.74645E+02-2.20058E+01 1.32279E-09-2.18806E-08
 -3
    1PSTEP                       311          78           1          
  100CL  178 7.80000E-01         126                     1   78           1
 -4  TOSTRAIN    6    1
 -5  EXX         1    4    1    1
 -5  EYY         1    4    2    2
 -5  EZZ         1    4    3    3
 -5  EXY         1    4    1    2
 -5  EYZ         1    4    2    3
 -5  EZX         1    4    3    1
 -1         1-1.56960E-04 4.22996E-02-1.53219E-27 1.50556E-02 2.29016E-20-2.13092E-16
 -1         2-1.56960E-04 4.22996E-02-1.53219E-27 1.50556E-02 2.29016E-20-2.13092E-16
 -1         3-1.74148E-04 2.97457E-04 1.23210E-25 5.01508E-05 5.31577E-14 2.42432E-13
 -1         4-1.74148E-04 2.97457E-04 1.23227E-25 5.01508E-05 5.31633E-14 2.42447E-13
 -1         5-1.21738E-04 4.06380E-05 1.52658E-25 1.07550E-04 1.21202E-13 2.50220E-13
 -1         6-1.21738E-04 4.06380E-05 1.52608E-25 1.07550E-04 1.21180E-13 2.50181E-13
 -1         7-1.53860E-04-4.11743E-02-2.18417E-27 1.34151E-02-2.12131E-19 2.50990E-16
 -1         8-1.53860E-04-4.11743E-02-2.18417E-27 1.34151E-02-2.11887E-19 2.51002E-16
 -1         9-1.47943E-04 1.67147E-04 1.17353E-25 1.05142E-04 4.90424E-14 2.38359E-13
 -1        10-1.47943E-04 1.67147E-04 1.17322E-25 1.05142E-04 4.90322E-14 2.38331E-13
 -1        11-1.55410E-04-3.77502E-04-1.68318E-27 8.70897E-03-1.16898E-20 1.29266E-17
 -1        12-1.55410E-04-3.77502E-04-1.68318E-27 8.70897E-03-1.21454E-20 1.29030E-17
 -1        13-1.19033E-02 4.28413E-02 7.74097E-27 2.23005E-03-1.39637E-14-6.60574E-14
 -1        14-9.77691E-03 4.26335E-02 3.29725E-26 2.36217E-04-6.69641E-15-1.28450E-13
 -1        15-9.77740E-03 4.13498E-02 2.22292E-26 5.43447E-04-7.72270E-15-1.06287E-13
 -1        16-9.43123E-03 4.00105E-02 6.10709E-26 6.54588E-04-2.96887E-14-1.72615E-13
 -1        17-9.02452E-03 3.80879E-02 6.55767E-26 8.80758E-04-5.96127E-14-1.74975E-13
 -1        18-8.52560E-03 3.56094E-02 1.83824E-25 1.02145E-03-1.01163E-13-2.90579E-13
 -1        19-7.81155E-03 3.28167E-02 3.12987E-25 1.05667E-03-1.17529E-13-3.81654E-13
 -1        20-7.17243E-03 2.99997E-02 5.89784E-25 1.04045E-03-9.45741E-14-5.34504E-13
 -1        21-6.57450E-03 2.72530E-02 6.71645E-25 1.02726E-03-8.62818E-15-5.78057E-13
 -1        22-6.01625E-03 2.44592E-02 4.12851E-25 1.03675E-03 8.34411E-14-4.53679E-13
 -1        23-5.26958E-03 2.15189E-02 1.21743E-25 1.04485E-03 1.23715E-13-2.36565E-13
 -1        24-4.57033E-03 1.85612E-02 2.85245E-26 1.00087E-03 1.38913E-13-6.09045E-14
 -1        25-3.93558E-03 1.58040E-02 5.00979E-26 9.10478E-04 1.50489E-13 9.42309E-14
 -1        26-3.39018E-03 1.31961E-02 1.04745E-25 8.80475E-04 1.48858E-13 1.86767E-13
 -1        27-2.67530E-03 1.04052E-02 2.19477E-25 9.66124E-04 1.39227E-13 3.06223E-13
 -1        28-1.92786E-03 7.29473E-03 3.20954E-25 1.03522E-03 1.19592E-13 3.83612E-13
 -1        29-1.20626E-03 4.26819E-03 2.65789E-25 8.92911E-04 7.35163E-14 3.57458E-13
 -1        30-6.86497E-04 1.96553E-03 2.02553E-25 5.53263E-04 3.60917E-14 3.17386E-13
 -1        31-3.32890E-04 6.83414E-04 1.22972E-25 2.06561E-04 3.70900E-14 2.46318E-13
 -1        32-1.19033E-02 4.28413E-02 7.74097E-27 2.23005E-03-1.39637E-14-6.60574E-14
 -1        33-9.77691E-03 4.26335E-02 3.29725E-26 2.36217E-04-6.69644E-15-1.28450E-13
 -1        34-9.77740E-03 4.13498E-02 2.22290E-26 5.43447E-04-7.72255E-15-1.06286E-13
 -1        35-9.43123E-03 4.00105E-02 6.10709E-26 6.54588E-04-2.96887E-14-1.72615E-13
 -1        36-9.02452E-03 3.80879E-02 6.55775E-26 8.80758E-04-5.96130E-14-1.74975E-13
 -1        37-8.52560E-03 3.56094E-02 1.83824E-25 1.02145E-03-1.01162E-13-2.90578E-13
 -1        38-7.81155E-03 3.28167E-02 3.12976E-25 1.05667E-03-1.17527E-13-3.81647E-13
 -1        39-7.17243E-03 2.99997E-02 5.89783E-25 1.04045E-03-9.45740E-14-5.34504E-13
 -1        40-6.57450E-03 2.72530E-02 6.71631E-25 1.02726E-03-8.62664E-15-5.78051E-13
 -1        41-6.01625E-03 2.44592E-02 4.12854E-25 1.03675E-03 8.34401E-14-4.53681E-13
 -1        42-5.26958E-03 2.15189E-02 1.21741E-25 1.04485E-03 1.23718E-13-2.36559E-13
 -1        43-4.57033E-03 1.85612E-02 2.85327E-26 1.00087E-03 1.38903E-13-6.09232E-14
 -1        44-3.93558E-03 1.58040E-02 5.00972E-26 9.10478E-04 1.50491E-13 9.42301E-14
 -1        45-3.39018E-03 1.31961E-02 1.04745E-25 8.80475E-04 1.48857E-13 1.86767E-13
 -1        46-2.67530E-03 1.04052E-02 2.19484E-25 9.66124E-04 1.39229E-13 3.06228E-13
 -1        47-1.92786E-03 7.29473E-03 3.20967E-25 1.03522E-03 1.19599E-13 3.83620E-13
 -1        48-1.20626E-03 4.26819E-03 2.65791E-25 8.92911E-04 7.35113E-14 3.57460E-13
 -1        49-6.86497E-04 1.96553E-03 2.02527E-25 5.53263E-04 3.60834E-14 3.17364E-13
 -1        50-3.32890E-04 6.83414E-04 1.23033E-25 2.06561E-04 3.71180E-14 2.46370E-13
 -1        51-1.75328E-04-1.40511E-04 1.60809E-25 2.67180E-04 9.96262E-14 2.66492E-13
 -1        52-5.43544E-05-1.03265E-03 2.15680E-25 5.99622E-04 7.46654E-14 3.20724E-13
 -1        53 3.46445E-04-2.97758E-03 2.89990E-25 9.28646E-04 5.61652E-14 3.77477E-13
 -1        54 8.99632E-04-5.65897E-03 2.54180E-25 1.08193E-03 2.27161E-14 3.57698E-13
 -1        55 1.44526E-03-8.42086E-03 1.65991E-25 1.03002E-03-3.79636E-14 2.90725E-13
 -1        56 1.87211E-03-1.08650E-02 7.68457E-26 9.29041E-04-9.44207E-14 1.85516E-13
 -1        57 2.32267E-03-1.31630E-02 2.41061E-26 9.38114E-04-1.16504E-13 6.32957E-14
 -1        58 2.81912E-03-1.56975E-02 3.68251E-26 1.03474E-03-1.38693E-13-7.83554E-14
 -1        59 3.39001E-03-1.85475E-02 1.73466E-25 1.08719E-03-1.66339E-13-2.60851E-13
 -1        60 3.95650E-03-2.14870E-02 4.54663E-25 1.05466E-03-1.56148E-13-4.59825E-13
 -1        61 4.57521E-03-2.43640E-02 7.31120E-25 1.02062E-03-7.49828E-14-6.05742E-13
 -1        62 5.17837E-03-2.72686E-02 5.48573E-25 1.04448E-03 3.37498E-14-5.29427E-13
 -1        63 5.81137E-03-3.03199E-02 2.77247E-25 1.07597E-03 7.92093E-14-3.71558E-13
 -1        64 6.42810E-03-3.34065E-02 1.54575E-25 1.02256E-03 6.39238E-14-2.75784E-13
 -1        65 7.04995E-03-3.61930E-02 7.37047E-26 8.61350E-04 3.16636E-14-1.93538E-13
 -1        66 7.50222E-03-3.83894E-02 4.57316E-26 6.44861E-04-2.37047E-15-1.53435E-13
 -1        67 7.89811E-03-3.99428E-02 2.66334E-26 5.67035E-04-6.97314E-15-1.16692E-13
 -1        68 7.73882E-03-4.15479E-02 2.98456E-26 2.36318E-04 4.32622E-15-1.23734E-13
 -1        69 1.01776E-02-4.18513E-02 1.17117E-26 2.07376E-03 1.38143E-14-8.05845E-14
 -1        70-1.75328E-04-1.40511E-04 1.60895E-25 2.67180E-04 9.96722E-14 2.66558E-13
 -1        71-5.43544E-05-1.03265E-03 2.15671E-25 5.99622E-04 7.46606E-14 3.20718E-13
 -1        72 3.46445E-04-2.97758E-03 2.90007E-25 9.28646E-04 5.61718E-14 3.77487E-13
 -1        73 8.99632E-04-5.65897E-03 2.54129E-25 1.08193E-03 2.26956E-14 3.57662E-13
 -1        74 1.44526E-03-8.42086E-03 1.65992E-25 1.03002E-03-3.79513E-14 2.90725E-13
 -1        75 1.87211E-03-1.08650E-02 7.68465E-26 9.29041E-04-9.44204E-14 1.85517E-13
 -1        76 2.32267E-03-1.31630E-02 2.41018E-26 9.38114E-04-1.16495E-13 6.32919E-14
 -1        77 2.81912E-03-1.56975E-02 3.68526E-26 1.03474E-03-1.38701E-13-7.84038E-14
 -1        78 3.39001E-03-1.85475E-02 1.73449E-25 1.08719E-03-1.66333E-13-2.60829E-13
 -1        79 3.95650E-03-2.14870E-02 4.54676E-25 1.05466E-03-1.56152E-13-4.59830E-13
 -1        80 4.57521E-03-2.43640E-02 7.31070E-25 1.02062E-03-7.49700E-14-6.05723E-13
 -1        81 5.17837E-03-2.72686E-02 5.48572E-25 1.04448E-03 3.37498E-14-5.29427E-13
 -1        82 5.81137E-03-3.03199E-02 2.77231E-25 1.07597E-03 7.92129E-14-3.71547E-13
 -1        83 6.42810E-03-3.34065E-02 1.54576E-25 1.02256E-03 6.39229E-14-2.75784E-13
 -1        84 7.04995E-03-3.61930E-02 7.36965E-26 8.61350E-04 3.16690E-14-1.93526E-13
 -1        85 7.50222E-03-3.83894E-02 4.57383E-26 6.44861E-04-2.37255E-15-1.53446E-13
 -1        86 7.89811E-03-3.99428E-02 2.66326E-26 5.67035E-04-6.97139E-15-1.16691E-13
 -1        87 7.73882E-03-4.15479E-02 2.98456E-26 2.36318E-04 4.32598E-15-1.23734E-13
 -1        88 1.01776E-02-4.18513E-02 1.17117E-26 2.07376E-03 1.38143E-14-8.05845E-14
 -1        89-8.62848E-04-8.11088E-05 8.80124E-27-2.83297E-05 1.61532E-15-7.12472E-14
 -1        90-1.01904E-03 2.05481E-04 3.01827E-26 7.83045E-04 1.05442E-15-1.23654E-13
 -1        91-9.39647E-04 2.42261E-04 2.86410E-26 6.27900E-04 7.34379E-16-1.19867E-13
 -1        92-9.64506E-04 3.73566E-04 4.31014E-26 8.49631E-04-6.92313E-15-1.47257E-13
 -1        93-9.87284E-04 5.68717E-04 6.21917E-26 1.11832E-03-1.05670E-14-1.79071E-13
 -1        94-1.04875E-03 7.81832E-04 1.44001E-25 1.32799E-03-6.15560E-15-2.73253E-13
 -1        95-1.00009E-03 9.65180E-04 2.81973E-25 1.39119E-03-1.85695E-14-3.81063E-13
 -1        96-9.97031E-04 1.12081E-03 5.90919E-25 1.35142E-03-3.43517E-14-5.44937E-13
 -1        97-9.99649E-04 1.26150E-03 7.44733E-25 1.32118E-03-4.49312E-14-6.09734E-13
 -1        98-1.02988E-03 1.35781E-03 4.27288E-25 1.35678E-03-4.49029E-14-4.68406E-13
 -1        99-9.39786E-04 1.37948E-03 1.02621E-25 1.38870E-03-2.77765E-14-2.46167E-13
 -1       100-8.75607E-04 1.34193E-03-3.93185E-27 1.31790E-03-6.71578E-15-7.52960E-14
 -1       101-8.06452E-04 1.26466E-03 7.59803E-29 1.19022E-03 1.34355E-14 7.80216E-14
 -1       102-7.59035E-04 1.13738E-03 7.25130E-26 1.17191E-03 2.87323E-14 1.99725E-13
 -1       103-6.15018E-04 9.65285E-04 1.73682E-25 1.30236E-03 3.79389E-14 2.96551E-13
 -1       104-5.14112E-04 7.91597E-04 2.81755E-25 1.37957E-03 6.55345E-14 3.70776E-13
 -1       105-4.29910E-04 6.35837E-04 2.94266E-25 1.18522E-03 8.00931E-14 3.75528E-13
 -1       106-3.70425E-04 4.71187E-04 2.17845E-25 7.50839E-04 7.16163E-14 3.23110E-13
 -1       107-2.54109E-04 2.74604E-04 1.46853E-25 3.09344E-04 6.36018E-14 2.64381E-13
 -1       108-2.54109E-04 2.74604E-04 1.46909E-25 3.09344E-04 6.36072E-14 2.64435E-13
 -1       109-3.70425E-04 4.71187E-04 2.17868E-25 7.50839E-04 7.16249E-14 3.23125E-13
 -1       110-4.29910E-04 6.35837E-04 2.94234E-25 1.18522E-03 8.00827E-14 3.75508E-13
 -1       111-5.14112E-04 7.91597E-04 2.81728E-25 1.37957E-03 6.55222E-14 3.70760E-13
 -1       112-6.15018E-04 9.65285E-04 1.73682E-25 1.30236E-03 3.79390E-14 2.96551E-13
 -1       113-7.59035E-04 1.13738E-03 7.25140E-26 1.17191E-03 2.87342E-14 1.99728E-13
 -1       114-8.06452E-04 1.26466E-03 6.67266E-29 1.19022E-03 1.34271E-14 7.80041E-14
 -1       115-8.75607E-04 1.34193E-03-3.95058E-27 1.31790E-03-6.69724E-15-7.52548E-14
 -1       116-9.39786E-04 1.37948E-03 1.02626E-25 1.38870E-03-2.77827E-14-2.46179E-13
 -1       117-1.02988E-03 1.35781E-03 4.27280E-25 1.35678E-03-4.49001E-14-4.68402E-13
 -1       118-9.99649E-04 1.26150E-03 7.44767E-25 1.32118E-03-4.49359E-14-6.09748E-13
 -1       119-9.97031E-04 1.12081E-03 5.90921E-25 1.35142E-03-3.43519E-14-5.44938E-13
 -1       120-1.00009E-03 9.65180E-04 2.81974E-25 1.39119E-03-1.85710E-14-3.81064E-13
 -1       121-1.04875E-03 7.81832E-04 1.44014E-25 1.32799E-03-6.15963E-15-2.73266E-13
 -1       122-9.87284E-04 5.68717E-04 6.21913E-26 1.11832E-03-1.05677E-14-1.79072E-13
 -1       123-9.64506E-04 3.73566E-04 4.31006E-26 8.49631E-04-6.92297E-15-1.47256E-13
 -1       124-9.39647E-04 2.42261E-04 2.86413E-26 6.27900E-04 7.33532E-16-1.19867E-13
 -1       125-1.01904E-03 2.05481E-04 3.01828E-26 7.83045E-04 1.05491E-15-1.23654E-13
 -1       126-8.62848E-04-8.11088E-05 8.80120E-27-2.83298E-05 1.61524E-15-7.12471E-14
 -3
    1PSTEP                       312          78           1          
  100CL  178 7.80000E-01         126                     1   78           1
 -4  ERROR       1    1
 -5  STR(%)      1    1    0    0
 -1         1 6.23083E+01
 -1         2 6.23083E+01
 -1         3 4.21283E+01
 -1         4 4.21283E+01
 -1         5 3.30905E+01
 -1         6 3.30905E+01
 -1         7 5.87171E+01
 -1         8 5.87171E+01
 -1         9 4.21283E+01
 -1        10 4.21283E+01
 -1        11 6.23083E+01
 -1        12 6.23083E+01
 -1        13 6.23083E+01
 -1        14 6.13113E+01
 -1        15 6.10471E+01
 -1        16 6.09718E+01
 -1        17 6.08757E+01
 -1        18 6.07073E+01
 -1        19 6.02128E+01
 -1        20 5.96866E+01
 -1        21 5.90532E+01
 -1        22 5.84955E+01
 -1        23 5.78237E+01
 -1        24 5.73018E+01
 -1        25 5.66877E+01
 -1        26 5.62862E+01
 -1        27 5.57934E+01
 -1        28 5.46411E+01
 -1        29 5.01961E+01
 -1        30 4.12760E+01
 -1        31 4.21283E+01
 -1        32 6.23083E+01
 -1        33 6.13113E+01
 -1        34 6.10471E+01
 -1        35 6.09718E+01
 -1        36 6.08757E+01
 -1        37 6.07073E+01
 -1        38 6.02128E+01
 -1        39 5.96866E+01
 -1        40 5.90532E+01
 -1        41 5.84955E+01
 -1        42 5.78237E+01
 -1        43 5.73018E+01
 -1        44 5.66877E+01
 -1        45 5.62862E+01
 -1        46 5.57934E+01
 -1        47 5.46411E+01
 -1        48 5.01961E+01
 -1        49 4.12760E+01
 -1        50 4.21283E+01
 -1        51 4.02418E+01
 -1        52 5.44019E+01
 -1        53 6.44322E+01
 -1        54 6.95520E+01
 -1        55 7.01152E+01
 -1        56 7.01152E+01
 -1        57 6.91744E+01
 -1        58 6.83884E+01
 -1        59 6.73480E+01
 -1        60 6.61260E+01
 -1        61 6.48014E+01
 -1        62 6.37582E+01
 -1        63 6.28759E+01
 -1        64 6.20313E+01
 -1        65 6.10348E+01
 -1        66 6.01301E+01
 -1        67 5.94295E+01
 -1        68 5.94326E+01
 -1        69 5.94326E+01
 -1        70 4.02418E+01
 -1        71 5.44019E+01
 -1        72 6.44322E+01
 -1        73 6.95520E+01
 -1        74 7.01152E+01
 -1        75 7.01152E+01
 -1        76 6.91744E+01
 -1        77 6.83884E+01
 -1        78 6.73480E+01
 -1        79 6.61260E+01
 -1        80 6.48014E+01
 -1        81 6.37582E+01
 -1        82 6.28759E+01
 -1        83 6.20313E+01
 -1        84 6.10348E+01
 -1        85 6.01301E+01
 -1        86 5.94295E+01
 -1        87 5.94326E+01
 -1        88 5.94326E+01
 -1        89 6.23083E+01
 -1        90 6.13113E+01
 -1        91 6.10471E+01
 -1        92 6.09718E+01
 -1        93 6.10348E+01
 -1        94 6.20313E+01
 -1        95 6.28759E+01
 -1        96 6.37582E+01
 -1        97 6.48014E+01
 -1        98 6.61260E+01
 -1        99 6.73480E+01
 -1       100 6.83884E+01
 -1       101 6.91744E+01
 -1       102 7.01152E+01
 -1       103 7.01152E+01
 -1       104 6.95520E+01
 -1       105 6.44322E+01
 -1       106 5.44019E+01
 -1       107 4.21283E+01
 -1       108 4.21283E+01
 -1       109 5.44019E+01
 -1       110 6.44322E+01
 -1       111 6.95520E+01
 -1       112 7.01152E+01
 -1       113 7.01152E+01
 -1       114 6.91744E+01
 -1       115 6.83884E+01
 -1       116 6.73480E+01
 -1       117 6.61260E+01
 -1       118 6.48014E+01
 -1       119 6.37582E+01
 -1       120 6.28759E+01
 -1       121 6.20313E+01
 -1       122 6.10348E+01
 -1       123 6.09718E+01
 -1       124 6.10471E+01
 -1       125 6.13113E+01
 -1       126 6.23083E+01
 -3
    1PSTEP                       313          79           1          
  100CL  179 7.90000E-01         126                     1   79           1
 -4  DISP        4    1
 -5  D1          1    2    1    0
 -5  D2          1    2    2    0
 -5  D3          1    2    3    0
 -5  ALL         1    2    0    0    1ALL
 -1         1 0.00000E+00 0.00000E+00 0.00000E+00
 -1         2 0.00000E+00 0.00000E+00 0.00000E+00
 -1         3 3.14463E-01-3.60109E-02 0.00000E+00
 -1         4 3.14463E-01-3.60109E-02 0.00000E+00
 -1         5 3.03969E-01-8.05739E-02 0.00000E+00
 -1         6 3.03969E-01-8.05739E-02 0.00000E+00
 -1         7 0.00000E+00 0.00000E+00 0.00000E+00
 -1         8 0.00000E+00 0.00000E+00 0.00000E+00
 -1         9 3.09211E-01-5.82875E-02 0.00000E+00
 -1        10 3.09211E-01-5.82875E-02 0.00000E+00
 -1        11 0.00000E+00 0.00000E+00 0.00000E+00
 -1        12 0.00000E+00 0.00000E+00 0.00000E+00
 -1        13 1.48509E-03 2.09563E-03 0.00000E+00
 -1        14 4.83985E-03 4.17921E-03 0.00000E+00
 -1        15 1.04765E-02 5.99338E-03 0.00000E+00
 -1        16 1.82501E-02 7.47378E-03 0.00000E+00
 -1        17 2.80884E-02 8.53071E-03 0.00000E+00
 -1        18 3.98956E-02 9.07221E-03 0.00000E+00
 -1        19 5.35009E-02 9.01972E-03 0.00000E+00
 -1        20 6.86945E-02 8.33823E-03 0.00000E+00
 -1        21 8.52602E-02 7.04360E-03 0.00000E+00
 -1        22 1.03031E-01 5.16008E-03 0.00000E+00
 -1        23 1.21843E-01 2.70778E-03 0.00000E+00
 -1        24 1.41521E-01-2.86537E-04 0.00000E+00
 -1        25 1.61864E-01-3.75530E-03 0.00000E+00
 -1        26 1.82714E-01-7.60731E-03 0.00000E+00
 -1        27 2.03972E-01-1.17570E-02 0.00000E+00
 -1        28 2.25604E-01-1.61631E-02 0.00000E+00
 -1        29 2.47571E-01-2.08151E-02 0.00000E+00
 -1        30 2.69794E-01-2.57089E-02 0.00000E+00
 -1        31 2.92136E-01-3.08040E-02 0.00000E+00
 -1        32 1.48509E-03 2.09563E-03 0.00000E+00
 -1        33 4.83985E-03 4.17921E-03 0.00000E+00
 -1        34 1.04765E-02 5.99338E-03 0.00000E+00
 -1        35 1.82501E-02 7.47378E-03 0.00000E+00
 -1        36 2.80884E-02 8.53071E-03 0.00000E+00
 -1        37 3.98956E-02 9.07221E-03 0.00000E+00
 -1        38 5.35009E-02 9.01972E-03 0.00000E+00
 -1        39 6.86945E-02 8.33823E-03 0.00000E+00
 -1        40 8.52602E-02 7.04360E-03 0.00000E+00
 -1        41 1.03031E-01 5.16008E-03 0.00000E+00
 -1        42 1.21843E-01 2.70778E-03 0.00000E+00
 -1        43 1.41521E-01-2.86537E-04 0.00000E+00
 -1        44 1.61864E-01-3.75530E-03 0.00000E+00
 -1        45 1.82714E-01-7.60731E-03 0.00000E+00
 -1        46 2.03972E-01-1.17570E-02 0.00000E+00
 -1        47 2.25604E-01-1.61631E-02 0.00000E+00
 -1        48 2.47571E-01-2.08151E-02 0.00000E+00
 -1        49 2.69794E-01-2.57089E-02 0.00000E+00
 -1        50 2.92136E-01-3.08040E-02 0.00000E+00
 -1        51 2.81669E-01-7.52883E-02 0.00000E+00
 -1        52 2.59440E-01-6.99400E-02 0.00000E+00
 -1        53 2.37438E-01-6.45810E-02 0.00000E+00
 -1        54 2.15770E-01-5.92873E-02 0.00000E+00
 -1        55 1.94490E-01-5.41144E-02 0.00000E+00
 -1        56 1.73627E-01-4.90773E-02 0.00000E+00
 -1        57 1.53247E-01-4.41681E-02 0.00000E+00
 -1        58 1.33466E-01-3.93822E-02 0.00000E+00
 -1        59 1.14460E-01-3.47469E-02 0.00000E+00
 -1        60 9.64117E-02-3.03152E-02 0.00000E+00
 -1        61 7.94805E-02-2.61388E-02 0.00000E+00
 -1        62 6.37923E-02-2.22348E-02 0.00000E+00
 -1        63 4.94973E-02-1.85980E-02 0.00000E+00
 -1        64 3.67794E-02-1.52275E-02 0.00000E+00
 -1        65 2.58187E-02-1.21386E-02 0.00000E+00
 -1        66 1.67226E-02-9.33201E-03 0.00000E+00
 -1        67 9.55583E-03-6.77327E-03 0.00000E+00
 -1        68 4.35959E-03-4.40143E-03 0.00000E+00
 -1        69 1.29901E-03-2.11161E-03 0.00000E+00
 -1        70 2.81669E-01-7.52883E-02 0.00000E+00
 -1        71 2.59440E-01-6.99400E-02 0.00000E+00
 -1        72 2.37438E-01-6.45810E-02 0.00000E+00
 -1        73 2.15770E-01-5.92873E-02 0.00000E+00
 -1        74 1.94490E-01-5.41144E-02 0.00000E+00
 -1        75 1.73627E-01-4.90773E-02 0.00000E+00
 -1        76 1.53247E-01-4.41681E-02 0.00000E+00
 -1        77 1.33466E-01-3.93822E-02 0.00000E+00
 -1        78 1.14460E-01-3.47469E-02 0.00000E+00
 -1        79 9.64117E-02-3.03152E-02 0.00000E+00
 -1        80 7.94805E-02-2.61388E-02 0.00000E+00
 -1        81 6.37923E-02-2.22348E-02 0.00000E+00
 -1        82 4.94973E-02-1.85980E-02 0.00000E+00
 -1        83 3.67794E-02-1.52275E-02 0.00000E+00
 -1        84 2.58187E-02-1.21386E-02 0.00000E+00
 -1        85 1.67226E-02-9.33201E-03 0.00000E+00
 -1        86 9.55583E-03-6.77327E-03 0.00000E+00
 -1        87 4.35959E-03-4.40143E-03 0.00000E+00
 -1        88 1.29901E-03-2.11161E-03 0.00000E+00
 -1        89 8.31763E-04-7.91689E-07 0.00000E+00
 -1        90 4.15269E-03-7.20655E-05 0.00000E+00
 -1        91 9.56898E-03-3.30320E-04 0.00000E+00
 -1        92 1.70594E-02-8.55294E-04 0.00000E+00
 -1        93 2.65472E-02-1.71709E-03 0.00000E+00
 -1        94 3.79603E-02-2.98025E-03 0.00000E+00
 -1        95 5.11609E-02-4.68770E-03 0.00000E+00
 -1        96 6.59440E-02-6.84875E-03 0.00000E+00
 -1        97 8.21061E-02-9.45192E-03 0.00000E+00
 -1        98 9.94905E-02-1.24861E-02 0.00000E+00
 -1        99 1.17957E-01-1.59364E-02 0.00000E+00
 -1       100 1.37335E-01-1.97633E-02 0.00000E+00
 -1       101 1.57429E-01-2.39029E-02 0.00000E+00
 -1       102 1.78067E-01-2.82919E-02 0.00000E+00
 -1       103 1.99143E-01-3.28912E-02 0.00000E+00
 -1       104 2.20611E-01-3.76860E-02 0.00000E+00
 -1       105 2.42444E-01-4.26662E-02 0.00000E+00
 -1       106 2.64578E-01-4.78027E-02 0.00000E+00
 -1       107 2.86887E-01-5.30357E-02 0.00000E+00
 -1       108 2.86887E-01-5.30357E-02 0.00000E+00
 -1       109 2.64578E-01-4.78027E-02 0.00000E+00
 -1       110 2.42444E-01-4.26662E-02 0.00000E+00
 -1       111 2.20611E-01-3.76860E-02 0.00000E+00
 -1       112 1.99143E-01-3.28912E-02 0.00000E+00
 -1       113 1.78067E-01-2.82919E-02 0.00000E+00
 -1       114 1.57429E-01-2.39029E-02 0.00000E+00
 -1       115 1.37335E-01-1.97633E-02 0.00000E+00
 -1       116 1.17957E-01-1.59364E-02 0.00000E+00
 -1       117 9.94905E-02-1.24861E-02 0.00000E+00
 -1       118 8.21061E-02-9.45192E-03 0.00000E+00
 -1       119 6.59440E-02-6.84875E-03 0.00000E+00
 -1       120 5.11609E-02-4.68770E-03 0.00000E+00
 -1       121 3.79603E-02-2.98025E-03 0.00000E+00
 -1       122 2.65472E-02-1.71709E-03 0.00000E+00
 -1       123 1.70594E-02-8.55294E-04 0.00000E+00
 -1       124 9.56898E-03-3.30320E-04 0.00000E+00
 -1       125 4.15269E-03-7.20655E-05 0.00000E+00
 -1       126 8.31763E-04-7.91689E-07 0.00000E+00
 -3
    1PSTEP                       314          79           1          
  100CL  179 7.90000E-01         126                     1   79           1
 -4  STRESS      6    1
 -5  SXX         1    4    1    1
 -5  SYY         1    4    2    2
 -5  SZZ         1    4    3    3
 -5  SXY         1    4    1    2
 -5  SYZ         1    4    2    3
 -5  SZX         1    4    3    1
 -1         1 9.77576E+03 2.38720E+04 9.57307E+03 5.16038E+03 2.00630E-10 1.94415E-10
 -1         2 9.77576E+03 2.38720E+04 9.57307E+03 5.16038E+03 2.00630E-10 1.94415E-10
 -1         3 2.21719E+02 3.29800E+02 1.65225E+02 2.00996E+02-1.05305E-08 1.96328E-07
 -1         4 2.21719E+02 3.29800E+02 1.65225E+02 2.00996E+02-1.05291E-08 1.96324E-07
 -1         5-1.29752E+02-4.01561E+02-1.59530E+02-2.19329E+01-1.46879E-07 1.24235E-07
 -1         6-1.29752E+02-4.01561E+02-1.59530E+02-2.19329E+01-1.46882E-07 1.24193E-07
 -1         7-9.74205E+03-2.14973E+04-9.87708E+03 3.49315E+03 2.20297E-10-1.92084E-10
 -1         8-9.74205E+03-2.14973E+04-9.87708E+03 3.49315E+03 2.20297E-10-1.92080E-10
 -1         9 7.43863E+01-6.80023E+01 1.89427E+00 1.11109E+02-7.75355E-08 1.58952E-07
 -1        10 7.43863E+01-6.80023E+01 1.89427E+00 1.11109E+02-7.75375E-08 1.58967E-07
 -1        11 4.16424E+01-3.00654E+02 2.83252E+01 2.54557E+03 1.93362E-10 2.38149E-11
 -1        12 4.16424E+01-3.00654E+02 2.83252E+01 2.54557E+03 1.93362E-10 2.38076E-11
 -1        13 3.59592E+03 2.15852E+04 7.14692E+03 1.45313E+03 7.44104E-09 2.96621E-08
 -1        14 4.77877E+03 2.20195E+04 7.60136E+03 1.55702E+03-1.03774E-08 4.33107E-08
 -1        15 4.68410E+03 2.10892E+04 7.32293E+03 2.32904E+03-3.72121E-08 2.53408E-08
 -1        16 4.78114E+03 2.02252E+04 7.11545E+03 2.91472E+03-4.87379E-08-2.80129E-08
 -1        17 4.82527E+03 1.90885E+04 6.81656E+03 3.44291E+03-3.24141E-08-9.07508E-08
 -1        18 4.78579E+03 1.75847E+04 6.39399E+03 3.81566E+03-7.61227E-09-1.12081E-07
 -1        19 4.71143E+03 1.58213E+04 5.89114E+03 3.94928E+03 1.28595E-08-1.16145E-07
 -1        20 4.49155E+03 1.39958E+04 5.32640E+03 3.89109E+03 2.03364E-08-8.80691E-08
 -1        21 4.20542E+03 1.22846E+04 4.76933E+03 3.72755E+03 1.78755E-08-6.34510E-08
 -1        22 3.85327E+03 1.06168E+04 4.20104E+03 3.50229E+03 1.25780E-08-5.22283E-08
 -1        23 3.49857E+03 8.93904E+03 3.62648E+03 3.16927E+03 1.63867E-08-4.76717E-08
 -1        24 3.02417E+03 7.26822E+03 3.01497E+03 2.74378E+03 7.30494E-09-1.05428E-08
 -1        25 2.51317E+03 5.83586E+03 2.45630E+03 2.28568E+03-1.27788E-09-3.59930E-09
 -1        26 2.04595E+03 4.77533E+03 2.01356E+03 1.89845E+03-2.89678E-09 2.04199E-09
 -1        27 1.75814E+03 4.05712E+03 1.72062E+03 1.61269E+03-8.12439E-10-8.75000E-09
 -1        28 1.52474E+03 3.39083E+03 1.45715E+03 1.40487E+03 9.55472E-09-1.48293E-08
 -1        29 1.25740E+03 2.57316E+03 1.13799E+03 1.16527E+03 2.84482E-08-5.30827E-09
 -1        30 8.59775E+02 1.57387E+03 7.25007E+02 8.28706E+02 4.43408E-08 3.40958E-08
 -1        31 4.25384E+02 6.83062E+02 3.31240E+02 4.19232E+02 2.53711E-08 1.15266E-07
 -1        32 3.59592E+03 2.15852E+04 7.14692E+03 1.45313E+03 7.44104E-09 2.96621E-08
 -1        33 4.77877E+03 2.20195E+04 7.60136E+03 1.55702E+03-1.03774E-08 4.33107E-08
 -1        34 4.68410E+03 2.10892E+04 7.32293E+03 2.32904E+03-3.72121E-08 2.53410E-08
 -1        35 4.78114E+03 2.02252E+04 7.11545E+03 2.91472E+03-4.87379E-08-2.80130E-08
 -1        36 4.82527E+03 1.90885E+04 6.81656E+03 3.44291E+03-3.24141E-08-9.07495E-08
 -1        37 4.78579E+03 1.75847E+04 6.39399E+03 3.81566E+03-7.61168E-09-1.12078E-07
 -1        38 4.71143E+03 1.58213E+04 5.89114E+03 3.94928E+03 1.28603E-08-1.16147E-07
 -1        39 4.49155E+03 1.39958E+04 5.32640E+03 3.89109E+03 2.03366E-08-8.80688E-08
 -1        40 4.20542E+03 1.22846E+04 4.76933E+03 3.72755E+03 1.78758E-08-6.34496E-08
 -1        41 3.85327E+03 1.06168E+04 4.20104E+03 3.50229E+03 1.25779E-08-5.22286E-08
 -1        42 3.49857E+03 8.93904E+03 3.62648E+03 3.16927E+03 1.63868E-08-4.76698E-08
 -1        43 3.02417E+03 7.26822E+03 3.01497E+03 2.74378E+03 7.30429E-09-1.05505E-08
 -1        44 2.51317E+03 5.83586E+03 2.45630E+03 2.28568E+03-1.27739E-09-3.59744E-09
 -1        45 2.04595E+03 4.77533E+03 2.01356E+03 1.89845E+03-2.89690E-09 2.04175E-09
 -1        46 1.75814E+03 4.05712E+03 1.72062E+03 1.61269E+03-8.12700E-10-8.74908E-09
 -1        47 1.52474E+03 3.39083E+03 1.45715E+03 1.40487E+03 9.55651E-09-1.48296E-08
 -1        48 1.25740E+03 2.57316E+03 1.13799E+03 1.16527E+03 2.84478E-08-5.30779E-09
 -1        49 8.59775E+02 1.57387E+03 7.25007E+02 8.28706E+02 4.43403E-08 3.40625E-08
 -1        50 4.25384E+02 6.83062E+02 3.31240E+02 4.19232E+02 2.53726E-08 1.15301E-07
 -1        51-2.63196E+02-8.36054E+02-3.30574E+02-1.01842E+02-1.03930E-07 5.19477E-08
 -1        52-5.90065E+02-1.71030E+03-6.93477E+02-3.50637E+02-4.71777E-08-1.26374E-08
 -1        53-9.82663E+02-2.52009E+03-1.05826E+03-6.45939E+02-7.14264E-09-2.98181E-08
 -1        54-1.30518E+03-3.12032E+03-1.33906E+03-8.64171E+02-4.58783E-10-1.38548E-08
 -1        55-1.53268E+03-3.62428E+03-1.56211E+03-9.99122E+02-2.99726E-09-3.29516E-09
 -1        56-1.76647E+03-4.28998E+03-1.83750E+03-1.12102E+03-1.00074E-08-1.00546E-08
 -1        57-2.06860E+03-5.28318E+03-2.23674E+03-1.32003E+03-2.21183E-08-1.77324E-08
 -1        58-2.51086E+03-6.61968E+03-2.78892E+03-1.61015E+03-2.53974E-08-3.66439E-08
 -1        59-3.02918E+03-8.11621E+03-3.41925E+03-1.94188E+03-1.52361E-08-5.30746E-08
 -1        60-3.54015E+03-9.60487E+03-4.04955E+03-2.22945E+03-2.68700E-09-6.75364E-08
 -1        61-3.94594E+03-1.10568E+04-4.64022E+03-2.43195E+03-3.40963E-09-6.94240E-08
 -1        62-4.31880E+03-1.26195E+04-5.26159E+03-2.54897E+03 1.04126E-09-9.71067E-08
 -1        63-4.68824E+03-1.43051E+04-5.92838E+03-2.60624E+03 1.57238E-08-1.16850E-07
 -1        64-5.03301E+03-1.59213E+04-6.57057E+03-2.58127E+03 3.30325E-08-1.04590E-07
 -1        65-5.22865E+03-1.72192E+04-7.06373E+03-2.42304E+03 4.55188E-08-7.00804E-08
 -1        66-5.33156E+03-1.82136E+04-7.42734E+03-2.10220E+03 4.57287E-08-1.53120E-08
 -1        67-5.33452E+03-1.90014E+04-7.69149E+03-1.63332E+03 2.42544E-08 3.86120E-08
 -1        68-5.71607E+03-1.99614E+04-8.13360E+03-1.18637E+03-5.94167E-10 5.41792E-08
 -1        69-4.32390E+03-1.95263E+04-7.55645E+03-1.27480E+02-9.14343E-09 2.81181E-08
 -1        70-2.63196E+02-8.36054E+02-3.30574E+02-1.01842E+02-1.03922E-07 5.19466E-08
 -1        71-5.90065E+02-1.71030E+03-6.93477E+02-3.50637E+02-4.71773E-08-1.26443E-08
 -1        72-9.82663E+02-2.52009E+03-1.05826E+03-6.45939E+02-7.14343E-09-2.98127E-08
 -1        73-1.30518E+03-3.12032E+03-1.33906E+03-8.64171E+02-4.64327E-10-1.38689E-08
 -1        74-1.53268E+03-3.62428E+03-1.56211E+03-9.99122E+02-2.99840E-09-3.28777E-09
 -1        75-1.76647E+03-4.28998E+03-1.83750E+03-1.12102E+03-1.00072E-08-1.00559E-08
 -1        76-2.06860E+03-5.28318E+03-2.23674E+03-1.32003E+03-2.21190E-08-1.77278E-08
 -1        77-2.51086E+03-6.61968E+03-2.78892E+03-1.61015E+03-2.53935E-08-3.66303E-08
 -1        78-3.02918E+03-8.11621E+03-3.41925E+03-1.94188E+03-1.52361E-08-5.30782E-08
 -1        79-3.54015E+03-9.60487E+03-4.04955E+03-2.22945E+03-2.68742E-09-6.75401E-08
 -1        80-3.94594E+03-1.10568E+04-4.64022E+03-2.43195E+03-3.40807E-09-6.94096E-08
 -1        81-4.31880E+03-1.26195E+04-5.26159E+03-2.54897E+03 1.04131E-09-9.71068E-08
 -1        82-4.68824E+03-1.43051E+04-5.92838E+03-2.60624E+03 1.57235E-08-1.16851E-07
 -1        83-5.03301E+03-1.59213E+04-6.57057E+03-2.58127E+03 3.30325E-08-1.04590E-07
 -1        84-5.22865E+03-1.72192E+04-7.06373E+03-2.42304E+03 4.55188E-08-7.00770E-08
 -1        85-5.33156E+03-1.82136E+04-7.42734E+03-2.10220E+03 4.57286E-08-1.53124E-08
 -1        86-5.33452E+03-1.90014E+04-7.69149E+03-1.63332E+03 2.42550E-08 3.86120E-08
 -1        87-5.71607E+03-1.99614E+04-8.13360E+03-1.18637E+03-5.94167E-10 5.41792E-08
 -1        88-4.32390E+03-1.95263E+04-7.55645E+03-1.27480E+02-9.14343E-09 2.81180E-08
 -1        89-1.96410E+02-3.68891E+02-1.35006E+02-9.76610E+01 7.19062E-10 2.75966E-08
 -1        90-2.32554E+02-2.79247E+02-9.26431E+01 2.18683E+02-3.72161E-09 5.38171E-08
 -1        91-1.69698E+02-2.42662E+02-7.14773E+01 1.83948E+02-7.35370E-09 3.67924E-08
 -1        92-1.38583E+02-1.99433E+02-5.24729E+01 2.28405E+02 5.28066E-10-2.04141E-08
 -1        93-7.69150E+01-1.44174E+02-2.31587E+01 3.16876E+02 9.22608E-09-8.36978E-08
 -1        94-5.87807E+00-1.07369E+02 3.13879E+00 4.43730E+02 1.06865E-08-1.13570E-07
 -1        95 1.11575E+02-3.94456E+01 5.31409E+01 5.25357E+02 1.42448E-08-1.19386E-07
 -1        96 1.65471E+02 3.57986E+01 8.60915E+01 5.46081E+02 1.07913E-08-9.45898E-08
 -1        97 2.00307E+02 1.01545E+02 1.10380E+02 5.46752E+02 5.46789E-09-6.67122E-08
 -1        98 2.30424E+02 1.03854E+02 1.14697E+02 5.69661E+02 6.23097E-09-5.95819E-08
 -1        99 3.10147E+02 8.85032E+01 1.29819E+02 5.83527E+02 2.10204E-10-5.27759E-08
 -1       100 3.26250E+02 7.47660E+01 1.27396E+02 5.62201E+02-1.19300E-08-2.48841E-08
 -1       101 2.81009E+02 1.02692E+02 1.19992E+02 4.88820E+02-1.19149E-08-8.55819E-09
 -1       102 1.83708E+02 1.27686E+02 9.67679E+01 3.93818E+02-6.86838E-09-5.53044E-09
 -1       103 1.43619E+02 1.30163E+02 8.44278E+01 3.09107E+02-1.51372E-09-4.58440E-09
 -1       104 1.41064E+02 5.89430E+01 6.13882E+01 2.78732E+02 3.77166E-09-1.69436E-08
 -1       105 1.84585E+02-4.65137E+01 4.20478E+01 2.85294E+02 8.54911E-09-2.56595E-08
 -1       106 1.96289E+02-1.36936E+02 1.79637E+01 2.80183E+02-2.67597E-09 3.48057E-09
 -1       107 1.28232E+02-1.25366E+02 9.02507E-01 1.92824E+02-3.99673E-08 8.04627E-08
 -1       108 1.28232E+02-1.25366E+02 9.02507E-01 1.92824E+02-3.99717E-08 8.04122E-08
 -1       109 1.96289E+02-1.36936E+02 1.79637E+01 2.80183E+02-2.67602E-09 3.49794E-09
 -1       110 1.84585E+02-4.65137E+01 4.20478E+01 2.85294E+02 8.55024E-09-2.56695E-08
 -1       111 1.41064E+02 5.89430E+01 6.13882E+01 2.78732E+02 3.76856E-09-1.69421E-08
 -1       112 1.43619E+02 1.30163E+02 8.44278E+01 3.09107E+02-1.51388E-09-4.58755E-09
 -1       113 1.83708E+02 1.27686E+02 9.67679E+01 3.93818E+02-6.86879E-09-5.52808E-09
 -1       114 2.81009E+02 1.02692E+02 1.19992E+02 4.88820E+02-1.19140E-08-8.56885E-09
 -1       115 3.26250E+02 7.47660E+01 1.27396E+02 5.62201E+02-1.19295E-08-2.48717E-08
 -1       116 3.10147E+02 8.85032E+01 1.29819E+02 5.83527E+02 2.10045E-10-5.27790E-08
 -1       117 2.30424E+02 1.03854E+02 1.14697E+02 5.69661E+02 6.23115E-09-5.95807E-08
 -1       118 2.00307E+02 1.01545E+02 1.10380E+02 5.46752E+02 5.46721E-09-6.67177E-08
 -1       119 1.65471E+02 3.57986E+01 8.60915E+01 5.46081E+02 1.07912E-08-9.45899E-08
 -1       120 1.11575E+02-3.94456E+01 5.31409E+01 5.25357E+02 1.42447E-08-1.19383E-07
 -1       121-5.87807E+00-1.07369E+02 3.13879E+00 4.43730E+02 1.06862E-08-1.13571E-07
 -1       122-7.69150E+01-1.44174E+02-2.31587E+01 3.16876E+02 9.22602E-09-8.37006E-08
 -1       123-1.38583E+02-1.99433E+02-5.24729E+01 2.28405E+02 5.28016E-10-2.04139E-08
 -1       124-1.69698E+02-2.42662E+02-7.14773E+01 1.83948E+02-7.35384E-09 3.67920E-08
 -1       125-2.32554E+02-2.79247E+02-9.26431E+01 2.18683E+02-3.72160E-09 5.38172E-08
 -1       126-1.96410E+02-3.68891E+02-1.35006E+02-9.76610E+01 7.19062E-10 2.75966E-08
 -3
    1PSTEP                       315          79           1          
  100CL  179 7.90000E-01         126                     1   79           1
 -4  TOSTRAIN    6    1
 -5  EXX         1    4    1    1
 -5  EYY         1    4    2    2
 -5  EZZ         1    4    3    3
 -5  EXY         1    4    1    2
 -5  EYZ         1    4    2    3
 -5  EZX         1    4    3    1
 -1         1-1.60516E-04 4.30702E-02-3.24225E-27 1.48508E-02-1.85605E-19 3.56130E-16
 -1         2-1.60516E-04 4.30702E-02-3.24225E-27 1.48508E-02-1.85605E-19 3.56130E-16
 -1         3-2.68082E-04 9.84436E-04 7.67453E-25 2.52691E-04 2.53389E-13 5.86282E-13
 -1         4-2.68082E-04 9.84436E-04 7.67432E-25 2.52691E-04 2.53387E-13 5.86268E-13
 -1         5-2.22308E-05-6.68705E-04 7.37324E-25 3.10320E-04-2.47576E-13 5.74570E-13
 -1         6-2.22308E-05-6.68705E-04 7.37110E-25 3.10320E-04-2.47648E-13 5.74454E-13
 -1         7-1.55963E-04-4.11577E-02-3.04622E-27 1.29900E-02 7.78268E-20-3.75532E-16
 -1         8-1.55963E-04-4.11577E-02-3.04621E-27 1.29900E-02 7.80609E-20-3.75519E-16
 -1         9-1.45156E-04 1.53255E-04 6.13545E-25 4.02105E-04 4.67666E-15 5.74838E-13
 -1        10-1.45156E-04 1.53255E-04 6.13621E-25 4.02105E-04 4.69269E-15 5.74885E-13
 -1        11-1.58239E-04-3.57441E-05-2.64704E-27 8.31756E-03 6.69886E-20 4.20443E-17
 -1        12-1.58239E-04-3.57441E-05-2.64704E-27 8.31756E-03 6.65517E-20 4.20207E-17
 -1        13-1.22596E-02 4.38526E-02 1.71115E-26 2.04273E-03 2.64610E-14 9.45373E-14
 -1        14-1.01835E-02 4.38927E-02 3.93681E-26 1.69607E-04-2.05667E-14 1.41736E-13
 -1        15-1.01290E-02 4.25723E-02 2.98139E-26 5.13627E-04-1.03855E-13 9.63292E-14
 -1        16-9.78599E-03 4.12934E-02 3.78505E-26 5.58079E-04-1.62878E-13-6.24139E-14
 -1        17-9.46556E-03 3.96243E-02 1.74180E-25 7.75522E-04-1.56221E-13-2.64502E-13
 -1        18-9.00929E-03 3.72650E-02 2.60561E-25 1.03057E-03-1.07442E-13-3.44656E-13
 -1        19-8.21417E-03 3.42135E-02 2.86294E-25 1.18742E-03-6.15216E-14-3.71814E-13
 -1        20-7.43871E-03 3.09083E-02 1.70122E-25 1.19204E-03-2.38214E-14-2.91033E-13
 -1        21-6.72734E-03 2.77080E-02 9.01690E-26 1.14133E-03-1.32105E-14-2.12776E-13
 -1        22-6.07472E-03 2.45239E-02 6.04085E-26 1.15008E-03-2.13063E-14-1.72444E-13
 -1        23-5.20860E-03 2.11082E-02 5.02765E-26 1.20294E-03-8.40200E-15-1.63046E-13
 -1        24-4.35771E-03 1.75520E-02-1.22844E-27 1.17336E-03 8.32589E-15-4.07035E-14
 -1        25-3.59207E-03 1.43226E-02-4.08212E-28 9.71759E-04-8.30226E-15-8.98442E-15
 -1        26-3.05736E-03 1.18407E-02-2.12875E-28 6.76730E-04-5.65372E-15 9.95050E-15
 -1        27-2.58432E-03 1.00825E-02 1.14685E-27 4.79204E-04-1.42062E-14-2.46067E-14
 -1        28-2.22593E-03 8.57042E-03 5.62546E-27 4.96255E-04 7.19922E-15-5.68278E-14
 -1        29-1.78835E-03 6.73855E-03 1.11591E-26 6.43172E-04 7.49805E-14-5.60274E-14
 -1        30-1.25178E-03 4.40205E-03 3.89480E-26 7.11504E-04 1.77289E-13 3.53708E-14
 -1        31-6.15280E-04 2.05311E-03 2.47804E-25 4.86465E-04 2.39881E-13 2.98561E-13
 -1        32-1.22596E-02 4.38526E-02 1.71115E-26 2.04273E-03 2.64610E-14 9.45373E-14
 -1        33-1.01835E-02 4.38927E-02 3.93680E-26 1.69607E-04-2.05668E-14 1.41735E-13
 -1        34-1.01290E-02 4.25723E-02 2.98143E-26 5.13627E-04-1.03854E-13 9.63299E-14
 -1        35-9.78599E-03 4.12934E-02 3.78509E-26 5.58079E-04-1.62878E-13-6.24142E-14
 -1        36-9.46556E-03 3.96243E-02 1.74175E-25 7.75522E-04-1.56220E-13-2.64498E-13
 -1        37-9.00929E-03 3.72650E-02 2.60545E-25 1.03057E-03-1.07438E-13-3.44646E-13
 -1        38-8.21417E-03 3.42135E-02 2.86303E-25 1.18742E-03-6.15209E-14-3.71820E-13
 -1        39-7.43871E-03 3.09083E-02 1.70121E-25 1.19204E-03-2.38208E-14-2.91032E-13
 -1        40-6.72734E-03 2.77080E-02 9.01653E-26 1.14133E-03-1.32082E-14-2.12772E-13
 -1        41-6.07472E-03 2.45239E-02 6.04095E-26 1.15008E-03-2.13069E-14-1.72445E-13
 -1        42-5.20860E-03 2.11082E-02 5.02735E-26 1.20294E-03-8.39920E-15-1.63040E-13
 -1        43-4.35771E-03 1.75520E-02-1.22051E-27 1.17336E-03 8.31433E-15-4.07256E-14
 -1        44-3.59207E-03 1.43226E-02-4.09199E-28 9.71759E-04-8.29841E-15-8.97953E-15
 -1        45-3.05736E-03 1.18407E-02-2.12823E-28 6.76730E-04-5.65437E-15 9.94997E-15
 -1        46-2.58432E-03 1.00825E-02 1.14647E-27 4.79204E-04-1.42057E-14-2.46037E-14
 -1        47-2.22593E-03 8.57042E-03 5.62583E-27 4.96255E-04 7.20413E-15-5.68311E-14
 -1        48-1.78835E-03 6.73855E-03 1.11653E-26 6.43172E-04 7.49801E-14-5.60254E-14
 -1        49-1.25178E-03 4.40205E-03 3.88967E-26 7.11504E-04 1.77240E-13 3.52747E-14
 -1        50-6.15280E-04 2.05311E-03 2.47942E-25 4.86465E-04 2.39936E-13 2.98661E-13
 -1        51 1.12898E-04-1.54328E-03 2.44012E-25 5.44721E-04-2.27850E-13 3.01922E-13
 -1        52 5.21673E-04-3.51937E-03 2.72341E-26 7.57329E-04-1.56415E-13 3.12710E-14
 -1        53 9.28285E-04-5.49867E-03 1.54707E-26 6.81024E-04-6.37458E-14-7.69800E-14
 -1        54 1.18162E-03-6.96030E-03 3.29406E-27 5.42823E-04-2.09196E-14-4.00270E-14
 -1        55 1.34838E-03-8.08522E-03 5.13574E-29 5.40573E-04-1.34965E-14-5.57035E-15
 -1        56 1.54478E-03-9.46227E-03 3.77338E-27 7.26132E-04-4.37210E-14-1.61965E-14
 -1        57 1.97327E-03-1.15985E-02 1.60605E-26 1.00666E-03-9.04886E-14-2.34945E-14
 -1        58 2.56483E-03-1.45447E-02 4.13579E-26 1.22018E-03-1.25105E-13-7.72078E-14
 -1        59 3.23497E-03-1.78931E-02 6.40248E-26 1.26194E-03-1.13461E-13-1.41607E-13
 -1        60 3.85075E-03-2.11757E-02 9.64955E-26 1.18461E-03-8.87286E-14-2.02710E-13
 -1        61 4.49953E-03-2.43133E-02 1.01819E-25 1.14732E-03-8.85305E-14-2.09922E-13
 -1        62 5.16632E-03-2.75862E-02 1.98253E-25 1.20593E-03-9.74232E-14-3.02821E-13
 -1        63 5.89032E-03-3.10944E-02 2.91938E-25 1.21533E-03-5.87135E-14-3.81082E-13
 -1        64 6.55063E-03-3.44240E-02 2.48171E-25 1.03450E-03 2.22510E-14-3.58026E-13
 -1        65 7.13406E-03-3.70496E-02 1.36943E-25 7.52226E-04 1.02880E-13-2.55221E-13
 -1        66 7.52012E-03-3.89358E-02 3.68677E-26 5.47548E-04 1.46176E-13-7.46653E-14
 -1        67 7.89305E-03-4.03972E-02 3.56104E-26 5.45970E-04 9.98891E-14 1.15036E-13
 -1        68 7.73640E-03-4.20504E-02 5.88882E-26 1.79457E-04 1.38349E-14 1.76857E-13
 -1        69 1.01184E-02-4.20987E-02 1.54437E-26 1.82251E-03-2.78826E-14 9.30610E-14
 -1        70 1.12898E-04-1.54328E-03 2.43982E-25 5.44721E-04-2.27828E-13 3.01907E-13
 -1        71 5.21673E-04-3.51937E-03 2.72251E-26 7.57329E-04-1.56424E-13 3.12504E-14
 -1        72 9.28285E-04-5.49867E-03 1.54663E-26 6.81024E-04-6.37405E-14-7.69634E-14
 -1        73 1.18162E-03-6.96030E-03 3.30078E-27 5.42823E-04-2.09559E-14-4.00609E-14
 -1        74 1.34838E-03-8.08522E-03 4.86859E-29 5.40573E-04-1.34895E-14-5.54705E-15
 -1        75 1.54478E-03-9.46227E-03 3.77377E-27 7.26132E-04-4.37220E-14-1.62005E-14
 -1        76 1.97327E-03-1.15985E-02 1.60591E-26 1.00666E-03-9.04846E-14-2.34798E-14
 -1        77 2.56483E-03-1.45447E-02 4.13317E-26 1.22018E-03-1.25076E-13-7.71717E-14
 -1        78 3.23497E-03-1.78931E-02 6.40311E-26 1.26194E-03-1.13466E-13-1.41618E-13
 -1        79 3.85075E-03-2.11757E-02 9.65063E-26 1.18461E-03-8.87341E-14-2.02721E-13
 -1        80 4.49953E-03-2.43133E-02 1.01777E-25 1.14732E-03-8.85095E-14-2.09879E-13
 -1        81 5.16632E-03-2.75862E-02 1.98254E-25 1.20593E-03-9.74232E-14-3.02821E-13
 -1        82 5.89032E-03-3.10944E-02 2.91941E-25 1.21533E-03-5.87151E-14-3.81084E-13
 -1        83 6.55063E-03-3.44240E-02 2.48171E-25 1.03450E-03 2.22510E-14-3.58026E-13
 -1        84 7.13406E-03-3.70496E-02 1.36933E-25 7.52226E-04 1.02883E-13-2.55210E-13
 -1        85 7.52012E-03-3.89358E-02 3.68686E-26 5.47548E-04 1.46175E-13-7.46666E-14
 -1        86 7.89305E-03-4.03972E-02 3.56110E-26 5.45970E-04 9.98911E-14 1.15036E-13
 -1        87 7.73640E-03-4.20504E-02 5.88882E-26 1.79457E-04 1.38349E-14 1.76858E-13
 -1        88 1.01184E-02-4.20987E-02 1.54437E-26 1.82251E-03-2.78826E-14 9.30609E-14
 -1        89-1.07062E-03 2.92454E-04 1.33774E-26-2.96203E-04 5.77490E-15 8.95711E-14
 -1        90-1.22357E-03 5.94236E-04 5.99721E-26 7.14443E-04 2.66375E-15 1.75420E-13
 -1        91-1.11800E-03 6.02870E-04 2.01715E-26 6.06228E-04-8.64952E-15 1.21745E-13
 -1        92-1.13294E-03 7.12456E-04-1.20872E-26 7.30534E-04-9.69662E-15-6.57057E-14
 -1        93-1.16575E-03 8.89493E-04 1.36070E-25 9.82137E-04-2.71853E-14-2.72531E-13
 -1        94-1.22933E-03 1.08931E-03 2.72680E-25 1.34389E-03-5.62591E-14-3.66625E-13
 -1        95-1.16192E-03 1.26412E-03 3.04916E-25 1.57007E-03-6.28449E-14-3.85781E-13
 -1        96-1.13620E-03 1.40641E-03 1.88701E-25 1.55843E-03-6.07426E-14-3.03425E-13
 -1        97-1.11391E-03 1.51108E-03 9.26535E-26 1.47923E-03-5.51659E-14-2.10396E-13
 -1        98-1.11198E-03 1.54663E-03 7.50670E-26 1.51504E-03-4.96447E-14-1.88169E-13
 -1        99-9.86819E-04 1.50373E-03 5.58905E-26 1.60756E-03-6.34938E-14-1.59179E-13
 -1       100-8.96438E-04 1.41742E-03 1.21966E-26 1.55647E-03-6.71476E-14-5.90534E-14
 -1       101-8.09401E-04 1.30910E-03 3.38882E-27 1.27929E-03-4.65171E-14-9.65384E-15
 -1       102-7.56289E-04 1.16206E-03 1.36984E-27 9.05492E-04-2.76779E-14-7.03130E-15
 -1       103-6.17974E-04 9.74032E-04 1.19938E-28 6.59185E-04-1.07245E-14-1.14080E-14
 -1       104-5.22155E-04 7.81027E-04 5.87075E-27 6.71550E-04-1.26127E-14-5.49765E-14
 -1       105-4.30031E-04 6.07707E-04 1.20634E-26 8.66369E-04-1.14442E-14-8.71454E-14
 -1       106-3.65051E-04 4.40803E-04-2.32634E-26 9.82971E-04-2.73524E-15 1.40036E-14
 -1       107-2.51191E-04 2.54519E-04 1.26337E-25 7.06551E-04 5.19119E-17 2.92062E-13
 -1       108-2.51191E-04 2.54519E-04 1.26183E-25 7.06551E-04-3.37783E-17 2.91922E-13
 -1       109-3.65051E-04 4.40803E-04-2.32396E-26 9.82971E-04-2.71045E-15 1.40542E-14
 -1       110-4.30031E-04 6.07707E-04 1.20706E-26 8.66369E-04-1.14552E-14-8.71761E-14
 -1       111-5.22155E-04 7.81027E-04 5.87027E-27 6.71550E-04-1.26197E-14-5.49677E-14
 -1       112-6.17974E-04 9.74032E-04 1.21322E-28 6.59185E-04-1.07293E-14-1.14170E-14
 -1       113-7.56289E-04 1.16206E-03 1.36910E-27 9.05492E-04-2.76760E-14-7.02378E-15
 -1       114-8.09401E-04 1.30910E-03 3.39328E-27 1.27929E-03-4.65286E-14-9.68652E-15
 -1       115-8.96438E-04 1.41742E-03 1.21853E-26 1.55647E-03-6.71304E-14-5.90170E-14
 -1       116-9.86819E-04 1.50373E-03 5.58952E-26 1.60756E-03-6.34981E-14-1.59188E-13
 -1       117-1.11198E-03 1.54663E-03 7.50635E-26 1.51504E-03-4.96428E-14-1.88165E-13
 -1       118-1.11391E-03 1.51108E-03 9.26691E-26 1.47923E-03-5.51741E-14-2.10412E-13
 -1       119-1.13620E-03 1.40641E-03 1.88702E-25 1.55843E-03-6.07430E-14-3.03425E-13
 -1       120-1.16192E-03 1.26412E-03 3.04901E-25 1.57007E-03-6.28426E-14-3.85771E-13
 -1       121-1.22933E-03 1.08931E-03 2.72683E-25 1.34389E-03-5.62602E-14-3.66626E-13
 -1       122-1.16575E-03 8.89493E-04 1.36080E-25 9.82137E-04-2.71874E-14-2.72540E-13
 -1       123-1.13294E-03 7.12456E-04-1.20878E-26 7.30534E-04-9.69666E-15-6.57051E-14
 -1       124-1.11800E-03 6.02870E-04 2.01708E-26 6.06228E-04-8.65015E-15 1.21744E-13
 -1       125-1.22357E-03 5.94236E-04 5.99722E-26 7.14443E-04 2.66383E-15 1.75420E-13
 -1       126-1.07062E-03 2.92454E-04 1.33774E-26-2.96203E-04 5.77490E-15 8.95712E-14
 -3
    1PSTEP                       316          79           1          
  100CL  179 7.90000E-01         126                     1   79           1
 -4  ERROR       1    1
 -5  STR(%)      1    1    0    0
 -1         1 6.14279E+01
 -1         2 6.14279E+01
 -1         3 3.88543E+01
 -1         4 3.88543E+01
 -1         5 4.42567E+01
 -1         6 4.42567E+01
 -1         7 5.87434E+01
 -1         8 5.87434E+01
 -1         9 4.42567E+01
 -1        10 4.42567E+01
 -1        11 6.14279E+01
 -1        12 6.14279E+01
 -1        13 6.14279E+01
 -1        14 6.06700E+01
 -1        15 6.04471E+01
 -1        16 6.03272E+01
 -1        17 6.01490E+01
 -1        18 6.00633E+01
 -1        19 5.97272E+01
 -1        20 5.92346E+01
 -1        21 5.85245E+01
 -1        22 5.79531E+01
 -1        23 5.73771E+01
 -1        24 5.68695E+01
 -1        25 5.60647E+01
 -1        26 5.53850E+01
 -1        27 5.52458E+01
 -1        28 5.58955E+01
 -1        29 5.58955E+01
 -1        30 5.49395E+01
 -1        31 4.72389E+01
 -1        32 6.14279E+01
 -1        33 6.06700E+01
 -1        34 6.04471E+01
 -1        35 6.03272E+01
 -1        36 6.01490E+01
 -1        37 6.00633E+01
 -1        38 5.97272E+01
 -1        39 5.92346E+01
 -1        40 5.85245E+01
 -1        41 5.79531E+01
 -1        42 5.73771E+01
 -1        43 5.68695E+01
 -1        44 5.60647E+01
 -1        45 5.53850E+01
 -1        46 5.52458E+01
 -1        47 5.58955E+01
 -1        48 5.58955E+01
 -1        49 5.49395E+01
 -1        50 4.72389E+01
 -1        51 5.59970E+01
 -1        52 6.74396E+01
 -1        53 6.98356E+01
 -1        54 6.98356E+01
 -1        55 7.07511E+01
 -1        56 7.09806E+01
 -1        57 7.09806E+01
 -1        58 6.99730E+01
 -1        59 6.85315E+01
 -1        60 6.71302E+01
 -1        61 6.57757E+01
 -1        62 6.47667E+01
 -1        63 6.37925E+01
 -1        64 6.26849E+01
 -1        65 6.14313E+01
 -1        66 6.04972E+01
 -1        67 5.99851E+01
 -1        68 5.99339E+01
 -1        69 5.99339E+01
 -1        70 5.59970E+01
 -1        71 6.74396E+01
 -1        72 6.98356E+01
 -1        73 6.98356E+01
 -1        74 7.07511E+01
 -1        75 7.09806E+01
 -1        76 7.09806E+01
 -1        77 6.99730E+01
 -1        78 6.85315E+01
 -1        79 6.71302E+01
 -1        80 6.57757E+01
 -1        81 6.47667E+01
 -1        82 6.37925E+01
 -1        83 6.26849E+01
 -1        84 6.14313E+01
 -1        85 6.04972E+01
 -1        86 5.99851E+01
 -1        87 5.99339E+01
 -1        88 5.99339E+01
 -1        89 6.14279E+01
 -1        90 6.06700E+01
 -1        91 6.04471E+01
 -1        92 6.04972E+01
 -1        93 6.14313E+01
 -1        94 6.26849E+01
 -1        95 6.37925E+01
 -1        96 6.47667E+01
 -1        97 6.57757E+01
 -1        98 6.71302E+01
 -1        99 6.85315E+01
 -1       100 6.99730E+01
 -1       101 7.09806E+01
 -1       102 7.09806E+01
 -1       103 7.07511E+01
 -1       104 6.98356E+01
 -1       105 6.98356E+01
 -1       106 6.74396E+01
 -1       107 5.59970E+01
 -1       108 5.59970E+01
 -1       109 6.74396E+01
 -1       110 6.98356E+01
 -1       111 6.98356E+01
 -1       112 7.07511E+01
 -1       113 7.09806E+01
 -1       114 7.09806E+01
 -1       115 6.99730E+01
 -1       116 6.85315E+01
 -1       117 6.71302E+01
 -1       118 6.57757E+01
 -1       119 6.47667E+01
 -1       120 6.37925E+01
 -1       121 6.26849E+01
 -1       122 6.14313E+01
 -1       123 6.04972E+01
 -1       124 6.04471E+01
 -1       125 6.06700E+01
 -1       126 6.14279E+01
 -3
    1PSTEP                       317          80           1          
  100CL  180 8.00000E-01         126                     1   80           1
 -4  DISP        4    1
 -5  D1          1    2    1    0
 -5  D2          1    2    2    0
 -5  D3          1    2    3    0
 -5  ALL         1    2    0    0    1ALL
 -1         1 0.00000E+00 0.00000E+00 0.00000E+00
 -1         2 0.00000E+00 0.00000E+00 0.00000E+00
 -1         3 3.19191E-01-3.72566E-02 0.00000E+00
 -1         4 3.19191E-01-3.72566E-02 0.00000E+00
 -1         5 3.08330E-01-8.25481E-02 0.00000E+00
 -1         6 3.08330E-01-8.25481E-02 0.00000E+00
 -1         7 0.00000E+00 0.00000E+00 0.00000E+00
 -1         8 0.00000E+00 0.00000E+00 0.00000E+00
 -1         9 3.13753E-01-5.98960E-02 0.00000E+00
 -1        10 3.13753E-01-5.98960E-02 0.00000E+00
 -1        11 0.00000E+00 0.00000E+00 0.00000E+00
 -1        12 0.00000E+00 0.00000E+00 0.00000E+00
 -1        13 1.51125E-03 2.14712E-03 0.00000E+00
 -1        14 4.91406E-03 4.28797E-03 0.00000E+00
 -1        15 1.06504E-02 6.15809E-03 0.00000E+00
 -1        16 1.85821E-02 7.67949E-03 0.00000E+00
 -1        17 2.86234E-02 8.75322E-03 0.00000E+00
 -1        18 4.06616E-02 9.29345E-03 0.00000E+00
 -1        19 5.45398E-02 9.22758E-03 0.00000E+00
 -1        20 7.00777E-02 8.50299E-03 0.00000E+00
 -1        21 8.70495E-02 7.10848E-03 0.00000E+00
 -1        22 1.05229E-01 5.06856E-03 0.00000E+00
 -1        23 1.24396E-01 2.43512E-03 0.00000E+00
 -1        24 1.44366E-01-7.35766E-04 0.00000E+00
 -1        25 1.64950E-01-4.36767E-03 0.00000E+00
 -1        26 1.85988E-01-8.36252E-03 0.00000E+00
 -1        27 2.07374E-01-1.26133E-02 0.00000E+00
 -1        28 2.29117E-01-1.70646E-02 0.00000E+00
 -1        29 2.51255E-01-2.17317E-02 0.00000E+00
 -1        30 2.73762E-01-2.66694E-02 0.00000E+00
 -1        31 2.96478E-01-3.18797E-02 0.00000E+00
 -1        32 1.51125E-03 2.14712E-03 0.00000E+00
 -1        33 4.91406E-03 4.28797E-03 0.00000E+00
 -1        34 1.06504E-02 6.15809E-03 0.00000E+00
 -1        35 1.85821E-02 7.67949E-03 0.00000E+00
 -1        36 2.86234E-02 8.75322E-03 0.00000E+00
 -1        37 4.06616E-02 9.29345E-03 0.00000E+00
 -1        38 5.45398E-02 9.22758E-03 0.00000E+00
 -1        39 7.00777E-02 8.50299E-03 0.00000E+00
 -1        40 8.70495E-02 7.10848E-03 0.00000E+00
 -1        41 1.05229E-01 5.06856E-03 0.00000E+00
 -1        42 1.24396E-01 2.43512E-03 0.00000E+00
 -1        43 1.44366E-01-7.35766E-04 0.00000E+00
 -1        44 1.64950E-01-4.36767E-03 0.00000E+00
 -1        45 1.85988E-01-8.36252E-03 0.00000E+00
 -1        46 2.07374E-01-1.26133E-02 0.00000E+00
 -1        47 2.29117E-01-1.70646E-02 0.00000E+00
 -1        48 2.51255E-01-2.17317E-02 0.00000E+00
 -1        49 2.73762E-01-2.66694E-02 0.00000E+00
 -1        50 2.96478E-01-3.18797E-02 0.00000E+00
 -1        51 2.85665E-01-7.70529E-02 0.00000E+00
 -1        52 2.63121E-01-7.14727E-02 0.00000E+00
 -1        53 2.40915E-01-6.59145E-02 0.00000E+00
 -1        54 2.19134E-01-6.04977E-02 0.00000E+00
 -1        55 1.97752E-01-5.52698E-02 0.00000E+00
 -1        56 1.76733E-01-5.02008E-02 0.00000E+00
 -1        57 1.56129E-01-4.52454E-02 0.00000E+00
 -1        58 1.36074E-01-4.03914E-02 0.00000E+00
 -1        59 1.16749E-01-3.56711E-02 0.00000E+00
 -1        60 9.83324E-02-3.11303E-02 0.00000E+00
 -1        61 8.10052E-02-2.68110E-02 0.00000E+00
 -1        62 6.49507E-02-2.27436E-02 0.00000E+00
 -1        63 5.03623E-02-1.89577E-02 0.00000E+00
 -1        64 3.74152E-02-1.54775E-02 0.00000E+00
 -1        65 2.62551E-02-1.23129E-02 0.00000E+00
 -1        66 1.69816E-02-9.44723E-03 0.00000E+00
 -1        67 9.67925E-03-6.83873E-03 0.00000E+00
 -1        68 4.39941E-03-4.43064E-03 0.00000E+00
 -1        69 1.29969E-03-2.11939E-03 0.00000E+00
 -1        70 2.85665E-01-7.70529E-02 0.00000E+00
 -1        71 2.63121E-01-7.14727E-02 0.00000E+00
 -1        72 2.40915E-01-6.59145E-02 0.00000E+00
 -1        73 2.19134E-01-6.04977E-02 0.00000E+00
 -1        74 1.97752E-01-5.52698E-02 0.00000E+00
 -1        75 1.76733E-01-5.02008E-02 0.00000E+00
 -1        76 1.56129E-01-4.52454E-02 0.00000E+00
 -1        77 1.36074E-01-4.03914E-02 0.00000E+00
 -1        78 1.16749E-01-3.56711E-02 0.00000E+00
 -1        79 9.83324E-02-3.11303E-02 0.00000E+00
 -1        80 8.10052E-02-2.68110E-02 0.00000E+00
 -1        81 6.49507E-02-2.27436E-02 0.00000E+00
 -1        82 5.03623E-02-1.89577E-02 0.00000E+00
 -1        83 3.74152E-02-1.54775E-02 0.00000E+00
 -1        84 2.62551E-02-1.23129E-02 0.00000E+00
 -1        85 1.69816E-02-9.44723E-03 0.00000E+00
 -1        86 9.67925E-03-6.83873E-03 0.00000E+00
 -1        87 4.39941E-03-4.43064E-03 0.00000E+00
 -1        88 1.29969E-03-2.11939E-03 0.00000E+00
 -1        89 8.36228E-04 1.92734E-05 0.00000E+00
 -1        90 4.20024E-03-3.07464E-05 0.00000E+00
 -1        91 9.70726E-03-2.77527E-04 0.00000E+00
 -1        92 1.73460E-02-8.05908E-04 0.00000E+00
 -1        93 2.70253E-02-1.68870E-03 0.00000E+00
 -1        94 3.86523E-02-2.98989E-03 0.00000E+00
 -1        95 5.21015E-02-4.75753E-03 0.00000E+00
 -1        96 6.72053E-02-7.01397E-03 0.00000E+00
 -1        97 8.37609E-02-9.75099E-03 0.00000E+00
 -1        98 1.01555E-01-1.29387E-02 0.00000E+00
 -1        99 1.20388E-01-1.65368E-02 0.00000E+00
 -1       100 1.40072E-01-2.04958E-02 0.00000E+00
 -1       101 1.60424E-01-2.47519E-02 0.00000E+00
 -1       102 1.81266E-01-2.92356E-02 0.00000E+00
 -1       103 2.02479E-01-3.38991E-02 0.00000E+00
 -1       104 2.24043E-01-3.87390E-02 0.00000E+00
 -1       105 2.46010E-01-4.37835E-02 0.00000E+00
 -1       106 2.68387E-01-4.90407E-02 0.00000E+00
 -1       107 2.91048E-01-5.44514E-02 0.00000E+00
 -1       108 2.91048E-01-5.44514E-02 0.00000E+00
 -1       109 2.68387E-01-4.90407E-02 0.00000E+00
 -1       110 2.46010E-01-4.37835E-02 0.00000E+00
 -1       111 2.24043E-01-3.87390E-02 0.00000E+00
 -1       112 2.02479E-01-3.38991E-02 0.00000E+00
 -1       113 1.81266E-01-2.92356E-02 0.00000E+00
 -1       114 1.60424E-01-2.47519E-02 0.00000E+00
 -1       115 1.40072E-01-2.04958E-02 0.00000E+00
 -1       116 1.20388E-01-1.65368E-02 0.00000E+00
 -1       117 1.01555E-01-1.29387E-02 0.00000E+00
 -1       118 8.37609E-02-9.75099E-03 0.00000E+00
 -1       119 6.72053E-02-7.01397E-03 0.00000E+00
 -1       120 5.21015E-02-4.75753E-03 0.00000E+00
 -1       121 3.86523E-02-2.98989E-03 0.00000E+00
 -1       122 2.70253E-02-1.68870E-03 0.00000E+00
 -1       123 1.73460E-02-8.05908E-04 0.00000E+00
 -1       124 9.70726E-03-2.77527E-04 0.00000E+00
 -1       125 4.20024E-03-3.07464E-05 0.00000E+00
 -1       126 8.36228E-04 1.92734E-05 0.00000E+00
 -3
    1PSTEP                       318          80           1          
  100CL  180 8.00000E-01         126                     1   80           1
 -4  STRESS      6    1
 -5  SXX         1    4    1    1
 -5  SYY         1    4    2    2
 -5  SZZ         1    4    3    3
 -5  SXY         1    4    1    2
 -5  SYZ         1    4    2    3
 -5  SZX         1    4    3    1
 -1         1 1.00138E+04 2.44955E+04 9.80450E+03 5.26586E+03 3.57110E-10 3.16779E-10
 -1         2 1.00138E+04 2.44955E+04 9.80450E+03 5.26586E+03 3.57110E-10 3.16779E-10
 -1         3 3.55359E+02 4.84244E+02 2.51397E+02 2.88641E+02 6.91268E-09 1.52483E-07
 -1         4 3.55359E+02 4.84244E+02 2.51397E+02 2.88641E+02 6.91267E-09 1.52480E-07
 -1         5-2.03062E+02-6.32057E+02-2.50890E+02-6.36665E+01-1.64391E-07 6.21696E-08
 -1         6-2.03062E+02-6.32057E+02-2.50890E+02-6.36665E+01-1.64405E-07 6.21844E-08
 -1         7-9.78023E+03-2.15798E+04-9.91446E+03 3.49324E+03 4.76741E-10-3.73411E-10
 -1         8-9.78023E+03-2.15798E+04-9.91446E+03 3.49324E+03 4.76741E-10-3.73407E-10
 -1         9 1.17993E+02-1.24707E+02-2.04124E+00 1.43280E+02-7.85652E-08 1.04179E-07
 -1        10 1.17993E+02-1.24707E+02-2.04124E+00 1.43280E+02-7.85639E-08 1.04182E-07
 -1        11 1.33176E+02-9.42800E+01 1.21210E+02 2.56071E+03 4.11124E-10-5.76339E-12
 -1        12 1.33176E+02-9.42800E+01 1.21210E+02 2.56071E+03 4.11124E-10-5.77072E-12
 -1        13 3.64611E+03 2.21718E+04 7.31503E+03 1.49109E+03 7.23371E-09 5.24464E-08
 -1        14 4.86368E+03 2.26859E+04 7.79920E+03 1.61788E+03-1.71382E-08 8.47645E-08
 -1        15 4.79303E+03 2.17615E+04 7.52977E+03 2.44549E+03-4.14096E-08 5.53681E-08
 -1        16 4.90664E+03 2.08213E+04 7.30775E+03 3.06725E+03-4.27193E-08 5.85142E-09
 -1        17 4.96277E+03 1.96108E+04 6.99424E+03 3.59717E+03-2.36144E-08-3.97665E-08
 -1        18 4.94191E+03 1.81185E+04 6.58126E+03 3.97539E+03 6.72716E-09-5.62511E-08
 -1        19 4.90313E+03 1.63688E+04 6.09265E+03 4.15097E+03 2.47368E-08-2.05103E-08
 -1        20 4.70361E+03 1.43858E+04 5.49147E+03 4.12166E+03 8.96213E-09 3.35291E-08
 -1        21 4.36754E+03 1.23363E+04 4.82826E+03 3.90021E+03-2.18178E-08 6.32945E-08
 -1        22 3.89688E+03 1.03389E+04 4.13510E+03 3.54757E+03-4.33523E-08 3.93874E-08
 -1        23 3.42805E+03 8.49278E+03 3.47972E+03 3.10400E+03-4.35236E-08 1.08241E-09
 -1        24 2.89318E+03 6.78081E+03 2.83746E+03 2.62654E+03-3.68989E-08-2.86156E-08
 -1        25 2.35586E+03 5.35569E+03 2.27185E+03 2.14629E+03-3.04747E-08-5.17359E-08
 -1        26 1.88223E+03 4.40075E+03 1.85712E+03 1.75200E+03-2.14177E-08-7.42730E-08
 -1        27 1.65321E+03 3.98757E+03 1.67004E+03 1.51721E+03-2.58250E-09-1.06676E-07
 -1        28 1.57273E+03 3.75067E+03 1.57683E+03 1.44883E+03 2.83600E-08-1.20401E-07
 -1        29 1.48398E+03 3.21890E+03 1.39440E+03 1.36841E+03 5.50034E-08-1.03228E-07
 -1        30 1.16206E+03 2.16553E+03 9.89194E+02 1.08614E+03 6.00926E-08-2.72048E-08
 -1        31 6.42662E+02 9.94400E+02 4.88532E+02 5.85596E+02 4.08392E-08 6.01727E-08
 -1        32 3.64611E+03 2.21718E+04 7.31503E+03 1.49109E+03 7.23371E-09 5.24464E-08
 -1        33 4.86368E+03 2.26859E+04 7.79920E+03 1.61788E+03-1.71382E-08 8.47645E-08
 -1        34 4.79303E+03 2.17615E+04 7.52977E+03 2.44549E+03-4.14097E-08 5.53681E-08
 -1        35 4.90664E+03 2.08213E+04 7.30775E+03 3.06725E+03-4.27193E-08 5.85142E-09
 -1        36 4.96277E+03 1.96108E+04 6.99424E+03 3.59717E+03-2.36145E-08-3.97667E-08
 -1        37 4.94191E+03 1.81185E+04 6.58126E+03 3.97539E+03 6.72714E-09-5.62526E-08
 -1        38 4.90313E+03 1.63688E+04 6.09265E+03 4.15097E+03 2.47368E-08-2.05105E-08
 -1        39 4.70361E+03 1.43858E+04 5.49147E+03 4.12166E+03 8.96213E-09 3.35291E-08
 -1        40 4.36754E+03 1.23363E+04 4.82826E+03 3.90021E+03-2.18178E-08 6.32945E-08
 -1        41 3.89688E+03 1.03389E+04 4.13510E+03 3.54757E+03-4.33521E-08 3.93891E-08
 -1        42 3.42805E+03 8.49278E+03 3.47972E+03 3.10400E+03-4.35236E-08 1.08143E-09
 -1        43 2.89318E+03 6.78081E+03 2.83746E+03 2.62654E+03-3.68990E-08-2.86119E-08
 -1        44 2.35586E+03 5.35569E+03 2.27185E+03 2.14629E+03-3.04740E-08-5.17360E-08
 -1        45 1.88223E+03 4.40075E+03 1.85712E+03 1.75200E+03-2.14171E-08-7.42696E-08
 -1        46 1.65321E+03 3.98757E+03 1.67004E+03 1.51721E+03-2.58250E-09-1.06676E-07
 -1        47 1.57273E+03 3.75067E+03 1.57683E+03 1.44883E+03 2.83600E-08-1.20401E-07
 -1        48 1.48398E+03 3.21890E+03 1.39440E+03 1.36841E+03 5.50035E-08-1.03234E-07
 -1        49 1.16206E+03 2.16553E+03 9.89194E+02 1.08614E+03 6.00917E-08-2.71836E-08
 -1        50 6.42662E+02 9.94400E+02 4.88532E+02 5.85596E+02 4.08361E-08 6.01524E-08
 -1        51-3.97274E+02-1.24578E+03-4.94803E+02-2.05157E+02-1.17234E-07-1.58837E-08
 -1        52-8.57957E+02-2.35377E+03-9.70307E+02-5.69988E+02-5.52270E-08-9.44178E-08
 -1        53-1.30433E+03-3.07835E+03-1.32669E+03-9.03107E+02 2.72704E-09-1.28564E-07
 -1        54-1.51794E+03-3.30922E+03-1.46170E+03-1.03033E+03 3.94360E-08-1.21537E-07
 -1        55-1.55740E+03-3.42812E+03-1.50923E+03-1.01425E+03 4.62164E-08-9.22919E-08
 -1        56-1.64989E+03-3.89586E+03-1.68041E+03-1.03081E+03 3.50243E-08-5.11921E-08
 -1        57-1.90360E+03-4.85583E+03-2.05400E+03-1.20555E+03 2.27951E-08-2.80011E-08
 -1        58-2.35467E+03-6.20984E+03-2.61305E+03-1.50903E+03 1.00478E-08 3.34524E-09
 -1        59-2.89905E+03-7.76641E+03-3.26859E+03-1.85681E+03-4.31009E-10 2.04227E-08
 -1        60-3.46884E+03-9.44328E+03-3.97579E+03-2.18039E+03-2.24182E-08 5.26914E-08
 -1        61-3.98436E+03-1.11955E+04-4.69747E+03-2.45946E+03-4.71146E-08 5.72773E-08
 -1        62-4.47180E+03-1.29931E+04-5.43231E+03-2.66122E+03-5.16923E-08 1.24452E-08
 -1        63-4.88474E+03-1.47056E+04-6.12254E+03-2.75429E+03-2.96831E-08-3.74967E-08
 -1        64-5.20030E+03-1.62149E+04-6.71996E+03-2.70351E+03 4.90058E-09-5.92435E-08
 -1        65-5.35991E+03-1.74452E+04-7.17897E+03-2.50144E+03 3.05552E-08-3.06538E-08
 -1        66-5.45949E+03-1.84597E+04-7.54870E+03-2.15781E+03 3.38202E-08 2.39311E-08
 -1        67-5.46683E+03-1.92667E+04-7.82086E+03-1.68306E+03 2.17202E-08 6.24278E-08
 -1        68-5.84564E+03-2.01927E+04-8.25024E+03-1.22675E+03 3.27634E-10 8.35045E-08
 -1        69-4.41646E+03-1.96733E+04-7.63242E+03-1.56142E+02-1.43229E-08 6.10658E-08
 -1        70-3.97274E+02-1.24578E+03-4.94803E+02-2.05157E+02-1.17233E-07-1.59039E-08
 -1        71-8.57957E+02-2.35377E+03-9.70307E+02-5.69988E+02-5.52200E-08-9.44474E-08
 -1        72-1.30433E+03-3.07835E+03-1.32669E+03-9.03107E+02 2.72480E-09-1.28557E-07
 -1        73-1.51794E+03-3.30922E+03-1.46170E+03-1.03033E+03 3.94367E-08-1.21563E-07
 -1        74-1.55740E+03-3.42812E+03-1.50923E+03-1.01425E+03 4.62164E-08-9.22845E-08
 -1        75-1.64989E+03-3.89586E+03-1.68041E+03-1.03081E+03 3.50241E-08-5.11919E-08
 -1        76-1.90360E+03-4.85583E+03-2.05400E+03-1.20555E+03 2.27984E-08-2.80028E-08
 -1        77-2.35467E+03-6.20984E+03-2.61305E+03-1.50903E+03 1.00507E-08 3.36037E-09
 -1        78-2.89905E+03-7.76641E+03-3.26859E+03-1.85681E+03-4.30958E-10 2.04137E-08
 -1        79-3.46884E+03-9.44328E+03-3.97579E+03-2.18039E+03-2.24182E-08 5.26878E-08
 -1        80-3.98436E+03-1.11955E+04-4.69747E+03-2.45946E+03-4.71147E-08 5.72921E-08
 -1        81-4.47180E+03-1.29931E+04-5.43231E+03-2.66122E+03-5.16923E-08 1.24452E-08
 -1        82-4.88474E+03-1.47056E+04-6.12254E+03-2.75429E+03-2.96833E-08-3.74970E-08
 -1        83-5.20030E+03-1.62149E+04-6.71996E+03-2.70351E+03 4.89872E-09-5.92437E-08
 -1        84-5.35991E+03-1.74452E+04-7.17897E+03-2.50144E+03 3.05570E-08-3.06528E-08
 -1        85-5.45949E+03-1.84597E+04-7.54870E+03-2.15781E+03 3.38209E-08 2.39309E-08
 -1        86-5.46683E+03-1.92667E+04-7.82086E+03-1.68306E+03 2.17199E-08 6.24278E-08
 -1        87-5.84564E+03-2.01927E+04-8.25024E+03-1.22675E+03 3.27634E-10 8.35045E-08
 -1        88-4.41646E+03-1.96733E+04-7.63242E+03-1.56142E+02-1.43229E-08 6.10658E-08
 -1        89-2.11823E+02-1.94602E+02-8.61671E+01-1.12417E+02-7.07846E-09 5.75801E-08
 -1        90-2.40940E+02-1.00746E+02-3.95663E+01 2.19217E+02-1.07078E-08 8.83201E-08
 -1        91-1.72631E+02-9.21210E+01-2.54671E+01 2.05846E+02-6.92127E-09 6.34172E-08
 -1        92-1.33749E+02-7.55974E+01-1.19732E+01 2.66134E+02-2.69092E-09 1.37897E-08
 -1        93-7.34234E+01-4.26913E+01 1.06568E+01 3.38568E+02 5.44377E-09-3.83233E-08
 -1        94-1.41914E+01-3.17233E+01 2.55707E+01 4.37873E+02 1.04732E-08-6.15860E-08
 -1        95 1.10942E+02-1.01982E+01 6.31116E+01 5.28953E+02-1.28814E-09-3.39054E-08
 -1        96 2.05386E+02 3.11637E+00 8.87842E+01 5.97429E+02-2.22068E-08 2.74101E-08
 -1        97 2.76612E+02 3.02769E+01 1.11948E+02 6.28667E+02-3.78406E-08 6.25531E-08
 -1        98 2.98546E+02 3.92434E+01 1.15472E+02 6.32122E+02-3.46060E-08 5.02830E-08
 -1        99 3.44280E+02 5.07096E+01 1.28017E+02 6.05374E+02-2.05464E-08 1.63857E-08
 -1       100 3.40210E+02 5.05991E+01 1.23400E+02 5.62703E+02-1.24173E-08-1.38773E-08
 -1       101 2.84567E+02 8.99374E+01 1.16501E+02 4.82570E+02-5.39584E-09-3.85742E-08
 -1       102 1.51865E+02 1.55224E+02 9.52105E+01 3.63751E+02 5.60302E-09-6.30653E-08
 -1       103 5.69934E+01 2.17213E+02 8.47280E+01 2.37671E+02 2.35271E-08-1.00447E-07
 -1       104 3.26487E+01 1.65300E+02 6.11262E+01 1.93435E+02 3.57584E-08-1.28588E-07
 -1       105 1.25899E+02 2.04051E+00 3.92431E+01 2.42292E+02 3.30842E-08-1.21910E-07
 -1       106 2.24946E+02-1.79906E+02 1.37809E+01 3.01385E+02 7.96301E-09-6.46399E-08
 -1       107 1.87504E+02-1.97764E+02-2.91154E+00 2.34805E+02-3.36250E-08 2.10469E-08
 -1       108 1.87504E+02-1.97764E+02-2.91154E+00 2.34805E+02-3.36254E-08 2.10299E-08
 -1       109 2.24946E+02-1.79906E+02 1.37809E+01 3.01385E+02 7.96302E-09-6.46354E-08
 -1       110 1.25899E+02 2.04051E+00 3.92431E+01 2.42292E+02 3.30851E-08-1.21910E-07
 -1       111 3.26487E+01 1.65300E+02 6.11262E+01 1.93435E+02 3.57575E-08-1.28586E-07
 -1       112 5.69934E+01 2.17213E+02 8.47280E+01 2.37671E+02 2.35271E-08-1.00447E-07
 -1       113 1.51865E+02 1.55224E+02 9.52105E+01 3.63751E+02 5.60336E-09-6.30725E-08
 -1       114 2.84567E+02 8.99374E+01 1.16501E+02 4.82570E+02-5.39663E-09-3.85694E-08
 -1       115 3.40210E+02 5.05991E+01 1.23400E+02 5.62703E+02-1.24175E-08-1.38870E-08
 -1       116 3.44280E+02 5.07096E+01 1.28017E+02 6.05374E+02-2.05465E-08 1.63920E-08
 -1       117 2.98546E+02 3.92434E+01 1.15472E+02 6.32122E+02-3.46064E-08 5.02801E-08
 -1       118 2.76612E+02 3.02769E+01 1.11948E+02 6.28667E+02-3.78405E-08 6.25495E-08
 -1       119 2.05386E+02 3.11637E+00 8.87842E+01 5.97429E+02-2.22068E-08 2.74102E-08
 -1       120 1.10942E+02-1.01982E+01 6.31116E+01 5.28953E+02-1.28851E-09-3.39049E-08
 -1       121-1.41914E+01-3.17233E+01 2.55707E+01 4.37873E+02 1.04734E-08-6.15874E-08
 -1       122-7.34234E+01-4.26913E+01 1.06568E+01 3.38568E+02 5.44363E-09-3.83233E-08
 -1       123-1.33749E+02-7.55974E+01-1.19732E+01 2.66134E+02-2.69120E-09 1.37902E-08
 -1       124-1.72631E+02-9.21210E+01-2.54671E+01 2.05846E+02-6.92117E-09 6.34171E-08
 -1       125-2.40940E+02-1.00746E+02-3.95663E+01 2.19217E+02-1.07078E-08 8.83201E-08
 -1       126-2.11823E+02-1.94602E+02-8.61671E+01-1.12417E+02-7.07846E-09 5.75801E-08
 -3
    1PSTEP                       319          80           1          
  100CL  180 8.00000E-01         126                     1   80           1
 -4  TOSTRAIN    6    1
 -5  EXX         1    4    1    1
 -5  EYY         1    4    2    2
 -5  EZZ         1    4    3    3
 -5  EXY         1    4    1    2
 -5  EYZ         1    4    2    3
 -5  EZX         1    4    3    1
 -1         1-1.65895E-04 4.41541E-02-9.76452E-27 1.51123E-02 6.37584E-20 5.21430E-16
 -1         2-1.65895E-04 4.41541E-02-9.76452E-27 1.51123E-02 6.37584E-20 5.21430E-16
 -1         3-3.34311E-04 1.42457E-03 4.23226E-25 3.81964E-04 2.44050E-13 4.31380E-13
 -1         4-3.34311E-04 1.42457E-03 4.23220E-25 3.81964E-04 2.44046E-13 4.31372E-13
 -1         5 3.57056E-05-1.12199E-03 5.93942E-25 4.43009E-04-3.85375E-13 4.22716E-13
 -1         6 3.57056E-05-1.12199E-03 5.94026E-25 4.43009E-04-3.85393E-13 4.22779E-13
 -1         7-1.59788E-04-4.13102E-02-1.38506E-26 1.29968E-02 4.88203E-19-6.80503E-16
 -1         8-1.59788E-04-4.13102E-02-1.38506E-26 1.29968E-02 4.88438E-19-6.80491E-16
 -1         9-1.49303E-04 1.40198E-04 2.95707E-25 5.92876E-04-7.42216E-14 4.17669E-13
 -1        10-1.49303E-04 1.40198E-04 2.95708E-25 5.92876E-04-7.42124E-14 4.17677E-13
 -1        11-1.62842E-04 3.62498E-04-1.18158E-26 8.36221E-03 2.33188E-19-1.02473E-16
 -1        12-1.62842E-04 3.62498E-04-1.18158E-26 8.36221E-03 2.32750E-19-1.02497E-16
 -1        13-1.26664E-02 4.50212E-02 5.10558E-26 2.04765E-03 2.86538E-14 1.67894E-13
 -1        14-1.05994E-02 4.52095E-02 1.53774E-25 1.23824E-04-2.99582E-14 2.76728E-13
 -1        15-1.05472E-02 4.39302E-02 8.76552E-26 5.12497E-04-1.04291E-13 1.94314E-13
 -1        16-1.01534E-02 4.25336E-02 2.02395E-26 5.87516E-04-1.26643E-13 4.23179E-14
 -1        17-9.76868E-03 4.07324E-02 3.35594E-26 7.64536E-04-9.71697E-14-1.09096E-13
 -1        18-9.31295E-03 3.84138E-02 6.38430E-26 9.58235E-04-2.30994E-14-1.81124E-13
 -1        19-8.55207E-03 3.54570E-02 1.03878E-26 1.16244E-03 5.56945E-14-8.61326E-14
 -1        20-7.71795E-03 3.19271E-02 1.25709E-26 1.32923E-03 5.92154E-14 9.36855E-14
 -1        21-6.81755E-03 2.80624E-02 8.98112E-26 1.39288E-03 3.16726E-15 2.16479E-13
 -1        22-5.96428E-03 2.41214E-02 6.70845E-26 1.35649E-03-8.21952E-14 1.69867E-13
 -1        23-4.99362E-03 2.02435E-02 3.08968E-26 1.29050E-03-1.26051E-13 5.72956E-14
 -1        24-4.11691E-03 1.65278E-02 3.77600E-26 1.19936E-03-1.43887E-13-3.73641E-14
 -1        25-3.34358E-03 1.32628E-02 6.85037E-26 9.71414E-04-1.56463E-13-1.12418E-13
 -1        26-2.83709E-03 1.09340E-02 1.17339E-25 5.70569E-04-1.61943E-13-1.89634E-13
 -1        27-2.49917E-03 9.77551E-03 2.32214E-25 2.01296E-04-1.53552E-13-3.09496E-13
 -1        28-2.38580E-03 9.25346E-03 3.19736E-25 1.56868E-04-8.59073E-14-3.91976E-13
 -1        29-2.15764E-03 8.22734E-03 2.75788E-25 4.66909E-04 1.19759E-14-3.79571E-13
 -1        30-1.62515E-03 5.92682E-03 5.35066E-26 7.96908E-04 1.33957E-13-1.66647E-13
 -1        31-8.02370E-04 2.92446E-03 5.48738E-26 6.60270E-04 2.06001E-13 1.14215E-13
 -1        32-1.26664E-02 4.50212E-02 5.10558E-26 2.04765E-03 2.86538E-14 1.67894E-13
 -1        33-1.05994E-02 4.52095E-02 1.53774E-25 1.23824E-04-2.99581E-14 2.76728E-13
 -1        34-1.05472E-02 4.39302E-02 8.76552E-26 5.12497E-04-1.04291E-13 1.94314E-13
 -1        35-1.01534E-02 4.25336E-02 2.02395E-26 5.87516E-04-1.26643E-13 4.23179E-14
 -1        36-9.76868E-03 4.07324E-02 3.35600E-26 7.64536E-04-9.71700E-14-1.09097E-13
 -1        37-9.31295E-03 3.84138E-02 6.38460E-26 9.58235E-04-2.31006E-14-1.81129E-13
 -1        38-8.55207E-03 3.54570E-02 1.03875E-26 1.16244E-03 5.56944E-14-8.61331E-14
 -1        39-7.71795E-03 3.19271E-02 1.25709E-26 1.32923E-03 5.92154E-14 9.36855E-14
 -1        40-6.81755E-03 2.80624E-02 8.98114E-26 1.39288E-03 3.16703E-15 2.16479E-13
 -1        41-5.96428E-03 2.41214E-02 6.70878E-26 1.35649E-03-8.21925E-14 1.69872E-13
 -1        42-4.99362E-03 2.02435E-02 3.08972E-26 1.29050E-03-1.26052E-13 5.72927E-14
 -1        43-4.11691E-03 1.65278E-02 3.77584E-26 1.19936E-03-1.43883E-13-3.73530E-14
 -1        44-3.34358E-03 1.32628E-02 6.85036E-26 9.71414E-04-1.56461E-13-1.12420E-13
 -1        45-2.83709E-03 1.09340E-02 1.17330E-25 5.70569E-04-1.61936E-13-1.89624E-13
 -1        46-2.49917E-03 9.77551E-03 2.32214E-25 2.01296E-04-1.53552E-13-3.09496E-13
 -1        47-2.38580E-03 9.25346E-03 3.19736E-25 1.56868E-04-8.59073E-14-3.91976E-13
 -1        48-2.15764E-03 8.22734E-03 2.75800E-25 4.66909E-04 1.19679E-14-3.79587E-13
 -1        49-1.62515E-03 5.92682E-03 5.34754E-26 7.96908E-04 1.33985E-13-1.66584E-13
 -1        50-8.02370E-04 2.92446E-03 5.48391E-26 6.60270E-04 2.05963E-13 1.14161E-13
 -1        51 2.89083E-04-2.42847E-03 2.37158E-25 7.22222E-04-3.64435E-13 1.26738E-13
 -1        52 8.60790E-04-5.05143E-03 2.13230E-25 8.48077E-04-3.00048E-13-1.93585E-13
 -1        53 1.25347E-03-6.97874E-03 3.37517E-25 5.05831E-04-1.78464E-13-3.79132E-13
 -1        54 1.32003E-03-7.62580E-03 3.41373E-25 1.99677E-04-5.68606E-14-4.12158E-13
 -1        55 1.26555E-03-7.77560E-03 2.18563E-25 2.57788E-04 7.86555E-15-3.36009E-13
 -1        56 1.34905E-03-8.59335E-03 7.35550E-26 6.13825E-04 3.40503E-14-1.99224E-13
 -1        57 1.77644E-03-1.06202E-02 2.12543E-26 1.00118E-03 3.07430E-14-1.13686E-13
 -1        58 2.38323E-03-1.36137E-02-3.03831E-27 1.24546E-03 3.48438E-14-3.10206E-15
 -1        59 3.06854E-03-1.70871E-02 4.00019E-27 1.35365E-03 2.46243E-14 6.20730E-14
 -1        60 3.76111E-03-2.07737E-02 6.49773E-26 1.40183E-03-5.95702E-15 1.86843E-13
 -1        61 4.55398E-03-2.46074E-02 1.12994E-25 1.41714E-03-8.38099E-14 2.28426E-13
 -1        62 5.33075E-03-2.84649E-02 5.29385E-26 1.36236E-03-1.53232E-13 9.19113E-14
 -1        63 6.05350E-03-3.20675E-02 4.15696E-26 1.20446E-03-1.33133E-13-8.99159E-14
 -1        64 6.63636E-03-3.51315E-02 6.86588E-26 9.75470E-04-3.39706E-14-1.91607E-13
 -1        65 7.15937E-03-3.75541E-02 3.09351E-26 7.58280E-04 8.04602E-14-1.19216E-13
 -1        66 7.53017E-03-3.94496E-02 2.79860E-26 5.92558E-04 1.28843E-13 5.79758E-14
 -1        67 7.89671E-03-4.09373E-02 8.75960E-26 5.55201E-04 1.02277E-13 1.93190E-13
 -1        68 7.69775E-03-4.24950E-02 1.43476E-25 1.42208E-04 2.59873E-14 2.72347E-13
 -1        69 1.00605E-02-4.23585E-02 7.49049E-26 1.76191E-03-4.14226E-14 2.01392E-13
 -1        70 2.89083E-04-2.42847E-03 2.37138E-25 7.22222E-04-3.64461E-13 1.26677E-13
 -1        71 8.60790E-04-5.05143E-03 2.13334E-25 8.48077E-04-3.00071E-13-1.93681E-13
 -1        72 1.25347E-03-6.97874E-03 3.37491E-25 5.05831E-04-1.78460E-13-3.79108E-13
 -1        73 1.32003E-03-7.62580E-03 3.41505E-25 1.99677E-04-5.68963E-14-4.12236E-13
 -1        74 1.26555E-03-7.77560E-03 2.18526E-25 2.57788E-04 7.87585E-15-3.35988E-13
 -1        75 1.34905E-03-8.59335E-03 7.35545E-26 6.13825E-04 3.40498E-14-1.99223E-13
 -1        76 1.77644E-03-1.06202E-02 2.12588E-26 1.00118E-03 3.07507E-14-1.13695E-13
 -1        77 2.38323E-03-1.36137E-02-3.03535E-27 1.24546E-03 3.48723E-14-3.06047E-15
 -1        78 3.06854E-03-1.70871E-02 3.99566E-27 1.35365E-03 2.46129E-14 6.20460E-14
 -1        79 3.76111E-03-2.07737E-02 6.49684E-26 1.40183E-03-5.96105E-15 1.86832E-13
 -1        80 4.55398E-03-2.46074E-02 1.13029E-25 1.41714E-03-8.37933E-14 2.28471E-13
 -1        81 5.33075E-03-2.84649E-02 5.29380E-26 1.36236E-03-1.53232E-13 9.19110E-14
 -1        82 6.05350E-03-3.20675E-02 4.15703E-26 1.20446E-03-1.33134E-13-8.99165E-14
 -1        83 6.63636E-03-3.51315E-02 6.86582E-26 9.75470E-04-3.39769E-14-1.91607E-13
 -1        84 7.15937E-03-3.75541E-02 3.09354E-26 7.58280E-04 8.04669E-14-1.19214E-13
 -1        85 7.53017E-03-3.94496E-02 2.79867E-26 5.92558E-04 1.28846E-13 5.79745E-14
 -1        86 7.89671E-03-4.09373E-02 8.75957E-26 5.55201E-04 1.02276E-13 1.93190E-13
 -1        87 7.69775E-03-4.24950E-02 1.43476E-25 1.42208E-04 2.59873E-14 2.72347E-13
 -1        88 1.00605E-02-4.23585E-02 7.49048E-26 1.76191E-03-4.14226E-14 2.01392E-13
 -1        89-1.30293E-03 7.29732E-04 6.34050E-26-3.69223E-04-1.56383E-14 1.88023E-13
 -1        90-1.45081E-03 1.04233E-03 1.65213E-25 6.63235E-04-9.98697E-15 2.89338E-13
 -1        91-1.32527E-03 1.00027E-03 7.74119E-26 6.10220E-04 4.27153E-15 2.07482E-13
 -1        92-1.31163E-03 1.05825E-03-1.05147E-26 7.79308E-04-1.10555E-15 4.56745E-14
 -1        93-1.30465E-03 1.16743E-03 2.34941E-26 9.78129E-04-9.01429E-15-1.25565E-13
 -1        94-1.33829E-03 1.28751E-03 8.04158E-26 1.25674E-03-1.66294E-14-2.02485E-13
 -1        95-1.24929E-03 1.38615E-03 1.22843E-26 1.54540E-03-3.51006E-14-1.04512E-13
 -1        96-1.19360E-03 1.46883E-03 1.25709E-26 1.74966E-03-4.06612E-14 1.07416E-13
 -1        97-1.13178E-03 1.53348E-03 1.10252E-25 1.82026E-03-4.64771E-14 2.33306E-13
 -1        98-1.10158E-03 1.54142E-03 7.62200E-26 1.79260E-03-4.54453E-14 1.93358E-13
 -1        99-9.62538E-04 1.47527E-03 8.74709E-27 1.72502E-03-4.13454E-14 7.48817E-14
 -1       100-8.66839E-04 1.37410E-03 1.75999E-27 1.59012E-03-5.49522E-14-2.52391E-14
 -1       101-7.83567E-04 1.27114E-03 2.66729E-26 1.27558E-03-6.72948E-14-1.07103E-13
 -1       102-7.44020E-04 1.14518E-03 7.72583E-26 7.61602E-04-6.92461E-14-1.93749E-13
 -1       103-6.16811E-04 9.74834E-04 2.18419E-25 2.89560E-04-7.01129E-14-3.27946E-13
 -1       104-5.32886E-04 7.89422E-04 3.75231E-25 2.22495E-04-7.68443E-14-4.27013E-13
 -1       105-4.52086E-04 6.15361E-04 3.27719E-25 6.38864E-04-7.85812E-14-4.02964E-13
 -1       106-3.82182E-04 4.38050E-04 5.10549E-26 1.11242E-03-7.09145E-14-1.99297E-13
 -1       107-2.56644E-04 2.42761E-04-2.54651E-26 9.55749E-04-6.65131E-14 1.10559E-13
 -1       108-2.56644E-04 2.42761E-04-2.54770E-26 9.55749E-04-6.65392E-14 1.10510E-13
 -1       109-3.82182E-04 4.38050E-04 5.10436E-26 1.11242E-03-7.09078E-14-1.99283E-13
 -1       110-4.52086E-04 6.15361E-04 3.27719E-25 6.38864E-04-7.85782E-14-4.02965E-13
 -1       111-5.32886E-04 7.89422E-04 3.75221E-25 2.22495E-04-7.68441E-14-4.27006E-13
 -1       112-6.16811E-04 9.74834E-04 2.18424E-25 2.89560E-04-7.01143E-14-3.27949E-13
 -1       113-7.44020E-04 1.14518E-03 7.72766E-26 7.61602E-04-6.92548E-14-1.93771E-13
 -1       114-7.83567E-04 1.27114E-03 2.66638E-26 1.27558E-03-6.72908E-14-1.07088E-13
 -1       115-8.66839E-04 1.37410E-03 1.76283E-27 1.59012E-03-5.49653E-14-2.52681E-14
 -1       116-9.62538E-04 1.47527E-03 8.74936E-27 1.72502E-03-4.13378E-14 7.49006E-14
 -1       117-1.10158E-03 1.54142E-03 7.62151E-26 1.79260E-03-4.54501E-14 1.93350E-13
 -1       118-1.13178E-03 1.53348E-03 1.10243E-25 1.82026E-03-4.64807E-14 2.33295E-13
 -1       119-1.19360E-03 1.46883E-03 1.25715E-26 1.74966E-03-4.06609E-14 1.07416E-13
 -1       120-1.24929E-03 1.38615E-03 1.22840E-26 1.54540E-03-3.51013E-14-1.04511E-13
 -1       121-1.33829E-03 1.28751E-03 8.04192E-26 1.25674E-03-1.66297E-14-2.02490E-13
 -1       122-1.30465E-03 1.16743E-03 2.34932E-26 9.78129E-04-9.01469E-15-1.25564E-13
 -1       123-1.31163E-03 1.05825E-03-1.05146E-26 7.79308E-04-1.10619E-15 4.56762E-14
 -1       124-1.32527E-03 1.00027E-03 7.74119E-26 6.10220E-04 4.27181E-15 2.07482E-13
 -1       125-1.45081E-03 1.04233E-03 1.65213E-25 6.63235E-04-9.98707E-15 2.89338E-13
 -1       126-1.30293E-03 7.29732E-04 6.34050E-26-3.69223E-04-1.56383E-14 1.88023E-13
 -3
    1PSTEP                       320          80           1          
  100CL  180 8.00000E-01         126                     1   80           1
 -4  ERROR       1    1
 -5  STR(%)      1    1    0    0
 -1         1 6.08337E+01
 -1         2 6.08337E+01
 -1         3 4.10332E+01
 -1         4 4.10332E+01
 -1         5 4.37923E+01
 -1         6 4.37923E+01
 -1         7 5.92141E+01
 -1         8 5.92141E+01
 -1         9 4.37923E+01
 -1        10 4.37923E+01
 -1        11 6.08337E+01
 -1        12 6.08337E+01
 -1        13 6.08337E+01
 -1        14 6.00523E+01
 -1        15 5.97615E+01
 -1        16 5.97604E+01
 -1        17 5.96613E+01
 -1        18 5.95966E+01
 -1        19 5.93732E+01
 -1        20 5.91536E+01
 -1        21 5.87049E+01
 -1        22 5.81545E+01
 -1        23 5.73945E+01
 -1        24 5.67562E+01
 -1        25 5.58600E+01
 -1        26 5.50036E+01
 -1        27 5.41575E+01
 -1        28 5.58424E+01
 -1        29 5.71912E+01
 -1        30 5.71912E+01
 -1        31 5.06452E+01
 -1        32 6.08337E+01
 -1        33 6.00523E+01
 -1        34 5.97615E+01
 -1        35 5.97604E+01
 -1        36 5.96613E+01
 -1        37 5.95966E+01
 -1        38 5.93732E+01
 -1        39 5.91536E+01
 -1        40 5.87049E+01
 -1        41 5.81545E+01
 -1        42 5.73945E+01
 -1        43 5.67562E+01
 -1        44 5.58600E+01
 -1        45 5.50036E+01
 -1        46 5.41575E+01
 -1        47 5.58424E+01
 -1        48 5.71912E+01
 -1        49 5.71912E+01
 -1        50 5.06452E+01
 -1        51 5.69238E+01
 -1        52 6.73599E+01
 -1        53 6.73599E+01
 -1        54 6.68515E+01
 -1        55 7.06875E+01
 -1        56 7.18506E+01
 -1        57 7.18506E+01
 -1        58 7.03605E+01
 -1        59 6.88574E+01
 -1        60 6.76004E+01
 -1        61 6.62989E+01
 -1        62 6.50624E+01
 -1        63 6.38412E+01
 -1        64 6.27687E+01
 -1        65 6.18010E+01
 -1        66 6.11190E+01
 -1        67 6.06447E+01
 -1        68 6.07017E+01
 -1        69 6.07017E+01
 -1        70 5.69238E+01
 -1        71 6.73599E+01
 -1        72 6.73599E+01
 -1        73 6.68515E+01
 -1        74 7.06875E+01
 -1        75 7.18506E+01
 -1        76 7.18506E+01
 -1        77 7.03605E+01
 -1        78 6.88574E+01
 -1        79 6.76004E+01
 -1        80 6.62989E+01
 -1        81 6.50624E+01
 -1        82 6.38412E+01
 -1        83 6.27687E+01
 -1        84 6.18010E+01
 -1        85 6.11190E+01
 -1        86 6.06447E+01
 -1        87 6.07017E+01
 -1        88 6.07017E+01
 -1        89 6.08337E+01
 -1        90 6.07017E+01
 -1        91 6.06447E+01
 -1        92 6.11190E+01
 -1        93 6.18010E+01
 -1        94 6.27687E+01
 -1        95 6.38412E+01
 -1        96 6.50624E+01
 -1        97 6.62989E+01
 -1        98 6.76004E+01
 -1        99 6.88574E+01
 -1       100 7.03605E+01
 -1       101 7.18506E+01
 -1       102 7.18506E+01
 -1       103 7.06875E+01
 -1       104 6.68515E+01
 -1       105 6.73599E+01
 -1       106 6.73599E+01
 -1       107 5.69238E+01
 -1       108 5.69238E+01
 -1       109 6.73599E+01
 -1       110 6.73599E+01
 -1       111 6.68515E+01
 -1       112 7.06875E+01
 -1       113 7.18506E+01
 -1       114 7.18506E+01
 -1       115 7.03605E+01
 -1       116 6.88574E+01
 -1       117 6.76004E+01
 -1       118 6.62989E+01
 -1       119 6.50624E+01
 -1       120 6.38412E+01
 -1       121 6.27687E+01
 -1       122 6.18010E+01
 -1       123 6.11190E+01
 -1       124 6.06447E+01
 -1       125 6.07017E+01
 -1       126 6.08337E+01
 -3
    1PSTEP                       321          81           1          
  100CL  181 8.10000E-01         126                     1   81           1
 -4  DISP        4    1
 -5  D1          1    2    1    0
 -5  D2          1    2    2    0
 -5  D3          1    2    3    0
 -5  ALL         1    2    0    0    1ALL
 -1         1 0.00000E+00 0.00000E+00 0.00000E+00
 -1         2 0.00000E+00 0.00000E+00 0.00000E+00
 -1         3 3.23451E-01-3.85956E-02 0.00000E+00
 -1         4 3.23451E-01-3.85956E-02 0.00000E+00
 -1         5 3.12434E-01-8.41895E-02 0.00000E+00
 -1         6 3.12434E-01-8.41895E-02 0.00000E+00
 -1         7 0.00000E+00 0.00000E+00 0.00000E+00
 -1         8 0.00000E+00 0.00000E+00 0.00000E+00
 -1         9 3.17936E-01-6.13868E-02 0.00000E+00
 -1        10 3.17936E-01-6.13868E-02 0.00000E+00
 -1        11 0.00000E+00 0.00000E+00 0.00000E+00
 -1        12 0.00000E+00 0.00000E+00 0.00000E+00
 -1        13 1.58438E-03 2.21248E-03 0.00000E+00
 -1        14 5.06331E-03 4.40517E-03 0.00000E+00
 -1        15 1.09093E-02 6.32346E-03 0.00000E+00
 -1        16 1.90095E-02 7.88031E-03 0.00000E+00
 -1        17 2.92687E-02 8.95974E-03 0.00000E+00
 -1        18 4.15434E-02 9.48002E-03 0.00000E+00
 -1        19 5.56770E-02 9.38277E-03 0.00000E+00
 -1        20 7.15239E-02 8.60710E-03 0.00000E+00
 -1        21 8.88675E-02 7.11372E-03 0.00000E+00
 -1        22 1.07434E-01 4.91746E-03 0.00000E+00
 -1        23 1.26937E-01 2.09764E-03 0.00000E+00
 -1        24 1.47163E-01-1.24702E-03 0.00000E+00
 -1        25 1.67942E-01-5.01325E-03 0.00000E+00
 -1        26 1.89157E-01-9.10630E-03 0.00000E+00
 -1        27 2.10741E-01-1.34450E-02 0.00000E+00
 -1        28 2.32701E-01-1.79983E-02 0.00000E+00
 -1        29 2.55046E-01-2.27821E-02 0.00000E+00
 -1        30 2.77727E-01-2.78328E-02 0.00000E+00
 -1        31 3.00592E-01-3.31380E-02 0.00000E+00
 -1        32 1.58438E-03 2.21248E-03 0.00000E+00
 -1        33 5.06331E-03 4.40517E-03 0.00000E+00
 -1        34 1.09093E-02 6.32346E-03 0.00000E+00
 -1        35 1.90095E-02 7.88031E-03 0.00000E+00
 -1        36 2.92687E-02 8.95974E-03 0.00000E+00
 -1        37 4.15434E-02 9.48002E-03 0.00000E+00
 -1        38 5.56770E-02 9.38277E-03 0.00000E+00
 -1        39 7.15239E-02 8.60710E-03 0.00000E+00
 -1        40 8.88675E-02 7.11372E-03 0.00000E+00
 -1        41 1.07434E-01 4.91746E-03 0.00000E+00
 -1        42 1.26937E-01 2.09764E-03 0.00000E+00
 -1        43 1.47163E-01-1.24702E-03 0.00000E+00
 -1        44 1.67942E-01-5.01325E-03 0.00000E+00
 -1        45 1.89157E-01-9.10630E-03 0.00000E+00
 -1        46 2.10741E-01-1.34450E-02 0.00000E+00
 -1        47 2.32701E-01-1.79983E-02 0.00000E+00
 -1        48 2.55046E-01-2.27821E-02 0.00000E+00
 -1        49 2.77727E-01-2.78328E-02 0.00000E+00
 -1        50 3.00592E-01-3.31380E-02 0.00000E+00
 -1        51 2.89619E-01-7.86236E-02 0.00000E+00
 -1        52 2.66913E-01-7.29796E-02 0.00000E+00
 -1        53 2.44515E-01-6.73498E-02 0.00000E+00
 -1        54 2.22518E-01-6.18408E-02 0.00000E+00
 -1        55 2.00927E-01-5.65069E-02 0.00000E+00
 -1        56 1.79720E-01-5.13403E-02 0.00000E+00
 -1        57 1.58933E-01-4.63114E-02 0.00000E+00
 -1        58 1.38658E-01-4.14003E-02 0.00000E+00
 -1        59 1.19045E-01-3.66117E-02 0.00000E+00
 -1        60 1.00275E-01-3.19646E-02 0.00000E+00
 -1        61 8.25764E-02-2.74960E-02 0.00000E+00
 -1        62 6.61917E-02-2.32631E-02 0.00000E+00
 -1        63 5.13400E-02-1.93355E-02 0.00000E+00
 -1        64 3.81716E-02-1.57545E-02 0.00000E+00
 -1        65 2.68005E-02-1.25166E-02 0.00000E+00
 -1        66 1.73333E-02-9.58586E-03 0.00000E+00
 -1        67 9.88610E-03-6.92192E-03 0.00000E+00
 -1        68 4.51340E-03-4.47920E-03 0.00000E+00
 -1        69 1.34782E-03-2.14692E-03 0.00000E+00
 -1        70 2.89619E-01-7.86236E-02 0.00000E+00
 -1        71 2.66913E-01-7.29796E-02 0.00000E+00
 -1        72 2.44515E-01-6.73498E-02 0.00000E+00
 -1        73 2.22518E-01-6.18408E-02 0.00000E+00
 -1        74 2.00927E-01-5.65069E-02 0.00000E+00
 -1        75 1.79720E-01-5.13403E-02 0.00000E+00
 -1        76 1.58933E-01-4.63114E-02 0.00000E+00
 -1        77 1.38658E-01-4.14003E-02 0.00000E+00
 -1        78 1.19045E-01-3.66117E-02 0.00000E+00
 -1        79 1.00275E-01-3.19646E-02 0.00000E+00
 -1        80 8.25764E-02-2.74960E-02 0.00000E+00
 -1        81 6.61917E-02-2.32631E-02 0.00000E+00
 -1        82 5.13400E-02-1.93355E-02 0.00000E+00
 -1        83 3.81716E-02-1.57545E-02 0.00000E+00
 -1        84 2.68005E-02-1.25166E-02 0.00000E+00
 -1        85 1.73333E-02-9.58586E-03 0.00000E+00
 -1        86 9.88610E-03-6.92192E-03 0.00000E+00
 -1        87 4.51340E-03-4.47920E-03 0.00000E+00
 -1        88 1.34782E-03-2.14692E-03 0.00000E+00
 -1        89 8.85542E-04 3.70641E-05 0.00000E+00
 -1        90 4.32391E-03 4.73807E-06 0.00000E+00
 -1        91 9.93008E-03-2.33607E-04 0.00000E+00
 -1        92 1.77266E-02-7.70413E-04 0.00000E+00
 -1        93 2.76147E-02-1.68260E-03 0.00000E+00
 -1        94 3.94656E-02-3.03058E-03 0.00000E+00
 -1        95 5.31504E-02-4.86323E-03 0.00000E+00
 -1        96 6.85400E-02-7.21529E-03 0.00000E+00
 -1        97 8.54524E-02-1.00863E-02 0.00000E+00
 -1        98 1.03635E-01-1.34311E-02 0.00000E+00
 -1        99 1.22817E-01-1.71792E-02 0.00000E+00
 -1       100 1.42773E-01-2.12600E-02 0.00000E+00
 -1       101 1.63327E-01-2.56100E-02 0.00000E+00
 -1       102 1.84345E-01-3.01771E-02 0.00000E+00
 -1       103 2.05748E-01-3.49324E-02 0.00000E+00
 -1       104 2.27528E-01-3.98774E-02 0.00000E+00
 -1       105 2.49709E-01-4.50278E-02 0.00000E+00
 -1       106 2.72270E-01-5.03778E-02 0.00000E+00
 -1       107 2.95084E-01-5.58669E-02 0.00000E+00
 -1       108 2.95084E-01-5.58669E-02 0.00000E+00
 -1       109 2.72270E-01-5.03778E-02 0.00000E+00
 -1       110 2.49709E-01-4.50278E-02 0.00000E+00
 -1       111 2.27528E-01-3.98774E-02 0.00000E+00
 -1       112 2.05748E-01-3.49324E-02 0.00000E+00
 -1       113 1.84345E-01-3.01771E-02 0.00000E+00
 -1       114 1.63327E-01-2.56100E-02 0.00000E+00
 -1       115 1.42773E-01-2.12600E-02 0.00000E+00
 -1       116 1.22817E-01-1.71792E-02 0.00000E+00
 -1       117 1.03635E-01-1.34311E-02 0.00000E+00
 -1       118 8.54524E-02-1.00863E-02 0.00000E+00
 -1       119 6.85400E-02-7.21529E-03 0.00000E+00
 -1       120 5.31504E-02-4.86323E-03 0.00000E+00
 -1       121 3.94656E-02-3.03058E-03 0.00000E+00
 -1       122 2.76147E-02-1.68260E-03 0.00000E+00
 -1       123 1.77266E-02-7.70413E-04 0.00000E+00
 -1       124 9.93008E-03-2.33607E-04 0.00000E+00
 -1       125 4.32391E-03 4.73807E-06 0.00000E+00
 -1       126 8.85542E-04 3.70641E-05 0.00000E+00
 -3
    1PSTEP                       322          81           1          
  100CL  181 8.10000E-01         126                     1   81           1
 -4  STRESS      6    1
 -5  SXX         1    4    1    1
 -5  SYY         1    4    2    2
 -5  SZZ         1    4    3    3
 -5  SXY         1    4    1    2
 -5  SYZ         1    4    2    3
 -5  SZX         1    4    3    1
 -1         1 1.03373E+04 2.53006E+04 1.01035E+04 5.54346E+03 1.76921E-10 1.79320E-10
 -1         2 1.03373E+04 2.53006E+04 1.01035E+04 5.54346E+03 1.76921E-10 1.79320E-10
 -1         3 3.17216E+02 4.40811E+02 2.27002E+02 2.66961E+02 4.95859E-09-3.38378E-08
 -1         4 3.17216E+02 4.40811E+02 2.27002E+02 2.66961E+02 4.95909E-09-3.38368E-08
 -1         5-1.91817E+02-5.77927E+02-2.31218E+02-5.54904E+01-4.81782E-08-5.48287E-08
 -1         6-1.91817E+02-5.77927E+02-2.31218E+02-5.54904E+01-4.81910E-08-5.47737E-08
 -1         7-9.89369E+03-2.18413E+04-1.00410E+04 3.61387E+03 1.93723E-10-2.02189E-10
 -1         8-9.89369E+03-2.18413E+04-1.00410E+04 3.61387E+03 1.93723E-10-2.02185E-10
 -1         9 1.00028E+02-1.16648E+02-5.00857E+00 1.33152E+02-2.05369E-08-4.96557E-08
 -1        10 1.00028E+02-1.16648E+02-5.00857E+00 1.33152E+02-2.05362E-08-4.96645E-08
 -1        11 2.26260E+02 8.99759E+01 2.07145E+02 2.71370E+03 1.50262E-10 1.60796E-11
 -1        12 2.26260E+02 8.99759E+01 2.07145E+02 2.71370E+03 1.50262E-10 1.60723E-11
 -1        13 3.71452E+03 2.28172E+04 7.50395E+03 1.60585E+03 6.90622E-09 2.52671E-08
 -1        14 4.95244E+03 2.33021E+04 7.98501E+03 1.69654E+03 8.52049E-09 2.38359E-08
 -1        15 4.89123E+03 2.23789E+04 7.71824E+03 2.56429E+03 8.33250E-09 4.11069E-08
 -1        16 5.02383E+03 2.13529E+04 7.47961E+03 3.23017E+03 9.48752E-09 4.40936E-08
 -1        17 5.08599E+03 2.00029E+04 7.13268E+03 3.75449E+03 1.15802E-08 5.22120E-08
 -1        18 5.06772E+03 1.84650E+04 6.70983E+03 4.10729E+03 1.42534E-08 6.56165E-08
 -1        19 5.05645E+03 1.67459E+04 6.23769E+03 4.29910E+03 3.57855E-09 9.88501E-08
 -1        20 4.88864E+03 1.46790E+04 5.62288E+03 4.30292E+03-1.60965E-08 1.11307E-07
 -1        21 4.52085E+03 1.23411E+04 4.87194E+03 4.04659E+03-4.45129E-08 1.22205E-07
 -1        22 3.93384E+03 9.99817E+03 4.04959E+03 3.57466E+03-6.67381E-08 1.01434E-07
 -1        23 3.33320E+03 7.97058E+03 3.30445E+03 3.00555E+03-7.84462E-08 5.40634E-08
 -1        24 2.73646E+03 6.32442E+03 2.66164E+03 2.47896E+03-6.78488E-08-1.28991E-08
 -1        25 2.23353E+03 5.12029E+03 2.16840E+03 2.03915E+03-3.89469E-08-7.51260E-08
 -1        26 1.84390E+03 4.36260E+03 1.83476E+03 1.72496E+03-1.17932E-08-1.11436E-07
 -1        27 1.67341E+03 3.99336E+03 1.67744E+03 1.54090E+03 1.77392E-08-1.39554E-07
 -1        28 1.58313E+03 3.66523E+03 1.55476E+03 1.45954E+03 4.26755E-08-1.36927E-07
 -1        29 1.44334E+03 3.04273E+03 1.33076E+03 1.33069E+03 5.19305E-08-1.11909E-07
 -1        30 1.08932E+03 1.99838E+03 9.18406E+02 1.02351E+03 3.46482E-08-7.86133E-08
 -1        31 5.85566E+02 9.06602E+02 4.45454E+02 5.43405E+02 1.93921E-08-5.56120E-08
 -1        32 3.71452E+03 2.28172E+04 7.50395E+03 1.60585E+03 6.90622E-09 2.52671E-08
 -1        33 4.95244E+03 2.33021E+04 7.98501E+03 1.69654E+03 8.52046E-09 2.38360E-08
 -1        34 4.89123E+03 2.23789E+04 7.71824E+03 2.56429E+03 8.33253E-09 4.11068E-08
 -1        35 5.02383E+03 2.13529E+04 7.47961E+03 3.23017E+03 9.48752E-09 4.40927E-08
 -1        36 5.08599E+03 2.00029E+04 7.13268E+03 3.75449E+03 1.15801E-08 5.22127E-08
 -1        37 5.06772E+03 1.84650E+04 6.70983E+03 4.10729E+03 1.42540E-08 6.56117E-08
 -1        38 5.05645E+03 1.67459E+04 6.23769E+03 4.29910E+03 3.57853E-09 9.88519E-08
 -1        39 4.88864E+03 1.46790E+04 5.62288E+03 4.30292E+03-1.60966E-08 1.11307E-07
 -1        40 4.52085E+03 1.23411E+04 4.87194E+03 4.04659E+03-4.45130E-08 1.22205E-07
 -1        41 3.93384E+03 9.99817E+03 4.04959E+03 3.57466E+03-6.67381E-08 1.01435E-07
 -1        42 3.33320E+03 7.97058E+03 3.30445E+03 3.00555E+03-7.84461E-08 5.40634E-08
 -1        43 2.73646E+03 6.32442E+03 2.66164E+03 2.47896E+03-6.78488E-08-1.29001E-08
 -1        44 2.23353E+03 5.12029E+03 2.16840E+03 2.03915E+03-3.89471E-08-7.51185E-08
 -1        45 1.84390E+03 4.36260E+03 1.83476E+03 1.72496E+03-1.17924E-08-1.11441E-07
 -1        46 1.67341E+03 3.99336E+03 1.67744E+03 1.54090E+03 1.77392E-08-1.39554E-07
 -1        47 1.58313E+03 3.66523E+03 1.55476E+03 1.45954E+03 4.26755E-08-1.36927E-07
 -1        48 1.44334E+03 3.04273E+03 1.33076E+03 1.33069E+03 5.19275E-08-1.11907E-07
 -1        49 1.08932E+03 1.99838E+03 9.18406E+02 1.02351E+03 3.46492E-08-7.86276E-08
 -1        50 5.85566E+02 9.06602E+02 4.45454E+02 5.43405E+02 1.93940E-08-5.55861E-08
 -1        51-3.71542E+02-1.14204E+03-4.55645E+02-1.83794E+02-3.04141E-08-8.20256E-08
 -1        52-8.01195E+02-2.18707E+03-9.02279E+02-5.21176E+02-2.22970E-08-9.77722E-08
 -1        53-1.24018E+03-2.94637E+03-1.26671E+03-8.48648E+02 9.33664E-10-1.30840E-07
 -1        54-1.49394E+03-3.29022E+03-1.44860E+03-1.01092E+03 3.46688E-08-1.39997E-07
 -1        55-1.58340E+03-3.47166E+03-1.53072E+03-1.04098E+03 5.54917E-08-1.18802E-07
 -1        56-1.67847E+03-3.85102E+03-1.67554E+03-1.06303E+03 5.83464E-08-7.26251E-08
 -1        57-1.86727E+03-4.60936E+03-1.96667E+03-1.18895E+03 5.67694E-08-1.55584E-08
 -1        58-2.23487E+03-5.80509E+03-2.44993E+03-1.42987E+03 4.35055E-08 3.76712E-08
 -1        59-2.75274E+03-7.39830E+03-3.10752E+03-1.75960E+03 8.59413E-09 9.69533E-08
 -1        60-3.39314E+03-9.33267E+03-3.91775E+03-2.13773E+03-2.65545E-08 1.20894E-07
 -1        61-4.03801E+03-1.14121E+04-4.78583E+03-2.51798E+03-4.63304E-08 1.20563E-07
 -1        62-4.62777E+03-1.33887E+04-5.61263E+03-2.79952E+03-5.33358E-08 1.06973E-07
 -1        63-5.05732E+03-1.50576E+04-6.29415E+03-2.90166E+03-4.59006E-08 9.00747E-08
 -1        64-5.33467E+03-1.64478E+04-6.83926E+03-2.80583E+03-2.87679E-08 5.78407E-08
 -1        65-5.47284E+03-1.76570E+04-7.28422E+03-2.56158E+03-2.08941E-08 4.68203E-08
 -1        66-5.58663E+03-1.87297E+04-7.67867E+03-2.20827E+03-1.65646E-08 3.82573E-08
 -1        67-5.59742E+03-1.95335E+04-7.95073E+03-1.73422E+03-1.37484E-08 3.52666E-08
 -1        68-5.97116E+03-2.04041E+04-8.35829E+03-1.25684E+03-1.40718E-08 3.34067E-08
 -1        69-4.50640E+03-1.98876E+04-7.73001E+03-1.33991E+02-1.28166E-08 2.28370E-08
 -1        70-3.71542E+02-1.14204E+03-4.55645E+02-1.83794E+02-3.04153E-08-8.20321E-08
 -1        71-8.01195E+02-2.18707E+03-9.02279E+02-5.21176E+02-2.22962E-08-9.77666E-08
 -1        72-1.24018E+03-2.94637E+03-1.26671E+03-8.48648E+02 9.35124E-10-1.30842E-07
 -1        73-1.49394E+03-3.29022E+03-1.44860E+03-1.01092E+03 3.46619E-08-1.39997E-07
 -1        74-1.58340E+03-3.47166E+03-1.53072E+03-1.04098E+03 5.54935E-08-1.18800E-07
 -1        75-1.67847E+03-3.85102E+03-1.67554E+03-1.06303E+03 5.83463E-08-7.26242E-08
 -1        76-1.86727E+03-4.60936E+03-1.96667E+03-1.18895E+03 5.67689E-08-1.55595E-08
 -1        77-2.23487E+03-5.80509E+03-2.44993E+03-1.42987E+03 4.35073E-08 3.76574E-08
 -1        78-2.75274E+03-7.39830E+03-3.10752E+03-1.75960E+03 8.59119E-09 9.69569E-08
 -1        79-3.39314E+03-9.33267E+03-3.91775E+03-2.13773E+03-2.65509E-08 1.20887E-07
 -1        80-4.03801E+03-1.14121E+04-4.78583E+03-2.51798E+03-4.63321E-08 1.20565E-07
 -1        81-4.62777E+03-1.33887E+04-5.61263E+03-2.79952E+03-5.33360E-08 1.06973E-07
 -1        82-5.05732E+03-1.50576E+04-6.29415E+03-2.90166E+03-4.59018E-08 9.00752E-08
 -1        83-5.33467E+03-1.64478E+04-6.83926E+03-2.80583E+03-2.87674E-08 5.78360E-08
 -1        84-5.47284E+03-1.76570E+04-7.28422E+03-2.56158E+03-2.08942E-08 4.68236E-08
 -1        85-5.58663E+03-1.87297E+04-7.67867E+03-2.20827E+03-1.65645E-08 3.82623E-08
 -1        86-5.59742E+03-1.95335E+04-7.95073E+03-1.73422E+03-1.37484E-08 3.52643E-08
 -1        87-5.97116E+03-2.04041E+04-8.35829E+03-1.25684E+03-1.40718E-08 3.34068E-08
 -1        88-4.50640E+03-1.98876E+04-7.73001E+03-1.33991E+02-1.28166E-08 2.28369E-08
 -1        89-2.19420E+02-3.93802E+01-3.95440E+01-6.23033E+01-4.53023E-10 2.06708E-08
 -1        90-2.47101E+02 6.21893E+01 1.00910E+01 2.37588E+02-2.63947E-09 3.17178E-08
 -1        91-1.79783E+02 3.52901E+01 1.20221E+01 2.25789E+02-3.55584E-09 3.63963E-08
 -1        92-1.29715E+02 9.17678E+00 1.60847E+01 3.13356E+02-1.33032E-09 4.15389E-08
 -1        93-6.53419E+01 8.46199E+00 3.04423E+01 3.76842E+02-3.72696E-09 4.71530E-08
 -1        94-2.20592E+01-9.13633E+00 3.21361E+01 4.33040E+02-9.12568E-09 5.89677E-08
 -1        95 9.82527E+01-3.39536E+01 5.36171E+01 5.05484E+02-2.25031E-08 9.30453E-08
 -1        96 2.25136E+02-8.69684E+01 6.81833E+01 6.06369E+02-3.65965E-08 1.12087E-07
 -1        97 3.40231E+02-1.06039E+02 9.00405E+01 6.79487E+02-4.66284E-08 1.24449E-07
 -1        98 3.68751E+02-8.63712E+01 9.84236E+01 6.84724E+02-4.69115E-08 1.16722E-07
 -1        99 3.74599E+02-1.62229E+01 1.16512E+02 6.18058E+02-3.54168E-08 8.07371E-08
 -1       100 3.15168E+02 4.68965E+01 1.14387E+02 5.29589E+02-9.07460E-09 1.59434E-08
 -1       101 2.29947E+02 1.17306E+02 1.08108E+02 4.29683E+02 1.08256E-08-4.66905E-08
 -1       102 1.10838E+02 1.70208E+02 8.72611E+01 3.27124E+02 2.47497E-08-9.70689E-08
 -1       103 5.59680E+01 1.98127E+02 7.85695E+01 2.36472E+02 3.76851E-08-1.34289E-07
 -1       104 5.76409E+01 1.26843E+02 5.69940E+01 2.14589E+02 4.23700E-08-1.43492E-07
 -1       105 1.42402E+02-2.22437E+01 3.68888E+01 2.55334E+02 2.84857E-08-1.22777E-07
 -1       106 2.14434E+02-1.76666E+02 1.15903E+01 2.93346E+02 4.53468E-09-8.99764E-08
 -1       107 1.66573E+02-1.85419E+02-5.51964E+00 2.20592E+02-9.86107E-09-6.91181E-08
 -1       108 1.66573E+02-1.85419E+02-5.51964E+00 2.20592E+02-9.85705E-09-6.91192E-08
 -1       109 2.14434E+02-1.76666E+02 1.15903E+01 2.93346E+02 4.53181E-09-8.99848E-08
 -1       110 1.42402E+02-2.22437E+01 3.68888E+01 2.55334E+02 2.84863E-08-1.22774E-07
 -1       111 5.76409E+01 1.26843E+02 5.69940E+01 2.14589E+02 4.23709E-08-1.43492E-07
 -1       112 5.59680E+01 1.98127E+02 7.85695E+01 2.36472E+02 3.76848E-08-1.34292E-07
 -1       113 1.10838E+02 1.70208E+02 8.72611E+01 3.27124E+02 2.47498E-08-9.70682E-08
 -1       114 2.29947E+02 1.17306E+02 1.08108E+02 4.29683E+02 1.08260E-08-4.66962E-08
 -1       115 3.15168E+02 4.68965E+01 1.14387E+02 5.29589E+02-9.07466E-09 1.59469E-08
 -1       116 3.74599E+02-1.62229E+01 1.16512E+02 6.18058E+02-3.54174E-08 8.07366E-08
 -1       117 3.68751E+02-8.63712E+01 9.84236E+01 6.84724E+02-4.69120E-08 1.16719E-07
 -1       118 3.40231E+02-1.06039E+02 9.00405E+01 6.79487E+02-4.66281E-08 1.24449E-07
 -1       119 2.25136E+02-8.69684E+01 6.81833E+01 6.06369E+02-3.65963E-08 1.12087E-07
 -1       120 9.82527E+01-3.39536E+01 5.36171E+01 5.05484E+02-2.25031E-08 9.30442E-08
 -1       121-2.20592E+01-9.13633E+00 3.21361E+01 4.33040E+02-9.12597E-09 5.89720E-08
 -1       122-6.53419E+01 8.46199E+00 3.04423E+01 3.76842E+02-3.72688E-09 4.71517E-08
 -1       123-1.29715E+02 9.17678E+00 1.60847E+01 3.13356E+02-1.33052E-09 4.15403E-08
 -1       124-1.79783E+02 3.52901E+01 1.20221E+01 2.25789E+02-3.55588E-09 3.63969E-08
 -1       125-2.47101E+02 6.21893E+01 1.00910E+01 2.37588E+02-2.63940E-09 3.17176E-08
 -1       126-2.19420E+02-3.93802E+01-3.95440E+01-6.23033E+01-4.53023E-10 2.06709E-08
 -3
    1PSTEP                       323          81           1          
  100CL  181 8.10000E-01         126                     1   81           1
 -4  TOSTRAIN    6    1
 -5  EXX         1    4    1    1
 -5  EYY         1    4    2    2
 -5  EZZ         1    4    3    3
 -5  EXY         1    4    1    2
 -5  EYZ         1    4    2    3
 -5  EZX         1    4    3    1
 -1         1-1.73802E-04 4.55556E-02-2.34690E-27 1.58437E-02-2.86121E-19 3.33282E-16
 -1         2-1.73802E-04 4.55556E-02-2.34690E-27 1.58437E-02-2.86121E-19 3.33282E-16
 -1         3-3.27889E-04 1.31227E-03 1.91062E-26 3.42132E-04-3.57262E-14-1.05179E-13
 -1         4-3.27889E-04 1.31227E-03 1.91035E-26 3.42132E-04-3.57233E-14-1.05176E-13
 -1         5 1.28351E-05-1.01400E-03 1.06443E-25 4.05553E-04-2.20943E-13-8.70446E-14
 -1         6 1.28351E-05-1.01400E-03 1.06327E-25 4.05553E-04-2.20898E-13-8.68665E-14
 -1         7-1.66282E-04-4.18183E-02-2.41635E-27 1.34781E-02 4.00349E-19-4.49939E-16
 -1         8-1.66282E-04-4.18183E-02-2.41635E-27 1.34781E-02 4.00596E-19-4.49927E-16
 -1         9-1.57527E-04 1.35607E-04 5.61589E-26 5.38370E-04-1.32963E-13-1.13065E-13
 -1        10-1.57527E-04 1.35607E-04 5.61782E-26 5.38370E-04-1.32974E-13-1.13092E-13
 -1        11-1.70042E-04 7.28273E-04-1.43783E-27 8.85533E-03 1.25213E-19 1.63549E-17
 -1        12-1.70042E-04 7.28273E-04-1.43784E-27 8.85533E-03 1.24751E-19 1.63312E-17
 -1        13-1.31017E-02 4.63127E-02 1.29494E-26 2.25019E-03 2.45502E-14 8.04101E-14
 -1        14-1.09665E-02 4.64243E-02 1.20913E-26 1.21931E-04 3.26538E-14 7.38633E-14
 -1        15-1.09468E-02 4.51864E-02 3.56600E-26 5.15633E-04 4.22284E-14 1.27716E-13
 -1        16-1.05040E-02 4.36642E-02 4.15870E-26 6.53822E-04 5.26299E-14 1.34511E-13
 -1        17-1.00109E-02 4.16022E-02 5.76609E-26 8.16628E-04 6.96944E-14 1.56300E-13
 -1        18-9.50409E-03 3.91853E-02 8.82822E-26 9.19073E-04 9.40641E-14 1.93074E-13
 -1        19-8.76454E-03 3.63208E-02 1.99012E-25 1.11093E-03 9.89559E-14 3.02114E-13
 -1        20-7.90760E-03 3.27046E-02 2.63381E-25 1.41464E-03 6.32359E-14 3.57206E-13
 -1        21-6.86061E-03 2.83005E-02 3.56500E-25 1.63211E-03 1.77605E-15 4.20614E-13
 -1        22-5.80713E-03 2.35849E-02 3.05416E-25 1.60282E-03-7.75526E-14 3.85180E-13
 -1        23-4.71420E-03 1.91886E-02 1.68822E-25 1.39108E-03-1.62969E-13 2.60369E-13
 -1        24-3.86031E-03 1.54955E-02 6.45704E-26 1.12296E-03-2.14499E-13 5.05547E-14
 -1        25-3.20988E-03 1.26737E-02 1.23453E-25 8.08258E-04-2.12682E-13-1.69417E-13
 -1        26-2.82723E-03 1.08256E-02 2.50878E-25 4.56114E-04-1.85169E-13-3.11459E-13
 -1        27-2.52994E-03 9.83854E-03 4.12118E-25 2.11969E-04-1.41520E-13-4.33529E-13
 -1        28-2.36884E-03 9.13993E-03 4.33072E-25 2.45883E-04-6.96850E-14-4.60188E-13
 -1        29-2.07388E-03 7.86558E-03 3.16391E-25 5.23093E-04-1.09214E-14-4.00423E-13
 -1        30-1.53405E-03 5.52700E-03 1.48688E-25 7.71240E-04-1.47622E-14-2.78646E-13
 -1        31-7.61746E-04 2.69633E-03 6.70759E-26 6.07897E-04-2.59758E-14-1.89551E-13
 -1        32-1.31017E-02 4.63127E-02 1.29494E-26 2.25019E-03 2.45502E-14 8.04101E-14
 -1        33-1.09665E-02 4.64243E-02 1.20914E-26 1.21931E-04 3.26537E-14 7.38635E-14
 -1        34-1.09468E-02 4.51864E-02 3.56599E-26 5.15633E-04 4.22285E-14 1.27716E-13
 -1        35-1.05040E-02 4.36642E-02 4.15854E-26 6.53822E-04 5.26294E-14 1.34508E-13
 -1        36-1.00109E-02 4.16022E-02 5.76624E-26 8.16628E-04 6.96947E-14 1.56302E-13
 -1        37-9.50409E-03 3.91853E-02 8.82684E-26 9.19073E-04 9.40623E-14 1.93059E-13
 -1        38-8.76454E-03 3.63208E-02 1.99018E-25 1.11093E-03 9.89574E-14 3.02120E-13
 -1        39-7.90760E-03 3.27046E-02 2.63381E-25 1.41464E-03 6.32356E-14 3.57206E-13
 -1        40-6.86061E-03 2.83005E-02 3.56498E-25 1.63211E-03 1.77529E-15 4.20613E-13
 -1        41-5.80713E-03 2.35849E-02 3.05426E-25 1.60282E-03-7.75504E-14 3.85186E-13
 -1        42-4.71420E-03 1.91886E-02 1.68822E-25 1.39108E-03-1.62969E-13 2.60369E-13
 -1        43-3.86031E-03 1.54955E-02 6.45705E-26 1.12296E-03-2.14501E-13 5.05520E-14
 -1        44-3.20988E-03 1.26737E-02 1.23430E-25 8.08258E-04-2.12672E-13-1.69395E-13
 -1        45-2.82723E-03 1.08256E-02 2.50897E-25 4.56114E-04-1.85173E-13-3.11475E-13
 -1        46-2.52994E-03 9.83854E-03 4.12118E-25 2.11969E-04-1.41520E-13-4.33529E-13
 -1        47-2.36884E-03 9.13993E-03 4.33072E-25 2.45883E-04-6.96850E-14-4.60188E-13
 -1        48-2.07388E-03 7.86558E-03 3.16378E-25 5.23093E-04-1.09274E-14-4.00414E-13
 -1        49-1.53405E-03 5.52700E-03 1.48735E-25 7.71240E-04-1.47802E-14-2.78689E-13
 -1        50-7.61746E-04 2.69633E-03 6.70089E-26 6.07897E-04-2.59324E-14-1.89479E-13
 -1        51 2.36973E-04-2.20741E-03 1.57740E-25 6.68944E-04-2.09974E-13-1.92272E-13
 -1        52 7.64656E-04-4.66232E-03 2.07451E-25 8.19981E-04-2.09544E-13-2.50721E-13
 -1        53 1.16753E-03-6.63486E-03 3.55311E-25 5.59879E-04-1.88631E-13-3.82344E-13
 -1        54 1.30059E-03-7.55003E-03 4.36460E-25 2.86322E-04-9.94067E-14-4.59063E-13
 -1        55 1.30346E-03-7.90571E-03 3.56472E-25 2.65546E-04-3.71885E-15-4.26969E-13
 -1        56 1.35705E-03-8.58055E-03 1.68417E-25 4.95394E-04 7.29133E-14-2.94792E-13
 -1        57 1.68158E-03-1.01520E-02 5.30959E-26 8.31077E-04 1.49099E-13-1.22872E-13
 -1        58 2.19918E-03-1.27340E-02 4.77760E-26 1.15968E-03 1.81814E-13 5.50331E-14
 -1        59 2.89720E-03-1.62308E-02 1.82671E-25 1.44731E-03 1.51159E-13 2.80208E-13
 -1        60 3.72223E-03-2.04873E-02 3.18295E-25 1.64912E-03 6.66829E-14 3.98470E-13
 -1        61 4.69425E-03-2.51166E-02 3.51175E-25 1.66681E-03-5.73062E-15 4.21783E-13
 -1        62 5.56183E-03-2.94485E-02 3.00714E-25 1.46419E-03-5.55356E-14 3.87028E-13
 -1        63 6.23565E-03-3.29638E-02 2.12147E-25 1.17181E-03-6.15156E-14 3.25289E-13
 -1        64 6.71499E-03-3.57054E-02 8.47294E-26 9.58878E-04-4.52168E-14 2.06854E-13
 -1        65 7.18887E-03-3.80200E-02 5.43031E-26 8.37927E-04-3.52394E-14 1.64311E-13
 -1        66 7.55921E-03-4.00165E-02 3.59295E-26 6.84137E-04-3.27849E-14 1.32790E-13
 -1        67 7.90777E-03-4.14860E-02 3.00994E-26 5.75392E-04-3.06420E-14 1.20390E-13
 -1        68 7.64643E-03-4.28911E-02 2.75269E-26 1.54836E-04-3.80450E-14 1.13077E-13
 -1        69 1.00695E-02-4.27749E-02 1.30920E-26 1.91406E-03-4.09204E-14 7.64657E-14
 -1        70 2.36973E-04-2.20741E-03 1.57755E-25 6.68944E-04-2.09987E-13-1.92289E-13
 -1        71 7.64656E-04-4.66232E-03 2.07427E-25 8.19981E-04-2.09534E-13-2.50707E-13
 -1        72 1.16753E-03-6.63486E-03 3.55318E-25 5.59879E-04-1.88629E-13-3.82352E-13
 -1        73 1.30059E-03-7.55003E-03 4.36450E-25 2.86322E-04-9.94272E-14-4.59054E-13
 -1        74 1.30346E-03-7.90571E-03 3.56466E-25 2.65546E-04-3.71123E-15-4.26967E-13
 -1        75 1.35705E-03-8.58055E-03 1.68415E-25 4.95394E-04 7.29141E-14-2.94789E-13
 -1        76 1.68158E-03-1.01520E-02 5.30982E-26 8.31077E-04 1.49096E-13-1.22875E-13
 -1        77 2.19918E-03-1.27340E-02 4.77507E-26 1.15968E-03 1.81801E-13 5.49896E-14
 -1        78 2.89720E-03-1.62308E-02 1.82677E-25 1.44731E-03 1.51155E-13 2.80223E-13
 -1        79 3.72223E-03-2.04873E-02 3.18254E-25 1.64912E-03 6.66857E-14 3.98445E-13
 -1        80 4.69425E-03-2.51166E-02 3.51188E-25 1.66681E-03-5.73379E-15 4.21791E-13
 -1        81 5.56183E-03-2.94485E-02 3.00713E-25 1.46419E-03-5.55360E-14 3.87028E-13
 -1        82 6.23565E-03-3.29638E-02 2.12151E-25 1.17181E-03-6.15187E-14 3.25292E-13
 -1        83 6.71499E-03-3.57054E-02 8.47176E-26 9.58878E-04-4.52191E-14 2.06839E-13
 -1        84 7.18887E-03-3.80200E-02 5.43103E-26 8.37927E-04-3.52370E-14 1.64322E-13
 -1        85 7.55921E-03-4.00165E-02 3.59377E-26 6.84137E-04-3.27817E-14 1.32806E-13
 -1        86 7.90777E-03-4.14860E-02 3.00959E-26 5.75392E-04-3.06432E-14 1.20383E-13
 -1        87 7.64643E-03-4.28911E-02 2.75270E-26 1.54836E-04-3.80450E-14 1.13078E-13
 -1        88 1.00695E-02-4.27749E-02 1.30920E-26 1.91406E-03-4.09204E-14 7.64656E-14
 -1        89-1.51610E-03 1.13722E-03 7.70858E-27-2.29624E-04 1.44657E-15 6.72416E-14
 -1        90-1.66001E-03 1.45801E-03 2.07019E-26 6.72374E-04 8.31077E-16 1.03485E-13
 -1        91-1.51952E-03 1.34816E-03 2.78681E-26 6.14002E-04 4.51160E-15 1.18907E-13
 -1        92-1.47239E-03 1.33242E-03 3.59073E-26 8.75442E-04 1.96514E-14 1.33780E-13
 -1        93-1.41102E-03 1.35318E-03 4.62094E-26 1.05758E-03 2.14141E-14 1.52354E-13
 -1        94-1.39455E-03 1.36618E-03 7.12984E-26 1.21357E-03 1.98556E-14 1.93036E-13
 -1        95-1.26445E-03 1.35312E-03 1.88896E-25 1.48452E-03 1.70096E-14 3.10835E-13
 -1        96-1.17288E-03 1.35246E-03 2.92293E-25 1.86961E-03 3.64394E-15 3.83433E-13
 -1        97-1.08318E-03 1.38725E-03 3.74223E-25 2.14169E-03-2.06919E-15 4.32226E-13
 -1        98-1.04245E-03 1.41009E-03 3.31448E-25 2.11863E-03-1.78154E-15 4.09126E-13
 -1        99-9.08502E-04 1.37522E-03 1.45543E-25 1.85277E-03-4.63850E-15 2.86671E-13
 -1       100-8.30566E-04 1.30206E-03-2.20728E-26 1.48130E-03-6.35202E-15 5.93503E-14
 -1       101-7.64151E-04 1.21693E-03 2.52472E-26 1.05411E-03-3.07819E-14-1.52753E-13
 -1       102-7.35089E-04 1.10202E-03 1.99329E-25 6.08003E-04-6.04288E-14-3.20012E-13
 -1       103-6.13241E-04 9.44402E-04 4.07336E-25 3.03089E-04-7.74747E-14-4.46768E-13
 -1       104-5.34125E-04 7.72927E-04 4.72331E-25 3.40116E-04-8.07468E-14-4.79624E-13
 -1       105-4.53174E-04 6.06806E-04 3.28971E-25 7.12831E-04-9.49467E-14-3.98452E-13
 -1       106-3.84697E-04 4.31572E-04 1.63702E-25 1.07592E-03-1.18838E-13-2.67400E-13
 -1       107-2.62386E-04 2.37404E-04 9.77709E-26 8.83180E-04-1.30689E-13-1.85276E-13
 -1       108-2.62386E-04 2.37404E-04 9.77734E-26 8.83180E-04-1.30679E-13-1.85285E-13
 -1       109-3.84697E-04 4.31572E-04 1.63740E-25 1.07592E-03-1.18859E-13-2.67420E-13
 -1       110-4.53174E-04 6.06806E-04 3.28960E-25 7.12831E-04-9.49405E-14-3.98444E-13
 -1       111-5.34125E-04 7.72927E-04 4.72330E-25 3.40116E-04-8.07434E-14-4.79624E-13
 -1       112-6.13241E-04 9.44402E-04 4.07352E-25 3.03089E-04-7.74796E-14-4.46776E-13
 -1       113-7.35089E-04 1.10202E-03 1.99327E-25 6.08003E-04-6.04273E-14-3.20010E-13
 -1       114-7.64151E-04 1.21693E-03 2.52623E-26 1.05411E-03-3.07882E-14-1.52770E-13
 -1       115-8.30566E-04 1.30206E-03-2.20698E-26 1.48130E-03-6.34754E-15 5.93610E-14
 -1       116-9.08502E-04 1.37522E-03 1.45543E-25 1.85277E-03-4.64100E-15 2.86671E-13
 -1       117-1.04245E-03 1.41009E-03 3.31436E-25 2.11863E-03-1.78577E-15 4.09119E-13
 -1       118-1.08318E-03 1.38725E-03 3.74226E-25 2.14169E-03-2.06733E-15 4.32228E-13
 -1       119-1.17288E-03 1.35246E-03 2.92293E-25 1.86961E-03 3.64478E-15 3.83433E-13
 -1       120-1.26445E-03 1.35312E-03 1.88892E-25 1.48452E-03 1.70084E-14 3.10831E-13
 -1       121-1.39455E-03 1.36618E-03 7.13099E-26 1.21357E-03 1.98582E-14 1.93050E-13
 -1       122-1.41102E-03 1.35318E-03 4.62062E-26 1.05758E-03 2.14133E-14 1.52350E-13
 -1       123-1.47239E-03 1.33242E-03 3.59098E-26 8.75442E-04 1.96515E-14 1.33784E-13
 -1       124-1.51952E-03 1.34816E-03 2.78690E-26 6.14002E-04 4.51174E-15 1.18910E-13
 -1       125-1.66001E-03 1.45801E-03 2.07016E-26 6.72374E-04 8.31224E-16 1.03485E-13
 -1       126-1.51610E-03 1.13722E-03 7.70863E-27-2.29624E-04 1.44658E-15 6.72418E-14
 -3
    1PSTEP                       324          81           1          
  100CL  181 8.10000E-01         126                     1   81           1
 -4  ERROR       1    1
 -5  STR(%)      1    1    0    0
 -1         1 6.06190E+01
 -1         2 6.06190E+01
 -1         3 4.15062E+01
 -1         4 4.15062E+01
 -1         5 4.33923E+01
 -1         6 4.33923E+01
 -1         7 6.00052E+01
 -1         8 6.00052E+01
 -1         9 4.33923E+01
 -1        10 4.33923E+01
 -1        11 6.06190E+01
 -1        12 6.06190E+01
 -1        13 6.06190E+01
 -1        14 5.94171E+01
 -1        15 5.93393E+01
 -1        16 5.94048E+01
 -1        17 5.94048E+01
 -1        18 5.93950E+01
 -1        19 5.93858E+01
 -1        20 5.93858E+01
 -1        21 5.92729E+01
 -1        22 5.87560E+01
 -1        23 5.77323E+01
 -1        24 5.67938E+01
 -1        25 5.57994E+01
 -1        26 5.50289E+01
 -1        27 5.46962E+01
 -1        28 5.61704E+01
 -1        29 5.68738E+01
 -1        30 5.68738E+01
 -1        31 5.03176E+01
 -1        32 6.06190E+01
 -1        33 5.94171E+01
 -1        34 5.93393E+01
 -1        35 5.94048E+01
 -1        36 5.94048E+01
 -1        37 5.93950E+01
 -1        38 5.93858E+01
 -1        39 5.93858E+01
 -1        40 5.92729E+01
 -1        41 5.87560E+01
 -1        42 5.77323E+01
 -1        43 5.67938E+01
 -1        44 5.57994E+01
 -1        45 5.50289E+01
 -1        46 5.46962E+01
 -1        47 5.61704E+01
 -1        48 5.68738E+01
 -1        49 5.68738E+01
 -1        50 5.03176E+01
 -1        51 5.66967E+01
 -1        52 6.73995E+01
 -1        53 6.74366E+01
 -1        54 6.74366E+01
 -1        55 6.95555E+01
 -1        56 7.11151E+01
 -1        57 7.11151E+01
 -1        58 7.04419E+01
 -1        59 6.89850E+01
 -1        60 6.75886E+01
 -1        61 6.60763E+01
 -1        62 6.46571E+01
 -1        63 6.34034E+01
 -1        64 6.25943E+01
 -1        65 6.20681E+01
 -1        66 6.16530E+01
 -1        67 6.11705E+01
 -1        68 6.13946E+01
 -1        69 6.13946E+01
 -1        70 5.66967E+01
 -1        71 6.73995E+01
 -1        72 6.74366E+01
 -1        73 6.74366E+01
 -1        74 6.95555E+01
 -1        75 7.11151E+01
 -1        76 7.11151E+01
 -1        77 7.04419E+01
 -1        78 6.89850E+01
 -1        79 6.75886E+01
 -1        80 6.60763E+01
 -1        81 6.46571E+01
 -1        82 6.34034E+01
 -1        83 6.25943E+01
 -1        84 6.20681E+01
 -1        85 6.16530E+01
 -1        86 6.11705E+01
 -1        87 6.13946E+01
 -1        88 6.13946E+01
 -1        89 6.13946E+01
 -1        90 6.13946E+01
 -1        91 6.11705E+01
 -1        92 6.16530E+01
 -1        93 6.20681E+01
 -1        94 6.25943E+01
 -1        95 6.34034E+01
 -1        96 6.46571E+01
 -1        97 6.60763E+01
 -1        98 6.75886E+01
 -1        99 6.89850E+01
 -1       100 7.04419E+01
 -1       101 7.11151E+01
 -1       102 7.11151E+01
 -1       103 6.95555E+01
 -1       104 6.74366E+01
 -1       105 6.74366E+01
 -1       106 6.73995E+01
 -1       107 5.66967E+01
 -1       108 5.66967E+01
 -1       109 6.73995E+01
 -1       110 6.74366E+01
 -1       111 6.74366E+01
 -1       112 6.95555E+01
 -1       113 7.11151E+01
 -1       114 7.11151E+01
 -1       115 7.04419E+01
 -1       116 6.89850E+01
 -1       117 6.75886E+01
 -1       118 6.60763E+01
 -1       119 6.46571E+01
 -1       120 6.34034E+01
 -1       121 6.25943E+01
 -1       122 6.20681E+01
 -1       123 6.16530E+01
 -1       124 6.11705E+01
 -1       125 6.13946E+01
 -1       126 6.13946E+01
 -3
    1PSTEP                       325          82           1          
  100CL  182 8.20000E-01         126                     1   82           1
 -4  DISP        4    1
 -5  D1          1    2    1    0
 -5  D2          1    2    2    0
 -5  D3          1    2    3    0
 -5  ALL         1    2    0    0    1ALL
 -1         1 0.00000E+00 0.00000E+00 0.00000E+00
 -1         2 0.00000E+00 0.00000E+00 0.00000E+00
 -1         3 3.27283E-01-4.00160E-02 0.00000E+00
 -1         4 3.27283E-01-4.00160E-02 0.00000E+00
 -1         5 3.16305E-01-8.55352E-02 0.00000E+00
 -1         6 3.16305E-01-8.55352E-02 0.00000E+00
 -1         7 0.00000E+00 0.00000E+00 0.00000E+00
 -1         8 0.00000E+00 0.00000E+00 0.00000E+00
 -1         9 3.21791E-01-6.27720E-02 0.00000E+00
 -1        10 3.21791E-01-6.27720E-02 0.00000E+00
 -1        11 0.00000E+00 0.00000E+00 0.00000E+00
 -1        12 0.00000E+00 0.00000E+00 0.00000E+00
 -1        13 1.67072E-03 2.29215E-03 0.00000E+00
 -1        14 5.27107E-03 4.53754E-03 0.00000E+00
 -1        15 1.12689E-02 6.48133E-03 0.00000E+00
 -1        16 1.95396E-02 8.04799E-03 0.00000E+00
 -1        17 2.99998E-02 9.12545E-03 0.00000E+00
 -1        18 4.25190E-02 9.62351E-03 0.00000E+00
 -1        19 5.69338E-02 9.47369E-03 0.00000E+00
 -1        20 7.30791E-02 8.61652E-03 0.00000E+00
 -1        21 9.07303E-02 7.01814E-03 0.00000E+00
 -1        22 1.09612E-01 4.69016E-03 0.00000E+00
 -1        23 1.29411E-01 1.71495E-03 0.00000E+00
 -1        24 1.49876E-01-1.78064E-03 0.00000E+00
 -1        25 1.70844E-01-5.65997E-03 0.00000E+00
 -1        26 1.92259E-01-9.83378E-03 0.00000E+00
 -1        27 2.14103E-01-1.42706E-02 0.00000E+00
 -1        28 2.36353E-01-1.89815E-02 0.00000E+00
 -1        29 2.58917E-01-2.39631E-02 0.00000E+00
 -1        30 2.81672E-01-2.91789E-02 0.00000E+00
 -1        31 3.04490E-01-3.45580E-02 0.00000E+00
 -1        32 1.67072E-03 2.29215E-03 0.00000E+00
 -1        33 5.27107E-03 4.53754E-03 0.00000E+00
 -1        34 1.12689E-02 6.48133E-03 0.00000E+00
 -1        35 1.95396E-02 8.04799E-03 0.00000E+00
 -1        36 2.99998E-02 9.12545E-03 0.00000E+00
 -1        37 4.25190E-02 9.62351E-03 0.00000E+00
 -1        38 5.69338E-02 9.47369E-03 0.00000E+00
 -1        39 7.30791E-02 8.61652E-03 0.00000E+00
 -1        40 9.07303E-02 7.01814E-03 0.00000E+00
 -1        41 1.09612E-01 4.69016E-03 0.00000E+00
 -1        42 1.29411E-01 1.71495E-03 0.00000E+00
 -1        43 1.49876E-01-1.78064E-03 0.00000E+00
 -1        44 1.70844E-01-5.65997E-03 0.00000E+00
 -1        45 1.92259E-01-9.83378E-03 0.00000E+00
 -1        46 2.14103E-01-1.42706E-02 0.00000E+00
 -1        47 2.36353E-01-1.89815E-02 0.00000E+00
 -1        48 2.58917E-01-2.39631E-02 0.00000E+00
 -1        49 2.81672E-01-2.91789E-02 0.00000E+00
 -1        50 3.04490E-01-3.45580E-02 0.00000E+00
 -1        51 2.93528E-01-8.00223E-02 0.00000E+00
 -1        52 2.70792E-01-7.44591E-02 0.00000E+00
 -1        53 2.48221E-01-6.88671E-02 0.00000E+00
 -1        54 2.25940E-01-6.33004E-02 0.00000E+00
 -1        55 2.04052E-01-5.78314E-02 0.00000E+00
 -1        56 1.82613E-01-5.25190E-02 0.00000E+00
 -1        57 1.61644E-01-4.73843E-02 0.00000E+00
 -1        58 1.41170E-01-4.24011E-02 0.00000E+00
 -1        59 1.21296E-01-3.75346E-02 0.00000E+00
 -1        60 1.02224E-01-3.27797E-02 0.00000E+00
 -1        61 8.42250E-02-2.81846E-02 0.00000E+00
 -1        62 6.75576E-02-2.38275E-02 0.00000E+00
 -1        63 5.24364E-02-1.97843E-02 0.00000E+00
 -1        64 3.90185E-02-1.60964E-02 0.00000E+00
 -1        65 2.74351E-02-1.27670E-02 0.00000E+00
 -1        66 1.77938E-02-9.76893E-03 0.00000E+00
 -1        67 1.01956E-02-7.06029E-03 0.00000E+00
 -1        68 4.68572E-03-4.58251E-03 0.00000E+00
 -1        69 1.41209E-03-2.20635E-03 0.00000E+00
 -1        70 2.93528E-01-8.00223E-02 0.00000E+00
 -1        71 2.70792E-01-7.44591E-02 0.00000E+00
 -1        72 2.48221E-01-6.88671E-02 0.00000E+00
 -1        73 2.25940E-01-6.33004E-02 0.00000E+00
 -1        74 2.04052E-01-5.78314E-02 0.00000E+00
 -1        75 1.82613E-01-5.25190E-02 0.00000E+00
 -1        76 1.61644E-01-4.73843E-02 0.00000E+00
 -1        77 1.41170E-01-4.24011E-02 0.00000E+00
 -1        78 1.21296E-01-3.75346E-02 0.00000E+00
 -1        79 1.02224E-01-3.27797E-02 0.00000E+00
 -1        80 8.42250E-02-2.81846E-02 0.00000E+00
 -1        81 6.75576E-02-2.38275E-02 0.00000E+00
 -1        82 5.24364E-02-1.97843E-02 0.00000E+00
 -1        83 3.90185E-02-1.60964E-02 0.00000E+00
 -1        84 2.74351E-02-1.27670E-02 0.00000E+00
 -1        85 1.77938E-02-9.76893E-03 0.00000E+00
 -1        86 1.01956E-02-7.06029E-03 0.00000E+00
 -1        87 4.68572E-03-4.58251E-03 0.00000E+00
 -1        88 1.41209E-03-2.20635E-03 0.00000E+00
 -1        89 9.44255E-04 4.77370E-05 0.00000E+00
 -1        90 4.50648E-03 2.21978E-05 0.00000E+00
 -1        91 1.02588E-02-2.20566E-04 0.00000E+00
 -1        92 1.82157E-02-7.74641E-04 0.00000E+00
 -1        93 2.82902E-02-1.72063E-03 0.00000E+00
 -1        94 4.03704E-02-3.12478E-03 0.00000E+00
 -1        95 5.43228E-02-5.03756E-03 0.00000E+00
 -1        96 6.99980E-02-7.48904E-03 0.00000E+00
 -1        97 8.72073E-02-1.04758E-02 0.00000E+00
 -1        98 1.05701E-01-1.39516E-02 0.00000E+00
 -1        99 1.25186E-01-1.78342E-02 0.00000E+00
 -1       100 1.45392E-01-2.20301E-02 0.00000E+00
 -1       101 1.66134E-01-2.64700E-02 0.00000E+00
 -1       102 1.87337E-01-3.11274E-02 0.00000E+00
 -1       103 2.08990E-01-3.60053E-02 0.00000E+00
 -1       104 2.31074E-01-4.11023E-02 0.00000E+00
 -1       105 2.53518E-01-4.63868E-02 0.00000E+00
 -1       106 2.76203E-01-5.18016E-02 0.00000E+00
 -1       107 2.98998E-01-5.72822E-02 0.00000E+00
 -1       108 2.98998E-01-5.72822E-02 0.00000E+00
 -1       109 2.76203E-01-5.18016E-02 0.00000E+00
 -1       110 2.53518E-01-4.63868E-02 0.00000E+00
 -1       111 2.31074E-01-4.11023E-02 0.00000E+00
 -1       112 2.08990E-01-3.60053E-02 0.00000E+00
 -1       113 1.87337E-01-3.11274E-02 0.00000E+00
 -1       114 1.66134E-01-2.64700E-02 0.00000E+00
 -1       115 1.45392E-01-2.20301E-02 0.00000E+00
 -1       116 1.25186E-01-1.78342E-02 0.00000E+00
 -1       117 1.05701E-01-1.39516E-02 0.00000E+00
 -1       118 8.72073E-02-1.04758E-02 0.00000E+00
 -1       119 6.99980E-02-7.48904E-03 0.00000E+00
 -1       120 5.43228E-02-5.03756E-03 0.00000E+00
 -1       121 4.03704E-02-3.12478E-03 0.00000E+00
 -1       122 2.82902E-02-1.72063E-03 0.00000E+00
 -1       123 1.82157E-02-7.74641E-04 0.00000E+00
 -1       124 1.02588E-02-2.20566E-04 0.00000E+00
 -1       125 4.50648E-03 2.21978E-05 0.00000E+00
 -1       126 9.44255E-04 4.77370E-05 0.00000E+00
 -3
    1PSTEP                       326          82           1          
  100CL  182 8.20000E-01         126                     1   82           1
 -4  STRESS      6    1
 -5  SXX         1    4    1    1
 -5  SYY         1    4    2    2
 -5  SZZ         1    4    3    3
 -5  SXY         1    4    1    2
 -5  SYZ         1    4    2    3
 -5  SZX         1    4    3    1
 -1         1 1.07316E+04 2.62816E+04 1.04677E+04 5.87423E+03-2.30485E-10-1.45946E-10
 -1         2 1.07316E+04 2.62816E+04 1.04677E+04 5.87423E+03-2.30485E-10-1.45946E-10
 -1         3 1.36498E+02 2.18376E+02 1.06348E+02 1.49460E+02 4.19861E-09-1.97125E-07
 -1         4 1.36498E+02 2.18376E+02 1.06348E+02 1.49460E+02 4.19911E-09-1.97121E-07
 -1         5-9.80871E+01-2.82109E+02-1.14127E+02-6.64534E-01 9.34734E-08-1.38612E-07
 -1         6-9.80871E+01-2.82109E+02-1.14127E+02-6.64534E-01 9.34966E-08-1.38539E-07
 -1         7-1.01548E+04-2.24055E+04-1.03192E+04 3.76904E+03-3.33252E-10 2.34503E-10
 -1         8-1.01548E+04-2.24055E+04-1.03192E+04 3.76904E+03-3.33245E-10 2.34503E-10
 -1         9 3.73547E+01-5.85620E+01-6.37956E+00 8.83189E+01 5.50274E-08-1.63314E-07
 -1        10 3.73547E+01-5.85620E+01-6.37956E+00 8.83189E+01 5.50229E-08-1.63331E-07
 -1        11 2.88680E+02 1.91109E+02 2.61290E+02 2.89470E+03-3.08756E-10 3.93800E-12
 -1        12 2.88680E+02 1.91109E+02 2.61290E+02 2.89470E+03-3.08770E-10 3.93822E-12
 -1        13 3.80484E+03 2.35595E+04 7.72394E+03 1.75396E+03 5.63930E-09-3.27761E-08
 -1        14 5.05497E+03 2.38449E+04 8.15558E+03 1.81327E+03 2.90711E-08-4.41044E-08
 -1        15 4.98006E+03 2.27825E+04 7.84914E+03 2.66978E+03 4.92520E-08-2.62271E-09
 -1        16 5.12107E+03 2.17250E+04 7.60501E+03 3.33496E+03 4.89058E-08 6.11734E-08
 -1        17 5.20212E+03 2.03570E+04 7.25888E+03 3.88296E+03 3.08893E-08 1.19942E-07
 -1        18 5.20091E+03 1.87392E+04 6.82021E+03 4.25287E+03-7.74791E-09 1.65827E-07
 -1        19 5.18797E+03 1.68977E+04 6.31575E+03 4.42820E+03-3.73713E-08 1.54172E-07
 -1        20 4.99924E+03 1.47218E+04 5.66590E+03 4.39878E+03-4.44886E-08 1.26602E-07
 -1        21 4.60218E+03 1.22672E+04 4.87420E+03 4.11111E+03-4.27826E-08 1.05425E-07
 -1        22 3.96364E+03 9.75811E+03 3.99025E+03 3.58847E+03-4.57488E-08 9.36726E-08
 -1        23 3.28363E+03 7.60455E+03 3.18625E+03 2.94162E+03-5.10110E-08 6.26832E-08
 -1        24 2.63864E+03 6.03399E+03 2.55052E+03 2.37309E+03-4.75431E-08 1.00923E-08
 -1        25 2.18565E+03 5.09019E+03 2.14619E+03 1.98848E+03-2.04502E-08-4.77985E-08
 -1        26 1.90257E+03 4.50117E+03 1.89198E+03 1.77949E+03 1.13662E-08-7.54756E-08
 -1        27 1.75716E+03 3.94697E+03 1.68781E+03 1.61599E+03 2.91541E-08-7.68886E-08
 -1        28 1.52655E+03 3.15609E+03 1.38854E+03 1.39969E+03 2.16438E-08-6.37451E-08
 -1        29 1.16599E+03 2.17789E+03 9.94363E+02 1.07586E+03-1.08112E-09-6.18604E-08
 -1        30 7.02607E+02 1.19387E+03 5.65640E+02 6.92381E+02-1.19824E-08-9.64712E-08
 -1        31 2.99791E+02 4.71164E+02 2.30567E+02 3.24552E+02-1.32445E-08-1.42114E-07
 -1        32 3.80484E+03 2.35595E+04 7.72394E+03 1.75396E+03 5.63930E-09-3.27761E-08
 -1        33 5.05497E+03 2.38449E+04 8.15558E+03 1.81327E+03 2.90711E-08-4.41045E-08
 -1        34 4.98006E+03 2.27825E+04 7.84914E+03 2.66978E+03 4.92520E-08-2.62292E-09
 -1        35 5.12107E+03 2.17250E+04 7.60501E+03 3.33496E+03 4.89059E-08 6.11746E-08
 -1        36 5.20212E+03 2.03570E+04 7.25888E+03 3.88296E+03 3.08894E-08 1.19943E-07
 -1        37 5.20091E+03 1.87392E+04 6.82021E+03 4.25287E+03-7.74810E-09 1.65827E-07
 -1        38 5.18797E+03 1.68977E+04 6.31575E+03 4.42820E+03-3.73713E-08 1.54173E-07
 -1        39 4.99924E+03 1.47218E+04 5.66590E+03 4.39878E+03-4.44886E-08 1.26602E-07
 -1        40 4.60218E+03 1.22672E+04 4.87420E+03 4.11111E+03-4.27828E-08 1.05425E-07
 -1        41 3.96364E+03 9.75811E+03 3.99025E+03 3.58847E+03-4.57490E-08 9.36708E-08
 -1        42 3.28363E+03 7.60455E+03 3.18625E+03 2.94162E+03-5.10111E-08 6.26795E-08
 -1        43 2.63864E+03 6.03399E+03 2.55052E+03 2.37309E+03-4.75430E-08 1.00942E-08
 -1        44 2.18565E+03 5.09019E+03 2.14619E+03 1.98848E+03-2.04508E-08-4.78047E-08
 -1        45 1.90257E+03 4.50117E+03 1.89198E+03 1.77949E+03 1.13663E-08-7.54772E-08
 -1        46 1.75716E+03 3.94697E+03 1.68781E+03 1.61599E+03 2.91541E-08-7.68913E-08
 -1        47 1.52655E+03 3.15609E+03 1.38854E+03 1.39969E+03 2.16436E-08-6.37478E-08
 -1        48 1.16599E+03 2.17789E+03 9.94363E+02 1.07586E+03-1.08013E-09-6.18604E-08
 -1        49 7.02607E+02 1.19387E+03 5.65640E+02 6.92381E+02-1.19822E-08-9.64694E-08
 -1        50 2.99791E+02 4.71164E+02 2.30567E+02 3.24552E+02-1.32462E-08-1.42128E-07
 -1        51-2.01475E+02-6.14500E+02-2.45207E+02-5.07361E+01 7.32490E-08-9.80971E-08
 -1        52-4.64935E+02-1.36380E+03-5.50695E+02-2.43403E+02 4.34351E-08-5.63617E-08
 -1        53-8.43394E+02-2.23737E+03-9.29994E+02-5.35352E+02 2.00068E-08-4.89564E-08
 -1        54-1.24334E+03-3.02945E+03-1.29275E+03-8.26848E+02 8.97347E-09-5.60537E-08
 -1        55-1.55970E+03-3.60223E+03-1.56416E+03-1.04393E+03 2.69188E-08-7.10677E-08
 -1        56-1.77699E+03-4.02687E+03-1.76026E+03-1.16105E+03 5.15110E-08-5.50818E-08
 -1        57-1.92386E+03-4.55930E+03-1.96856E+03-1.24679E+03 5.31033E-08-8.91477E-09
 -1        58-2.18557E+03-5.56256E+03-2.35912E+03-1.40168E+03 3.06330E-08 5.26805E-08
 -1        59-2.66338E+03-7.18287E+03-3.01251E+03-1.70794E+03 8.12247E-09 8.97601E-08
 -1        60-3.35694E+03-9.28437E+03-3.89229E+03-2.13780E+03-4.26015E-09 1.10440E-07
 -1        61-4.07713E+03-1.15032E+04-4.82902E+03-2.58031E+03-9.09167E-09 1.22912E-07
 -1        62-4.70955E+03-1.35524E+04-5.69317E+03-2.88969E+03-1.30150E-08 1.36929E-07
 -1        63-5.16055E+03-1.52843E+04-6.40282E+03-2.99783E+03-2.97759E-08 1.53448E-07
 -1        64-5.45803E+03-1.67318E+04-6.97410E+03-2.90718E+03-5.37625E-08 1.54023E-07
 -1        65-5.59864E+03-1.79352E+04-7.41815E+03-2.66216E+03-6.00246E-08 1.05651E-07
 -1        66-5.69253E+03-1.89439E+04-7.78409E+03-2.28978E+03-5.25671E-08 4.08698E-08
 -1        67-5.68769E+03-1.97134E+04-8.03860E+03-1.78299E+03-3.56045E-08-1.76052E-08
 -1        68-6.09687E+03-2.06735E+04-8.48742E+03-1.27562E+03-1.04130E-08-4.83108E-08
 -1        69-4.62514E+03-2.03103E+04-7.90952E+03-1.07341E+02 6.95865E-09-4.09398E-08
 -1        70-2.01475E+02-6.14500E+02-2.45207E+02-5.07361E+01 7.32519E-08-9.81416E-08
 -1        71-4.64935E+02-1.36380E+03-5.50695E+02-2.43403E+02 4.34308E-08-5.63709E-08
 -1        72-8.43394E+02-2.23737E+03-9.29994E+02-5.35352E+02 2.00089E-08-4.89558E-08
 -1        73-1.24334E+03-3.02945E+03-1.29275E+03-8.26848E+02 8.97334E-09-5.60548E-08
 -1        74-1.55970E+03-3.60223E+03-1.56416E+03-1.04393E+03 2.69189E-08-7.10695E-08
 -1        75-1.77699E+03-4.02687E+03-1.76026E+03-1.16105E+03 5.15111E-08-5.50825E-08
 -1        76-1.92386E+03-4.55930E+03-1.96856E+03-1.24679E+03 5.31038E-08-8.91545E-09
 -1        77-2.18557E+03-5.56256E+03-2.35912E+03-1.40168E+03 3.06364E-08 5.26977E-08
 -1        78-2.66338E+03-7.18287E+03-3.01251E+03-1.70794E+03 8.11802E-09 8.97555E-08
 -1        79-3.35694E+03-9.28437E+03-3.89229E+03-2.13780E+03-4.26093E-09 1.10447E-07
 -1        80-4.07713E+03-1.15032E+04-4.82902E+03-2.58031E+03-9.08915E-09 1.22909E-07
 -1        81-4.70955E+03-1.35524E+04-5.69317E+03-2.88969E+03-1.30150E-08 1.36929E-07
 -1        82-5.16055E+03-1.52843E+04-6.40282E+03-2.99783E+03-2.97760E-08 1.53449E-07
 -1        83-5.45803E+03-1.67318E+04-6.97410E+03-2.90718E+03-5.37608E-08 1.54023E-07
 -1        84-5.59864E+03-1.79352E+04-7.41815E+03-2.66216E+03-6.00251E-08 1.05651E-07
 -1        85-5.69253E+03-1.89439E+04-7.78409E+03-2.28978E+03-5.25671E-08 4.08700E-08
 -1        86-5.68769E+03-1.97134E+04-8.03860E+03-1.78299E+03-3.56045E-08-1.76045E-08
 -1        87-6.09687E+03-2.06735E+04-8.48742E+03-1.27562E+03-1.04131E-08-4.83108E-08
 -1        88-4.62514E+03-2.03103E+04-7.90952E+03-1.07341E+02 6.95863E-09-4.09398E-08
 -1        89-2.23056E+02 4.21663E+01-1.42237E+01 5.65276E+00 5.64652E-09-4.10446E-08
 -1        90-2.44266E+02 1.53629E+02 4.12337E+01 2.93645E+02 7.71166E-09-5.22616E-08
 -1        91-1.77911E+02 1.06612E+02 3.60128E+01 2.45189E+02 2.00634E-09-1.45997E-08
 -1        92-1.33291E+02 4.97514E+01 2.88899E+01 3.09369E+02-6.61243E-09 4.91757E-08
 -1        93-6.78636E+01 9.07876E+00 3.12024E+01 3.74181E+02-2.02702E-08 1.14562E-07
 -1        94-1.38567E+01-4.86072E+01 2.39596E+01 4.42679E+02-3.57051E-08 1.64818E-07
 -1        95 1.13822E+02-9.93941E+01 3.98261E+01 5.12836E+02-3.53894E-08 1.58375E-07
 -1        96 2.40080E+02-1.66452E+02 4.95066E+01 6.02570E+02-2.75085E-08 1.32330E-07
 -1        97 3.65397E+02-2.00837E+02 6.89940E+01 6.80516E+02-2.37395E-08 1.14390E-07
 -1        98 4.09804E+02-1.88829E+02 7.94655E+01 7.00158E+02-2.44004E-08 1.02773E-07
 -1        99 3.98777E+02-8.73292E+01 1.02153E+02 6.20516E+02-2.04594E-08 8.01643E-08
 -1       100 2.83070E+02 3.98951E+01 1.02743E+02 4.87610E+02-6.92152E-09 3.34937E-08
 -1       101 1.62916E+02 1.45923E+02 9.67213E+01 3.62235E+02 1.71802E-08-2.98541E-08
 -1       102 8.78115E+01 1.54643E+02 7.55485E+01 2.98968E+02 3.43241E-08-6.97054E-08
 -1       103 1.30085E+02 9.16295E+01 6.83973E+01 2.86478E+02 3.30308E-08-7.29608E-08
 -1       104 1.86181E+02-2.18997E+01 5.03857E+01 3.04197E+02 1.50645E-08-5.84206E-08
 -1       105 2.18547E+02-1.07500E+02 3.37869E+01 3.03738E+02 4.85336E-09-5.28861E-08
 -1       106 1.77026E+02-1.46114E+02 9.35918E+00 2.62946E+02 1.12364E-08-7.43499E-08
 -1       107 8.58040E+01-1.11054E+02-7.58213E+00 1.62782E+02 3.04400E-08-1.18477E-07
 -1       108 8.58040E+01-1.11054E+02-7.58213E+00 1.62782E+02 3.04441E-08-1.18449E-07
 -1       109 1.77026E+02-1.46114E+02 9.35918E+00 2.62946E+02 1.12356E-08-7.43451E-08
 -1       110 2.18547E+02-1.07500E+02 3.37869E+01 3.03738E+02 4.85034E-09-5.28873E-08
 -1       111 1.86181E+02-2.18997E+01 5.03857E+01 3.04197E+02 1.50652E-08-5.84135E-08
 -1       112 1.30085E+02 9.16295E+01 6.83973E+01 2.86478E+02 3.30306E-08-7.29523E-08
 -1       113 8.78115E+01 1.54643E+02 7.55485E+01 2.98968E+02 3.43239E-08-6.97039E-08
 -1       114 1.62916E+02 1.45923E+02 9.67213E+01 3.62235E+02 1.71798E-08-2.98532E-08
 -1       115 2.83070E+02 3.98951E+01 1.02743E+02 4.87610E+02-6.92250E-09 3.34878E-08
 -1       116 3.98777E+02-8.73292E+01 1.02153E+02 6.20516E+02-2.04581E-08 8.01734E-08
 -1       117 4.09804E+02-1.88829E+02 7.94655E+01 7.00158E+02-2.43999E-08 1.02775E-07
 -1       118 3.65397E+02-2.00837E+02 6.89940E+01 6.80516E+02-2.37395E-08 1.14390E-07
 -1       119 2.40080E+02-1.66452E+02 4.95066E+01 6.02570E+02-2.75086E-08 1.32330E-07
 -1       120 1.13822E+02-9.93941E+01 3.98261E+01 5.12836E+02-3.53891E-08 1.58375E-07
 -1       121-1.38567E+01-4.86072E+01 2.39596E+01 4.42679E+02-3.57052E-08 1.64820E-07
 -1       122-6.78636E+01 9.07876E+00 3.12024E+01 3.74181E+02-2.02700E-08 1.14561E-07
 -1       123-1.33291E+02 4.97514E+01 2.88899E+01 3.09369E+02-6.61251E-09 4.91733E-08
 -1       124-1.77911E+02 1.06612E+02 3.60128E+01 2.45189E+02 2.00644E-09-1.45992E-08
 -1       125-2.44266E+02 1.53629E+02 4.12337E+01 2.93645E+02 7.71172E-09-5.22614E-08
 -1       126-2.23056E+02 4.21663E+01-1.42237E+01 5.65276E+00 5.64656E-09-4.10446E-08
 -3
    1PSTEP                       327          82           1          
  100CL  182 8.20000E-01         126                     1   82           1
 -4  TOSTRAIN    6    1
 -5  EXX         1    4    1    1
 -5  EYY         1    4    2    2
 -5  EZZ         1    4    3    3
 -5  EXY         1    4    1    2
 -5  EYZ         1    4    2    3
 -5  EZX         1    4    3    1
 -1         1-1.85271E-04 4.72654E-02-3.90903E-27 1.67070E-02-4.53140E-19-1.22871E-16
 -1         2-1.85271E-04 4.72654E-02-3.90903E-27 1.67070E-02-4.53140E-19-1.22871E-16
 -1         3-2.40774E-04 7.01759E-04 7.95984E-25 1.76101E-04-2.79247E-13-5.76548E-13
 -1         4-2.40774E-04 7.01759E-04 7.95962E-25 1.76101E-04-2.79240E-13-5.76538E-13
 -1         5-7.03545E-05-4.24003E-04 5.76531E-25 2.41581E-04 6.54059E-14-5.39606E-13
 -1         6-7.03545E-05-4.24003E-04 5.76212E-25 2.41581E-04 6.55819E-14-5.39427E-13
 -1         7-1.76829E-04-4.29304E-02-6.05249E-27 1.41208E-02-4.40793E-19 4.01880E-16
 -1         8-1.76829E-04-4.29304E-02-6.05249E-27 1.41208E-02-4.15851E-19 4.01879E-16
 -1         9-1.55564E-04 1.27868E-04 6.08254E-25 2.94318E-04-8.24089E-14-5.54041E-13
 -1        10-1.55564E-04 1.27868E-04 6.08335E-25 2.94318E-04-8.24467E-14-5.54083E-13
 -1        11-1.81050E-04 9.52379E-04-6.05819E-27 9.44245E-03-1.87043E-19 8.64025E-17
 -1        12-1.81050E-04 9.52379E-04-6.05819E-27 9.44245E-03-2.33587E-19 8.64042E-17
 -1        13-1.35946E-02 4.78005E-02 2.05694E-26 2.50980E-03 1.31764E-14-1.06366E-13
 -1        14-1.12633E-02 4.74996E-02 5.13803E-26 2.11880E-04 7.66614E-14-1.49888E-13
 -1        15-1.11715E-02 4.60073E-02 2.57225E-26 5.29770E-04 1.48886E-13-2.99465E-14
 -1        16-1.07070E-02 4.44365E-02 9.43487E-26 6.15723E-04 1.81692E-13 1.65665E-13
 -1        17-1.02134E-02 4.23753E-02 2.93740E-25 7.98633E-04 1.74030E-13 3.55112E-13
 -1        18-9.66250E-03 3.98414E-02 5.71304E-25 9.56285E-04 1.08980E-13 5.23096E-13
 -1        19-8.84222E-03 3.67494E-02 5.31265E-25 1.17009E-03 2.93445E-14 5.11068E-13
 -1        20-7.92539E-03 3.29147E-02 3.79007E-25 1.46859E-03-3.05848E-15 4.33538E-13
 -1        21-6.83058E-03 2.82800E-02 2.72166E-25 1.72147E-03-9.26128E-15 3.67865E-13
 -1        22-5.69152E-03 2.32058E-02 2.27060E-25 1.74334E-03-2.31329E-14 3.36794E-13
 -1        23-4.50692E-03 1.84587E-02 1.27583E-25 1.47360E-03-7.08143E-14 2.51916E-13
 -1        24-3.66687E-03 1.48120E-02 2.88440E-26 1.02819E-03-1.25420E-13 9.28006E-14
 -1        25-3.16412E-03 1.25296E-02 3.94122E-26 6.09143E-04-1.23222E-13-1.13074E-13
 -1        26-2.92241E-03 1.11712E-02 1.17592E-25 4.00675E-04-7.03621E-14-2.37182E-13
 -1        27-2.57085E-03 9.92485E-03 1.42266E-25 4.55116E-04-2.33621E-14-2.65855E-13
 -1        28-2.14639E-03 8.19111E-03 9.43286E-26 6.44587E-04-2.85228E-14-2.16650E-13
 -1        29-1.59646E-03 5.92038E-03 7.68845E-26 7.56067E-04-9.27388E-14-1.77803E-13
 -1        30-1.04889E-03 3.50553E-03 1.89130E-25 6.76697E-04-1.75928E-13-2.61613E-13
 -1        31-5.15016E-04 1.51540E-03 4.11280E-25 3.91110E-04-2.47882E-13-3.91600E-13
 -1        32-1.35946E-02 4.78005E-02 2.05694E-26 2.50980E-03 1.31764E-14-1.06366E-13
 -1        33-1.12633E-02 4.74996E-02 5.13805E-26 2.11880E-04 7.66614E-14-1.49888E-13
 -1        34-1.11715E-02 4.60073E-02 2.57220E-26 5.29770E-04 1.48886E-13-2.99471E-14
 -1        35-1.07070E-02 4.44365E-02 9.43510E-26 6.15723E-04 1.81692E-13 1.65669E-13
 -1        36-1.02134E-02 4.23753E-02 2.93745E-25 7.98633E-04 1.74031E-13 3.55115E-13
 -1        37-9.66250E-03 3.98414E-02 5.71304E-25 9.56285E-04 1.08979E-13 5.23097E-13
 -1        38-8.84222E-03 3.67494E-02 5.31270E-25 1.17009E-03 2.93452E-14 5.11070E-13
 -1        39-7.92539E-03 3.29147E-02 3.79007E-25 1.46859E-03-3.05844E-15 4.33538E-13
 -1        40-6.83058E-03 2.82800E-02 2.72166E-25 1.72147E-03-9.26175E-15 3.67865E-13
 -1        41-5.69152E-03 2.32058E-02 2.27052E-25 1.74334E-03-2.31355E-14 3.36789E-13
 -1        42-4.50692E-03 1.84587E-02 1.27573E-25 1.47360E-03-7.08195E-14 2.51905E-13
 -1        43-3.66687E-03 1.48120E-02 2.88473E-26 1.02819E-03-1.25417E-13 9.28061E-14
 -1        44-3.16412E-03 1.25296E-02 3.94241E-26 6.09143E-04-1.23232E-13-1.13092E-13
 -1        45-2.92241E-03 1.11712E-02 1.17598E-25 4.00675E-04-7.03640E-14-2.37187E-13
 -1        46-2.57085E-03 9.92485E-03 1.42274E-25 4.55116E-04-2.33660E-14-2.65863E-13
 -1        47-2.14639E-03 8.19111E-03 9.43353E-26 6.44587E-04-2.85274E-14-2.16658E-13
 -1        48-1.59646E-03 5.92038E-03 7.68847E-26 7.56067E-04-9.27359E-14-1.77805E-13
 -1        49-1.04889E-03 3.50553E-03 1.89120E-25 6.76697E-04-1.75925E-13-2.61608E-13
 -1        50-5.15016E-04 1.51540E-03 4.11358E-25 3.91110E-04-2.47908E-13-3.91639E-13
 -1        51-2.74473E-06-1.05866E-03 3.01074E-25 4.48738E-04 6.71067E-14-3.92471E-13
 -1        52 3.14587E-04-2.69606E-03 9.69135E-26 7.18230E-04 4.29905E-14-2.27509E-13
 -1        53 7.54459E-04-4.77204E-03 5.71951E-26 7.89326E-04-1.35337E-14-1.71544E-13
 -1        54 1.13833E-03-6.71750E-03 6.69308E-26 6.87151E-04-5.51984E-14-1.76432E-13
 -1        55 1.39273E-03-8.13819E-03 1.19558E-25 5.10715E-04-2.22041E-14-2.46464E-13
 -1        56 1.50167E-03-9.08831E-03 1.13864E-25 4.38432E-04 7.58319E-14-2.33970E-13
 -1        57 1.70044E-03-1.01792E-02 4.57064E-26 6.27366E-04 1.46815E-13-9.88219E-14
 -1        58 2.09629E-03-1.22435E-02 6.35593E-26 1.05926E-03 1.63354E-13 1.15929E-13
 -1        59 2.81099E-03-1.57397E-02 1.65845E-25 1.52634E-03 1.41960E-13 2.58346E-13
 -1        60 3.74132E-03-2.03970E-02 2.56614E-25 1.78948E-03 1.25291E-13 3.38854E-13
 -1        61 4.79317E-03-2.53954E-02 3.20801E-25 1.75858E-03 1.17242E-13 3.85637E-13
 -1        62 5.68643E-03-2.99082E-02 3.98971E-25 1.52522E-03 1.09184E-13 4.36622E-13
 -1        63 6.37243E-03-3.35512E-02 5.13266E-25 1.24509E-03 5.64740E-14 5.08070E-13
 -1        64 6.85711E-03-3.64053E-02 5.54746E-25 1.01344E-03-4.19347E-14 5.32207E-13
 -1        65 7.30822E-03-3.86925E-02 2.98385E-25 8.34808E-04-1.21858E-13 3.80494E-13
 -1        66 7.62471E-03-4.05174E-02 7.93420E-26 6.60165E-04-1.53363E-13 1.62502E-13
 -1        67 7.92871E-03-4.18702E-02 2.42137E-26 6.07755E-04-1.30187E-13-4.11322E-14
 -1        68 7.65390E-03-4.34300E-02 4.73344E-26 2.62739E-04-5.09690E-14-1.54509E-13
 -1        69 1.02346E-02-4.36834E-02 3.26415E-26 2.13981E-03 1.84016E-14-1.34754E-13
 -1        70-2.74473E-06-1.05866E-03 3.01300E-25 4.48738E-04 6.70494E-14-3.92604E-13
 -1        71 3.14587E-04-2.69606E-03 9.69306E-26 7.18230E-04 4.29644E-14-2.27529E-13
 -1        72 7.54459E-04-4.77204E-03 5.71952E-26 7.89326E-04-1.35264E-14-1.71546E-13
 -1        73 1.13833E-03-6.71750E-03 6.69332E-26 6.87151E-04-5.52003E-14-1.76435E-13
 -1        74 1.39273E-03-8.13819E-03 1.19564E-25 5.10715E-04-2.22064E-14-2.46470E-13
 -1        75 1.50167E-03-9.08831E-03 1.13865E-25 4.38432E-04 7.58312E-14-2.33972E-13
 -1        76 1.70044E-03-1.01792E-02 4.57051E-26 6.27366E-04 1.46816E-13-9.88246E-14
 -1        77 2.09629E-03-1.22435E-02 6.35999E-26 1.05926E-03 1.63388E-13 1.15976E-13
 -1        78 2.81099E-03-1.57397E-02 1.65831E-25 1.52634E-03 1.41940E-13 2.58338E-13
 -1        79 3.74132E-03-2.03970E-02 2.56650E-25 1.78948E-03 1.25298E-13 3.38877E-13
 -1        80 4.79317E-03-2.53954E-02 3.20782E-25 1.75858E-03 1.17246E-13 3.85623E-13
 -1        81 5.68643E-03-2.99082E-02 3.98971E-25 1.52522E-03 1.09184E-13 4.36622E-13
 -1        82 6.37243E-03-3.35512E-02 5.13267E-25 1.24509E-03 5.64738E-14 5.08070E-13
 -1        83 6.85711E-03-3.64053E-02 5.54739E-25 1.01344E-03-4.19299E-14 5.32204E-13
 -1        84 7.30822E-03-3.86925E-02 2.98386E-25 8.34808E-04-1.21860E-13 3.80494E-13
 -1        85 7.62471E-03-4.05174E-02 7.93431E-26 6.60165E-04-1.53363E-13 1.62503E-13
 -1        86 7.92871E-03-4.18702E-02 2.42136E-26 6.07755E-04-1.30187E-13-4.11298E-14
 -1        87 7.65390E-03-4.34300E-02 4.73344E-26 2.62739E-04-5.09691E-14-1.54509E-13
 -1        88 1.02346E-02-4.36834E-02 3.26415E-26 2.13981E-03 1.84016E-14-1.34754E-13
 -1        89-1.67998E-03 1.40004E-03 3.32119E-26-2.34238E-05 1.29127E-14-1.34148E-13
 -1        90-1.80470E-03 1.72850E-03 5.53877E-26 8.22066E-04 9.82738E-15-1.71668E-13
 -1        91-1.62140E-03 1.54774E-03-1.16249E-26 6.41707E-04 3.42047E-16-4.79346E-14
 -1        92-1.54113E-03 1.45028E-03 2.78093E-26 8.34982E-04 7.62826E-15 1.61250E-13
 -1        93-1.45258E-03 1.39120E-03 2.67371E-25 1.04306E-03 1.75009E-14 3.78006E-13
 -1        94-1.40270E-03 1.33277E-03 5.96894E-25 1.27277E-03 2.60040E-14 5.47948E-13
 -1        95-1.23490E-03 1.25941E-03 5.56802E-25 1.57043E-03 4.09287E-14 5.26151E-13
 -1        96-1.11948E-03 1.21546E-03 3.83539E-25 1.94530E-03 5.49947E-14 4.35905E-13
 -1        97-1.01871E-03 1.23060E-03 2.86147E-25 2.26210E-03 5.84990E-14 3.75081E-13
 -1        98-9.75102E-04 1.26153E-03 2.32764E-25 2.30434E-03 5.14659E-14 3.39371E-13
 -1        99-8.47961E-04 1.25470E-03 1.35758E-25 1.95855E-03 4.09917E-14 2.65699E-13
 -1       100-7.85287E-04 1.20819E-03 5.46438E-27 1.35041E-03 2.35945E-14 1.08581E-13
 -1       101-7.31839E-04 1.13551E-03 7.70783E-27 7.85697E-04 1.01721E-14-1.11556E-13
 -1       102-7.10373E-04 1.02565E-03 1.22897E-25 5.32168E-04 4.03631E-15-2.52623E-13
 -1       103-5.89062E-04 8.75824E-04 1.34824E-25 6.25291E-04-6.77228E-15-2.60310E-13
 -1       104-5.04029E-04 7.15693E-04 7.56108E-26 8.67445E-04-4.03119E-14-1.91904E-13
 -1       105-4.21000E-04 5.63800E-04 5.79817E-26 1.01287E-03-6.31255E-14-1.60574E-13
 -1       106-3.67154E-04 4.06349E-04 1.10433E-25 9.27295E-04-7.68979E-14-2.31911E-13
 -1       107-2.58880E-04 2.25718E-04 2.99288E-25 5.69063E-04-8.69959E-14-3.87929E-13
 -1       108-2.58880E-04 2.25718E-04 2.99150E-25 5.69063E-04-8.69423E-14-3.87853E-13
 -1       109-3.67154E-04 4.06349E-04 1.10426E-25 9.27295E-04-7.68930E-14-2.31896E-13
 -1       110-4.21000E-04 5.63800E-04 5.79855E-26 1.01287E-03-6.31360E-14-1.60573E-13
 -1       111-5.04029E-04 7.15693E-04 7.55937E-26 8.67445E-04-4.02996E-14-1.91885E-13
 -1       112-5.89062E-04 8.75824E-04 1.34798E-25 6.25291E-04-6.76080E-15-2.60284E-13
 -1       113-7.10373E-04 1.02565E-03 1.22893E-25 5.32168E-04 4.03787E-15-2.52618E-13
 -1       114-7.31839E-04 1.13551E-03 7.70704E-27 7.85697E-04 1.01721E-14-1.11553E-13
 -1       115-7.85287E-04 1.20819E-03 5.45273E-27 1.35041E-03 2.35838E-14 1.08565E-13
 -1       116-8.47961E-04 1.25470E-03 1.35785E-25 1.95855E-03 4.10073E-14 2.65725E-13
 -1       117-9.75102E-04 1.26153E-03 2.32771E-25 2.30434E-03 5.14692E-14 3.39375E-13
 -1       118-1.01871E-03 1.23060E-03 2.86150E-25 2.26210E-03 5.84997E-14 3.75083E-13
 -1       119-1.11948E-03 1.21546E-03 3.83539E-25 1.94530E-03 5.49944E-14 4.35905E-13
 -1       120-1.23490E-03 1.25941E-03 5.56800E-25 1.57043E-03 4.09293E-14 5.26150E-13
 -1       121-1.40270E-03 1.33277E-03 5.96902E-25 1.27277E-03 2.60044E-14 5.47952E-13
 -1       122-1.45258E-03 1.39120E-03 2.67361E-25 1.04306E-03 1.75001E-14 3.78000E-13
 -1       123-1.54113E-03 1.45028E-03 2.78048E-26 8.34982E-04 7.62664E-15 1.61242E-13
 -1       124-1.62140E-03 1.54774E-03-1.16241E-26 6.41707E-04 3.42635E-16-4.79331E-14
 -1       125-1.80470E-03 1.72850E-03 5.53873E-26 8.22066E-04 9.82765E-15-1.71668E-13
 -1       126-1.67998E-03 1.40004E-03 3.32119E-26-2.34238E-05 1.29128E-14-1.34148E-13
 -3
    1PSTEP                       328          82           1          
  100CL  182 8.20000E-01         126                     1   82           1
 -4  ERROR       1    1
 -5  STR(%)      1    1    0    0
 -1         1 6.06036E+01
 -1         2 6.06036E+01
 -1         3 6.12788E+01
 -1         4 6.12788E+01
 -1         5 4.02304E+01
 -1         6 4.02304E+01
 -1         7 6.05226E+01
 -1         8 6.05226E+01
 -1         9 6.12788E+01
 -1        10 6.12788E+01
 -1        11 6.06036E+01
 -1        12 6.06036E+01
 -1        13 6.06036E+01
 -1        14 5.89187E+01
 -1        15 5.90857E+01
 -1        16 5.92642E+01
 -1        17 5.94427E+01
 -1        18 5.95088E+01
 -1        19 5.97119E+01
 -1        20 5.97119E+01
 -1        21 5.96980E+01
 -1        22 5.92622E+01
 -1        23 5.81438E+01
 -1        24 5.70391E+01
 -1        25 5.59525E+01
 -1        26 5.52914E+01
 -1        27 5.60425E+01
 -1        28 5.60425E+01
 -1        29 5.57457E+01
 -1        30 5.29357E+01
 -1        31 6.12788E+01
 -1        32 6.06036E+01
 -1        33 5.89187E+01
 -1        34 5.90857E+01
 -1        35 5.92642E+01
 -1        36 5.94427E+01
 -1        37 5.95088E+01
 -1        38 5.97119E+01
 -1        39 5.97119E+01
 -1        40 5.96980E+01
 -1        41 5.92622E+01
 -1        42 5.81438E+01
 -1        43 5.70391E+01
 -1        44 5.59525E+01
 -1        45 5.52914E+01
 -1        46 5.60425E+01
 -1        47 5.60425E+01
 -1        48 5.57457E+01
 -1        49 5.29357E+01
 -1        50 6.12788E+01
 -1        51 5.25407E+01
 -1        52 6.42887E+01
 -1        53 6.91389E+01
 -1        54 6.92753E+01
 -1        55 6.92753E+01
 -1        56 6.89205E+01
 -1        57 6.97862E+01
 -1        58 6.97862E+01
 -1        59 6.87857E+01
 -1        60 6.71279E+01
 -1        61 6.55535E+01
 -1        62 6.42027E+01
 -1        63 6.31284E+01
 -1        64 6.24788E+01
 -1        65 6.20033E+01
 -1        66 6.16668E+01
 -1        67 6.13903E+01
 -1        68 6.20011E+01
 -1        69 6.20011E+01
 -1        70 5.25407E+01
 -1        71 6.42887E+01
 -1        72 6.91389E+01
 -1        73 6.92753E+01
 -1        74 6.92753E+01
 -1        75 6.89205E+01
 -1        76 6.97862E+01
 -1        77 6.97862E+01
 -1        78 6.87857E+01
 -1        79 6.71279E+01
 -1        80 6.55535E+01
 -1        81 6.42027E+01
 -1        82 6.31284E+01
 -1        83 6.24788E+01
 -1        84 6.20033E+01
 -1        85 6.16668E+01
 -1        86 6.13903E+01
 -1        87 6.20011E+01
 -1        88 6.20011E+01
 -1        89 6.20011E+01
 -1        90 6.20011E+01
 -1        91 6.13903E+01
 -1        92 6.16668E+01
 -1        93 6.20033E+01
 -1        94 6.24788E+01
 -1        95 6.31284E+01
 -1        96 6.42027E+01
 -1        97 6.55535E+01
 -1        98 6.71279E+01
 -1        99 6.87857E+01
 -1       100 6.97862E+01
 -1       101 6.97862E+01
 -1       102 6.89205E+01
 -1       103 6.92753E+01
 -1       104 6.92753E+01
 -1       105 6.91389E+01
 -1       106 6.42887E+01
 -1       107 6.12788E+01
 -1       108 6.12788E+01
 -1       109 6.42887E+01
 -1       110 6.91389E+01
 -1       111 6.92753E+01
 -1       112 6.92753E+01
 -1       113 6.89205E+01
 -1       114 6.97862E+01
 -1       115 6.97862E+01
 -1       116 6.87857E+01
 -1       117 6.71279E+01
 -1       118 6.55535E+01
 -1       119 6.42027E+01
 -1       120 6.31284E+01
 -1       121 6.24788E+01
 -1       122 6.20033E+01
 -1       123 6.16668E+01
 -1       124 6.13903E+01
 -1       125 6.20011E+01
 -1       126 6.20011E+01
 -3
    1PSTEP                       329          83           1          
  100CL  183 8.30000E-01         126                     1   83           1
 -4  DISP        4    1
 -5  D1          1    2    1    0
 -5  D2          1    2    2    0
 -5  D3          1    2    3    0
 -5  ALL         1    2    0    0    1ALL
 -1         1 0.00000E+00 0.00000E+00 0.00000E+00
 -1         2 0.00000E+00 0.00000E+00 0.00000E+00
 -1         3 3.30905E-01-4.14673E-02 0.00000E+00
 -1         4 3.30905E-01-4.14673E-02 0.00000E+00
 -1         5 3.20029E-01-8.67851E-02 0.00000E+00
 -1         6 3.20029E-01-8.67851E-02 0.00000E+00
 -1         7 0.00000E+00 0.00000E+00 0.00000E+00
 -1         8 0.00000E+00 0.00000E+00 0.00000E+00
 -1         9 3.25468E-01-6.41249E-02 0.00000E+00
 -1        10 3.25468E-01-6.41249E-02 0.00000E+00
 -1        11 0.00000E+00 0.00000E+00 0.00000E+00
 -1        12 0.00000E+00 0.00000E+00 0.00000E+00
 -1        13 1.75540E-03 2.37370E-03 0.00000E+00
 -1        14 5.51186E-03 4.66902E-03 0.00000E+00
 -1        15 1.17053E-02 6.61903E-03 0.00000E+00
 -1        16 2.01670E-02 8.17068E-03 0.00000E+00
 -1        17 3.08289E-02 9.23083E-03 0.00000E+00
 -1        18 4.35981E-02 9.69792E-03 0.00000E+00
 -1        19 5.83070E-02 9.48033E-03 0.00000E+00
 -1        20 7.47436E-02 8.51945E-03 0.00000E+00
 -1        21 9.26496E-02 6.80611E-03 0.00000E+00
 -1        22 1.11756E-01 4.37075E-03 0.00000E+00
 -1        23 1.31774E-01 1.29675E-03 0.00000E+00
 -1        24 1.52466E-01-2.29367E-03 0.00000E+00
 -1        25 1.73681E-01-6.26935E-03 0.00000E+00
 -1        26 1.95376E-01-1.05572E-02 0.00000E+00
 -1        27 2.17525E-01-1.51482E-02 0.00000E+00
 -1        28 2.40047E-01-2.00576E-02 0.00000E+00
 -1        29 2.62775E-01-2.52457E-02 0.00000E+00
 -1        30 2.85538E-01-3.06117E-02 0.00000E+00
 -1        31 3.08242E-01-3.60392E-02 0.00000E+00
 -1        32 1.75540E-03 2.37370E-03 0.00000E+00
 -1        33 5.51186E-03 4.66902E-03 0.00000E+00
 -1        34 1.17053E-02 6.61903E-03 0.00000E+00
 -1        35 2.01670E-02 8.17068E-03 0.00000E+00
 -1        36 3.08289E-02 9.23083E-03 0.00000E+00
 -1        37 4.35981E-02 9.69792E-03 0.00000E+00
 -1        38 5.83070E-02 9.48033E-03 0.00000E+00
 -1        39 7.47436E-02 8.51945E-03 0.00000E+00
 -1        40 9.26496E-02 6.80611E-03 0.00000E+00
 -1        41 1.11756E-01 4.37075E-03 0.00000E+00
 -1        42 1.31774E-01 1.29675E-03 0.00000E+00
 -1        43 1.52466E-01-2.29367E-03 0.00000E+00
 -1        44 1.73681E-01-6.26935E-03 0.00000E+00
 -1        45 1.95376E-01-1.05572E-02 0.00000E+00
 -1        46 2.17525E-01-1.51482E-02 0.00000E+00
 -1        47 2.40047E-01-2.00576E-02 0.00000E+00
 -1        48 2.62775E-01-2.52457E-02 0.00000E+00
 -1        49 2.85538E-01-3.06117E-02 0.00000E+00
 -1        50 3.08242E-01-3.60392E-02 0.00000E+00
 -1        51 2.97355E-01-8.13591E-02 0.00000E+00
 -1        52 2.74648E-01-7.59129E-02 0.00000E+00
 -1        53 2.51956E-01-7.04001E-02 0.00000E+00
 -1        54 2.29417E-01-6.48214E-02 0.00000E+00
 -1        55 2.07214E-01-5.92501E-02 0.00000E+00
 -1        56 1.85476E-01-5.37877E-02 0.00000E+00
 -1        57 1.64251E-01-4.85008E-02 0.00000E+00
 -1        58 1.43554E-01-4.33848E-02 0.00000E+00
 -1        59 1.23469E-01-3.84056E-02 0.00000E+00
 -1        60 1.04186E-01-3.35560E-02 0.00000E+00
 -1        61 8.59631E-02-2.88817E-02 0.00000E+00
 -1        62 6.90436E-02-2.44481E-02 0.00000E+00
 -1        63 5.36463E-02-2.03141E-02 0.00000E+00
 -1        64 3.99654E-02-1.65206E-02 0.00000E+00
 -1        65 2.81677E-02-1.30937E-02 0.00000E+00
 -1        66 1.83524E-02-1.00275E-02 0.00000E+00
 -1        67 1.05831E-02-7.27397E-03 0.00000E+00
 -1        68 4.89531E-03-4.74687E-03 0.00000E+00
 -1        69 1.48391E-03-2.29677E-03 0.00000E+00
 -1        70 2.97355E-01-8.13591E-02 0.00000E+00
 -1        71 2.74648E-01-7.59129E-02 0.00000E+00
 -1        72 2.51956E-01-7.04001E-02 0.00000E+00
 -1        73 2.29417E-01-6.48214E-02 0.00000E+00
 -1        74 2.07214E-01-5.92501E-02 0.00000E+00
 -1        75 1.85476E-01-5.37877E-02 0.00000E+00
 -1        76 1.64251E-01-4.85008E-02 0.00000E+00
 -1        77 1.43554E-01-4.33848E-02 0.00000E+00
 -1        78 1.23469E-01-3.84056E-02 0.00000E+00
 -1        79 1.04186E-01-3.35560E-02 0.00000E+00
 -1        80 8.59631E-02-2.88817E-02 0.00000E+00
 -1        81 6.90436E-02-2.44481E-02 0.00000E+00
 -1        82 5.36463E-02-2.03141E-02 0.00000E+00
 -1        83 3.99654E-02-1.65206E-02 0.00000E+00
 -1        84 2.81677E-02-1.30937E-02 0.00000E+00
 -1        85 1.83524E-02-1.00275E-02 0.00000E+00
 -1        86 1.05831E-02-7.27397E-03 0.00000E+00
 -1        87 4.89531E-03-4.74687E-03 0.00000E+00
 -1        88 1.48391E-03-2.29677E-03 0.00000E+00
 -1        89 1.00171E-03 4.53895E-05 0.00000E+00
 -1        90 4.72311E-03 9.51420E-06 0.00000E+00
 -1        91 1.06671E-02-2.55315E-04 0.00000E+00
 -1        92 1.88048E-02-8.39990E-04 0.00000E+00
 -1        93 2.90642E-02-1.82775E-03 0.00000E+00
 -1        94 4.13773E-02-3.29537E-03 0.00000E+00
 -1        95 5.56133E-02-5.29601E-03 0.00000E+00
 -1        96 7.15769E-02-7.84694E-03 0.00000E+00
 -1        97 8.90400E-02-1.09303E-02 0.00000E+00
 -1        98 1.07756E-01-1.44990E-02 0.00000E+00
 -1        99 1.27454E-01-1.84773E-02 0.00000E+00
 -1       100 1.47876E-01-2.27762E-02 0.00000E+00
 -1       101 1.68852E-01-2.73302E-02 0.00000E+00
 -1       102 1.90324E-01-3.21213E-02 0.00000E+00
 -1       103 2.12286E-01-3.71550E-02 0.00000E+00
 -1       104 2.34676E-01-4.24086E-02 0.00000E+00
 -1       105 2.57338E-01-4.78072E-02 0.00000E+00
 -1       106 2.80086E-01-5.32568E-02 0.00000E+00
 -1       107 3.02799E-01-5.86972E-02 0.00000E+00
 -1       108 3.02799E-01-5.86972E-02 0.00000E+00
 -1       109 2.80086E-01-5.32568E-02 0.00000E+00
 -1       110 2.57338E-01-4.78072E-02 0.00000E+00
 -1       111 2.34676E-01-4.24086E-02 0.00000E+00
 -1       112 2.12286E-01-3.71550E-02 0.00000E+00
 -1       113 1.90324E-01-3.21213E-02 0.00000E+00
 -1       114 1.68852E-01-2.73302E-02 0.00000E+00
 -1       115 1.47876E-01-2.27762E-02 0.00000E+00
 -1       116 1.27454E-01-1.84773E-02 0.00000E+00
 -1       117 1.07756E-01-1.44990E-02 0.00000E+00
 -1       118 8.90400E-02-1.09303E-02 0.00000E+00
 -1       119 7.15769E-02-7.84694E-03 0.00000E+00
 -1       120 5.56133E-02-5.29601E-03 0.00000E+00
 -1       121 4.13773E-02-3.29537E-03 0.00000E+00
 -1       122 2.90642E-02-1.82775E-03 0.00000E+00
 -1       123 1.88048E-02-8.39990E-04 0.00000E+00
 -1       124 1.06671E-02-2.55315E-04 0.00000E+00
 -1       125 4.72311E-03 9.51420E-06 0.00000E+00
 -1       126 1.00171E-03 4.53895E-05 0.00000E+00
 -3
    1PSTEP                       330          83           1          
  100CL  183 8.30000E-01         126                     1   83           1
 -4  STRESS      6    1
 -5  SXX         1    4    1    1
 -5  SYY         1    4    2    2
 -5  SZZ         1    4    3    3
 -5  SXY         1    4    1    2
 -5  SYZ         1    4    2    3
 -5  SZX         1    4    3    1
 -1         1 1.11345E+04 2.72845E+04 1.08400E+04 6.20199E+03-3.70214E-10-3.58762E-10
 -1         2 1.11345E+04 2.72845E+04 1.08400E+04 6.20199E+03-3.70214E-10-3.58762E-10
 -1         3-5.55761E+01-2.19242E+01-2.32552E+01 2.59214E+01 2.56990E-08-1.92757E-07
 -1         4-5.55761E+01-2.19242E+01-2.32552E+01 2.59214E+01 2.56955E-08-1.92728E-07
 -1         5-5.16416E-01 2.81288E+01 8.27086E+00 5.74858E+01 1.57728E-07-1.18995E-07
 -1         6-5.16416E-01 2.81288E+01 8.27086E+00 5.74858E+01 1.57728E-07-1.18944E-07
 -1         7-1.05629E+04-2.32607E+04-1.07461E+04 3.93514E+03-4.51739E-10 3.69409E-10
 -1         8-1.05629E+04-2.32607E+04-1.07461E+04 3.93514E+03-4.51739E-10 3.69409E-10
 -1         9-3.12848E+01-3.32874E+00-1.03907E+01 4.04731E+01 9.11064E-08-1.57082E-07
 -1        10-3.12848E+01-3.32874E+00-1.03907E+01 4.04731E+01 9.11127E-08-1.57144E-07
 -1        11 2.90534E+02 1.45123E+02 2.55634E+02 3.06986E+03-3.69401E-10-3.08156E-11
 -1        12 2.90534E+02 1.45123E+02 2.55634E+02 3.06986E+03-3.69401E-10-3.08156E-11
 -1        13 3.91826E+03 2.43144E+04 7.95365E+03 1.91182E+03-1.07920E-08-4.98042E-08
 -1        14 5.17786E+03 2.43121E+04 8.31266E+03 1.96604E+03 1.12157E-08-6.41534E-08
 -1        15 5.06624E+03 2.30022E+04 7.93227E+03 2.78334E+03 3.94223E-08-3.09132E-08
 -1        16 5.19704E+03 2.19203E+04 7.67883E+03 3.40962E+03 4.31222E-08 4.17696E-08
 -1        17 5.30071E+03 2.06115E+04 7.35380E+03 3.98504E+03 1.30277E-08 1.12275E-07
 -1        18 5.32346E+03 1.89243E+04 6.90303E+03 4.39581E+03-2.25659E-08 1.32059E-07
 -1        19 5.28773E+03 1.68762E+04 6.33726E+03 4.54498E+03-4.25184E-08 1.16772E-07
 -1        20 5.03471E+03 1.45334E+04 5.62446E+03 4.43645E+03-4.04059E-08 8.12962E-08
 -1        21 4.58837E+03 1.20635E+04 4.81416E+03 4.09261E+03-2.43491E-08 4.41383E-08
 -1        22 3.94983E+03 9.64096E+03 3.95368E+03 3.56701E+03-2.61518E-09 2.13459E-08
 -1        23 3.30304E+03 7.59395E+03 3.18925E+03 2.94351E+03 8.82850E-09 1.42960E-08
 -1        24 2.69757E+03 6.11731E+03 2.59201E+03 2.40550E+03 1.40722E-08 9.43913E-09
 -1        25 2.27626E+03 5.20489E+03 2.20588E+03 2.05314E+03 1.60837E-08 1.78854E-08
 -1        26 1.98450E+03 4.47970E+03 1.90930E+03 1.84420E+03 1.51172E-08 2.40944E-08
 -1        27 1.74347E+03 3.57669E+03 1.57498E+03 1.59610E+03 3.16590E-09 3.72483E-08
 -1        28 1.32223E+03 2.35535E+03 1.09234E+03 1.21359E+03-2.41694E-08 4.83576E-08
 -1        29 7.66578E+02 1.13819E+03 5.67834E+02 7.32189E+02-4.19524E-08 5.60004E-09
 -1        30 2.51644E+02 3.06699E+02 1.66867E+02 3.19623E+02-3.72551E-08-5.11241E-08
 -1        31-8.26118E+00 2.35965E+00-1.82346E+00 9.06401E+01-8.00072E-09-1.25166E-07
 -1        32 3.91826E+03 2.43144E+04 7.95365E+03 1.91182E+03-1.07920E-08-4.98042E-08
 -1        33 5.17786E+03 2.43121E+04 8.31266E+03 1.96604E+03 1.12156E-08-6.41534E-08
 -1        34 5.06624E+03 2.30022E+04 7.93227E+03 2.78334E+03 3.94223E-08-3.09132E-08
 -1        35 5.19704E+03 2.19203E+04 7.67883E+03 3.40962E+03 4.31222E-08 4.17695E-08
 -1        36 5.30071E+03 2.06115E+04 7.35380E+03 3.98504E+03 1.30277E-08 1.12274E-07
 -1        37 5.32346E+03 1.89243E+04 6.90303E+03 4.39581E+03-2.25669E-08 1.32059E-07
 -1        38 5.28773E+03 1.68762E+04 6.33726E+03 4.54498E+03-4.25182E-08 1.16768E-07
 -1        39 5.03471E+03 1.45334E+04 5.62446E+03 4.43645E+03-4.04059E-08 8.12964E-08
 -1        40 4.58837E+03 1.20635E+04 4.81416E+03 4.09261E+03-2.43491E-08 4.41388E-08
 -1        41 3.94983E+03 9.64096E+03 3.95368E+03 3.56701E+03-2.61519E-09 2.13441E-08
 -1        42 3.30304E+03 7.59395E+03 3.18925E+03 2.94351E+03 8.82816E-09 1.42950E-08
 -1        43 2.69757E+03 6.11731E+03 2.59201E+03 2.40550E+03 1.40718E-08 9.44280E-09
 -1        44 2.27626E+03 5.20489E+03 2.20588E+03 2.05314E+03 1.60847E-08 1.78892E-08
 -1        45 1.98450E+03 4.47970E+03 1.90930E+03 1.84420E+03 1.51169E-08 2.40803E-08
 -1        46 1.74347E+03 3.57669E+03 1.57498E+03 1.59610E+03 3.16614E-09 3.72483E-08
 -1        47 1.32223E+03 2.35535E+03 1.09234E+03 1.21359E+03-2.41703E-08 4.83576E-08
 -1        48 7.66578E+02 1.13819E+03 5.67834E+02 7.32189E+02-4.19513E-08 5.60004E-09
 -1        49 2.51644E+02 3.06699E+02 1.66867E+02 3.19623E+02-3.72538E-08-5.11005E-08
 -1        50-8.26118E+00 2.35965E+00-1.82346E+00 9.06401E+01-8.00386E-09-1.25227E-07
 -1        51-2.03425E+01-5.27066E+01-2.19614E+01 9.05265E+01 1.22195E-07-6.17548E-08
 -1        52-1.00339E+02-4.49006E+02-1.65097E+02 6.03542E+01 7.75950E-08 2.43133E-09
 -1        53-3.78674E+02-1.33456E+03-5.16011E+02-1.64629E+02 3.05329E-08 4.41839E-08
 -1        54-8.69004E+02-2.47858E+03-1.01144E+03-5.46216E+02 2.30870E-09 5.04013E-08
 -1        55-1.39296E+03-3.48111E+03-1.47676E+03-9.34191E+02-7.89213E-09 3.56625E-08
 -1        56-1.79442E+03-4.17895E+03-1.81300E+03-1.19422E+03-3.87665E-09 1.58092E-08
 -1        57-2.02129E+03-4.77251E+03-2.06473E+03-1.34198E+03 7.42929E-09 7.97792E-09
 -1        58-2.27963E+03-5.71461E+03-2.43557E+03-1.49370E+03 1.13920E-08 1.66672E-08
 -1        59-2.72349E+03-7.23543E+03-3.04785E+03-1.77426E+03 1.87707E-08 1.92101E-08
 -1        60-3.37997E+03-9.22601E+03-3.88110E+03-2.17693E+03 2.31729E-08 3.66603E-08
 -1        61-4.06831E+03-1.13683E+04-4.78271E+03-2.59585E+03 2.40016E-08 6.39855E-08
 -1        62-4.70177E+03-1.34661E+04-5.66252E+03-2.90208E+03 1.15575E-08 9.68678E-08
 -1        63-5.20342E+03-1.53812E+04-6.44945E+03-3.04426E+03-1.03946E-08 1.28885E-07
 -1        64-5.56381E+03-1.70001E+04-7.09953E+03-3.00510E+03-3.93654E-08 1.33957E-07
 -1        65-5.71938E+03-1.82129E+04-7.55194E+03-2.78319E+03-6.20663E-08 1.00345E-07
 -1        66-5.78226E+03-1.91258E+04-7.87438E+03-2.38489E+03-5.82698E-08 2.70191E-08
 -1        67-5.76071E+03-1.99037E+04-8.12551E+03-1.82928E+03-3.13989E-08-4.14726E-08
 -1        68-6.23496E+03-2.10852E+04-8.67174E+03-1.29238E+03 1.10311E-09-6.69895E-08
 -1        69-4.76974E+03-2.09614E+04-8.17862E+03-8.70080E+01 1.57227E-08-5.19842E-08
 -1        70-2.03425E+01-5.27066E+01-2.19614E+01 9.05265E+01 1.22195E-07-6.17557E-08
 -1        71-1.00339E+02-4.49006E+02-1.65097E+02 6.03542E+01 7.76002E-08 2.42677E-09
 -1        72-3.78674E+02-1.33456E+03-5.16011E+02-1.64629E+02 3.05313E-08 4.41858E-08
 -1        73-8.69004E+02-2.47858E+03-1.01144E+03-5.46216E+02 2.30891E-09 5.04008E-08
 -1        74-1.39296E+03-3.48111E+03-1.47676E+03-9.34191E+02-7.89247E-09 3.56625E-08
 -1        75-1.79442E+03-4.17895E+03-1.81300E+03-1.19422E+03-3.87665E-09 1.58092E-08
 -1        76-2.02129E+03-4.77251E+03-2.06473E+03-1.34198E+03 7.42908E-09 7.97515E-09
 -1        77-2.27963E+03-5.71461E+03-2.43557E+03-1.49370E+03 1.13934E-08 1.66935E-08
 -1        78-2.72349E+03-7.23543E+03-3.04785E+03-1.77426E+03 1.87767E-08 1.92100E-08
 -1        79-3.37997E+03-9.22601E+03-3.88110E+03-2.17693E+03 2.31735E-08 3.66534E-08
 -1        80-4.06831E+03-1.13683E+04-4.78271E+03-2.59585E+03 2.39994E-08 6.39874E-08
 -1        81-4.70177E+03-1.34661E+04-5.66252E+03-2.90208E+03 1.15575E-08 9.68678E-08
 -1        82-5.20342E+03-1.53812E+04-6.44945E+03-3.04426E+03-1.03942E-08 1.28885E-07
 -1        83-5.56381E+03-1.70001E+04-7.09953E+03-3.00510E+03-3.93635E-08 1.33955E-07
 -1        84-5.71938E+03-1.82129E+04-7.55194E+03-2.78319E+03-6.20685E-08 1.00345E-07
 -1        85-5.78226E+03-1.91258E+04-7.87438E+03-2.38489E+03-5.82687E-08 2.70164E-08
 -1        86-5.76071E+03-1.99037E+04-8.12551E+03-1.82928E+03-3.13989E-08-4.14735E-08
 -1        87-6.23496E+03-2.10852E+04-8.67174E+03-1.29238E+03 1.10307E-09-6.69896E-08
 -1        88-4.76974E+03-2.09614E+04-8.17862E+03-8.70080E+01 1.57227E-08-5.19842E-08
 -1        89-2.22999E+02-5.07001E+00-2.67259E+01 7.23606E+01 2.32546E-09-4.74096E-08
 -1        90-2.36709E+02 1.19619E+02 3.65125E+01 3.75648E+02 6.72215E-09-7.20273E-08
 -1        91-1.71137E+02 8.39485E+01 3.38349E+01 2.75065E+02 3.83575E-09-4.16102E-08
 -1        92-1.43793E+02 2.74519E+01 2.09615E+01 2.82440E+02-1.10863E-08 3.33195E-08
 -1        93-7.89920E+01-3.45064E+01 1.56663E+01 3.45363E+02-2.76598E-08 1.10613E-07
 -1        94 3.14528E-01-1.21286E+02 6.75459E+00 4.56977E+02-3.32292E-08 1.40615E-07
 -1        95 1.49117E+02-1.75453E+02 2.79227E+01 5.51565E+02-2.63651E-08 1.26556E-07
 -1        96 2.63867E+02-2.15436E+02 4.21833E+01 6.20372E+02-1.19052E-08 9.30569E-08
 -1        97 3.60050E+02-2.22685E+02 6.08367E+01 6.62944E+02 2.61344E-09 5.39103E-08
 -1        98 3.86503E+02-2.07242E+02 6.69559E+01 6.64195E+02 1.06668E-08 2.67862E-08
 -1        99 3.72490E+02-1.15128E+02 8.61920E+01 5.80164E+02 1.45863E-08 1.48657E-08
 -1       100 2.59349E+02 3.46764E+00 8.50932E+01 4.49180E+02 1.27149E-08 1.20682E-08
 -1       101 1.59054E+02 8.99937E+01 7.89774E+01 3.42917E+02 1.10210E-08 1.00190E-08
 -1       102 1.33180E+02 5.41166E+01 5.87492E+01 3.22708E+02 7.22121E-09 2.09674E-08
 -1       103 2.32897E+02-5.41138E+01 5.48671E+01 3.53028E+02-5.77165E-09 3.66832E-08
 -1       104 2.98497E+02-1.65029E+02 4.03966E+01 3.76956E+02-1.44205E-08 5.33030E-08
 -1       105 2.61792E+02-1.75506E+02 2.58131E+01 3.30125E+02-4.26361E-09 3.39992E-08
 -1       106 1.17387E+02-1.08198E+02 2.59806E+00 2.19133E+02 2.15641E-08-2.12812E-08
 -1       107-3.63432E+00-3.69653E+01-1.22386E+01 9.84477E+01 5.83679E-08-8.92457E-08
 -1       108-3.63432E+00-3.69653E+01-1.22386E+01 9.84477E+01 5.83690E-08-8.92255E-08
 -1       109 1.17387E+02-1.08198E+02 2.59806E+00 2.19133E+02 2.15656E-08-2.12910E-08
 -1       110 2.61792E+02-1.75506E+02 2.58131E+01 3.30125E+02-4.26397E-09 3.39957E-08
 -1       111 2.98497E+02-1.65029E+02 4.03966E+01 3.76956E+02-1.44192E-08 5.33039E-08
 -1       112 2.32897E+02-5.41138E+01 5.48671E+01 3.53028E+02-5.77147E-09 3.66832E-08
 -1       113 1.33180E+02 5.41166E+01 5.87492E+01 3.22708E+02 7.22128E-09 2.09756E-08
 -1       114 1.59054E+02 8.99937E+01 7.89774E+01 3.42917E+02 1.10213E-08 1.00156E-08
 -1       115 2.59349E+02 3.46764E+00 8.50932E+01 4.49180E+02 1.27155E-08 1.20584E-08
 -1       116 3.72490E+02-1.15128E+02 8.61920E+01 5.80164E+02 1.45858E-08 1.48672E-08
 -1       117 3.86503E+02-2.07242E+02 6.69559E+01 6.64195E+02 1.06666E-08 2.67906E-08
 -1       118 3.60050E+02-2.22685E+02 6.08367E+01 6.62944E+02 2.61451E-09 5.39091E-08
 -1       119 2.63867E+02-2.15436E+02 4.21833E+01 6.20372E+02-1.19053E-08 9.30565E-08
 -1       120 1.49117E+02-1.75453E+02 2.79227E+01 5.51565E+02-2.63651E-08 1.26558E-07
 -1       121 3.14528E-01-1.21286E+02 6.75459E+00 4.56977E+02-3.32293E-08 1.40612E-07
 -1       122-7.89920E+01-3.45064E+01 1.56663E+01 3.45363E+02-2.76594E-08 1.10614E-07
 -1       123-1.43793E+02 2.74519E+01 2.09615E+01 2.82440E+02-1.10867E-08 3.33201E-08
 -1       124-1.71137E+02 8.39485E+01 3.38349E+01 2.75065E+02 3.83556E-09-4.16100E-08
 -1       125-2.36709E+02 1.19619E+02 3.65125E+01 3.75648E+02 6.72227E-09-7.20272E-08
 -1       126-2.22999E+02-5.07001E+00-2.67259E+01 7.23606E+01 2.32543E-09-4.74096E-08
 -3
    1PSTEP                       331          83           1          
  100CL  183 8.30000E-01         126                     1   83           1
 -4  TOSTRAIN    6    1
 -5  EXX         1    4    1    1
 -5  EYY         1    4    2    2
 -5  EZZ         1    4    3    3
 -5  EXY         1    4    1    2
 -5  EYZ         1    4    2    3
 -5  EZX         1    4    3    1
 -1         1-1.99394E-04 4.90165E-02-9.00195E-27 1.75538E-02 3.58661E-19-6.36433E-16
 -1         2-1.99394E-04 4.90165E-02-9.00195E-27 1.75538E-02 3.58661E-19-6.36433E-16
 -1         3-1.50694E-04 4.99298E-05 7.59741E-25 5.45410E-06-2.09473E-13-5.96399E-13
 -1         4-1.50694E-04 4.99298E-05 7.59543E-25 5.45410E-06-2.09440E-13-5.96309E-13
 -1         5-1.60467E-04 1.96306E-04 7.88565E-25 7.24151E-05 2.81576E-13-5.77204E-13
 -1         6-1.60467E-04 1.96306E-04 7.88310E-25 7.24151E-05 2.81652E-13-5.77055E-13
 -1         7-1.90782E-04-4.46296E-02-1.03591E-26 1.48389E-02-5.25217E-19 7.19554E-16
 -1         8-1.90782E-04-4.46296E-02-1.03591E-26 1.48389E-02-5.25217E-19 7.19554E-16
 -1         9-1.55581E-04 1.10554E-04 6.57030E-25 4.07824E-05 3.25426E-14-5.89381E-13
 -1        10-1.55581E-04 1.10554E-04 6.57434E-25 4.07824E-05 3.24694E-14-5.89571E-13
 -1        11-1.95088E-04 9.13709E-04-7.86126E-27 1.00170E-02-6.45695E-20-7.22195E-18
 -1        12-1.95088E-04 9.13709E-04-7.86126E-27 1.00170E-02-6.45695E-20-7.22195E-18
 -1        13-1.40658E-02 4.93082E-02 4.85338E-26 2.77358E-03-3.98098E-14-1.58596E-13
 -1        14-1.14813E-02 4.84328E-02 8.61897E-26 3.91370E-04 1.56593E-14-2.08855E-13
 -1        15-1.12578E-02 4.64717E-02 3.30150E-26 6.03273E-04 1.06483E-13-1.16294E-13
 -1        16-1.07833E-02 4.48472E-02 3.89402E-26 5.52931E-04 1.53627E-13 1.06838E-13
 -1        17-1.03501E-02 4.29401E-02 2.48455E-25 7.46131E-04 1.16387E-13 3.43110E-13
 -1        18-9.78712E-03 4.03385E-02 3.76853E-25 1.03103E-03 3.98101E-14 4.29941E-13
 -1        19-8.85635E-03 3.68603E-02 3.23842E-25 1.31582E-03-1.79410E-14 4.00696E-13
 -1        20-7.83730E-03 3.26411E-02 1.66534E-25 1.55026E-03-3.53725E-14 2.91111E-13
 -1        21-6.72784E-03 2.79089E-02 4.64518E-26 1.69639E-03-2.19532E-14 1.61540E-13
 -1        22-5.63125E-03 2.29822E-02 6.94125E-27 1.66977E-03 1.79134E-14 6.70972E-14
 -1        23-4.48809E-03 1.84523E-02 5.09205E-27 1.40105E-03 4.37069E-14 3.10349E-14
 -1        24-3.68814E-03 1.50153E-02 5.45800E-27 9.72837E-04 5.32253E-14 9.02449E-15
 -1        25-3.22148E-03 1.28487E-02 1.11938E-26 6.24427E-04 7.07399E-14 3.04684E-14
 -1        26-2.94855E-03 1.12731E-02 1.56305E-26 5.72951E-04 7.70018E-14 4.91947E-14
 -1        27-2.42870E-03 9.28921E-03 2.69668E-26 7.92909E-04 6.18340E-14 1.03882E-13
 -1        28-1.75321E-03 6.50534E-03 5.67574E-26 1.00381E-03 8.07781E-17 1.75580E-13
 -1        29-1.03079E-03 3.49763E-03 2.09822E-26 9.13737E-04-1.12948E-13 7.80024E-14
 -1        30-5.28443E-04 1.25247E-03 5.21004E-26 5.37375E-04-1.82954E-13-9.30734E-14
 -1        31-2.52213E-04 2.44340E-04 2.91093E-25 1.59374E-04-2.07516E-13-3.50841E-13
 -1        32-1.40658E-02 4.93082E-02 4.85338E-26 2.77358E-03-3.98098E-14-1.58596E-13
 -1        33-1.14813E-02 4.84328E-02 8.61897E-26 3.91370E-04 1.56592E-14-2.08855E-13
 -1        34-1.12578E-02 4.64717E-02 3.30150E-26 6.03273E-04 1.06483E-13-1.16294E-13
 -1        35-1.07833E-02 4.48472E-02 3.89402E-26 5.52931E-04 1.53627E-13 1.06838E-13
 -1        36-1.03501E-02 4.29401E-02 2.48451E-25 7.46131E-04 1.16387E-13 3.43108E-13
 -1        37-9.78712E-03 4.03385E-02 3.76854E-25 1.03103E-03 3.98071E-14 4.29942E-13
 -1        38-8.85635E-03 3.68603E-02 3.23822E-25 1.31582E-03-1.79441E-14 4.00684E-13
 -1        39-7.83730E-03 3.26411E-02 1.66535E-25 1.55026E-03-3.53723E-14 2.91112E-13
 -1        40-6.72784E-03 2.79089E-02 4.64525E-26 1.69639E-03-2.19525E-14 1.61542E-13
 -1        41-5.63125E-03 2.29822E-02 6.93883E-27 1.66977E-03 1.79112E-14 6.70917E-14
 -1        42-4.48809E-03 1.84523E-02 5.09135E-27 1.40105E-03 4.37046E-14 3.10324E-14
 -1        43-3.68814E-03 1.50153E-02 5.45964E-27 9.72837E-04 5.32288E-14 9.03602E-15
 -1        44-3.22148E-03 1.28487E-02 1.11977E-26 6.24427E-04 7.07479E-14 3.04781E-14
 -1        45-2.94855E-03 1.12731E-02 1.56179E-26 5.72951E-04 7.69814E-14 4.91539E-14
 -1        46-2.42870E-03 9.28921E-03 2.69667E-26 7.92909E-04 6.18347E-14 1.03881E-13
 -1        47-1.75321E-03 6.50534E-03 5.67580E-26 1.00381E-03 7.80849E-17 1.75582E-13
 -1        48-1.03079E-03 3.49763E-03 2.09808E-26 9.13737E-04-1.12945E-13 7.80008E-14
 -1        49-5.28443E-04 1.25247E-03 5.20160E-26 5.37375E-04-1.82915E-13-9.30072E-14
 -1        50-2.52213E-04 2.44340E-04 2.91361E-25 1.59374E-04-2.07616E-13-3.51015E-13
 -1        51-2.54594E-04 1.59434E-04 3.60875E-25 2.15769E-04 2.62958E-13-3.59156E-13
 -1        52-1.82197E-04-5.32523E-04 9.72430E-26 5.75001E-04 2.28567E-13-1.07563E-13
 -1        53 2.39233E-04-2.47045E-03 4.84413E-26 9.41718E-04 1.53911E-13 8.30740E-14
 -1        54 8.22385E-04-5.19010E-03 5.10484E-26 1.04367E-03 8.06061E-14 1.43131E-13
 -1        55 1.33168E-03-7.70111E-03 2.70243E-26 8.48243E-04 2.83882E-14 1.15478E-13
 -1        56 1.60826E-03-9.42044E-03 4.08785E-27 6.08413E-04 1.10335E-14 5.18713E-14
 -1        57 1.85489E-03-1.07448E-02 2.11202E-27 6.39159E-04 3.33795E-14 1.32858E-14
 -1        58 2.21864E-03-1.26920E-02 8.64633E-27 1.00415E-03 5.70737E-14 3.41149E-14
 -1        59 2.87634E-03-1.59551E-02 1.53928E-26 1.45767E-03 8.26806E-14 3.29075E-14
 -1        60 3.74245E-03-2.03510E-02 3.92270E-26 1.71890E-03 1.18347E-13 8.15336E-14
 -1        61 4.74668E-03-2.51542E-02 9.75331E-26 1.73426E-03 1.52621E-13 1.66602E-13
 -1        62 5.65600E-03-2.97488E-02 1.98369E-25 1.60894E-03 1.45662E-13 2.85866E-13
 -1        63 6.43668E-03-3.38076E-02 3.48880E-25 1.39623E-03 9.75147E-14 4.12046E-13
 -1        64 7.01601E-03-3.70817E-02 4.05392E-25 1.09271E-03-9.60539E-15 4.56645E-13
 -1        65 7.47116E-03-3.94063E-02 2.81871E-25 7.83155E-04-1.31227E-13 3.65621E-13
 -1        66 7.71962E-03-4.09834E-02 7.10526E-26 5.99139E-04-1.81146E-13 1.21899E-13
 -1        67 8.00632E-03-4.23046E-02 4.51075E-26 6.92435E-04-1.27717E-13-1.19982E-13
 -1        68 7.78898E-03-4.43183E-02 9.04212E-26 4.55829E-04-1.81291E-14-2.18891E-13
 -1        69 1.05931E-02-4.51500E-02 5.62195E-26 2.40268E-03 4.66724E-14-1.72236E-13
 -1        70-2.54594E-04 1.59434E-04 3.60893E-25 2.15769E-04 2.62958E-13-3.59160E-13
 -1        71-1.82197E-04-5.32523E-04 9.72583E-26 5.75001E-04 2.28575E-13-1.07584E-13
 -1        72 2.39233E-04-2.47045E-03 4.84404E-26 9.41718E-04 1.53909E-13 8.30817E-14
 -1        73 8.22385E-04-5.19010E-03 5.10475E-26 1.04367E-03 8.06060E-14 1.43129E-13
 -1        74 1.33168E-03-7.70111E-03 2.70244E-26 8.48243E-04 2.83872E-14 1.15479E-13
 -1        75 1.60826E-03-9.42044E-03 4.08785E-27 6.08413E-04 1.10335E-14 5.18713E-14
 -1        76 1.85489E-03-1.07448E-02 2.11009E-27 6.39159E-04 3.33750E-14 1.32779E-14
 -1        77 2.21864E-03-1.26920E-02 8.66400E-27 1.00415E-03 5.71136E-14 3.41910E-14
 -1        78 2.87634E-03-1.59551E-02 1.53976E-26 1.45767E-03 8.26986E-14 3.28995E-14
 -1        79 3.74245E-03-2.03510E-02 3.92156E-26 1.71890E-03 1.18340E-13 8.15121E-14
 -1        80 4.74668E-03-2.51542E-02 9.75346E-26 1.73426E-03 1.52617E-13 1.66610E-13
 -1        81 5.65600E-03-2.97488E-02 1.98369E-25 1.60894E-03 1.45662E-13 2.85866E-13
 -1        82 6.43668E-03-3.38076E-02 3.48878E-25 1.39623E-03 9.75159E-14 4.12045E-13
 -1        83 7.01601E-03-3.70817E-02 4.05374E-25 1.09271E-03-9.60145E-15 4.56635E-13
 -1        84 7.47116E-03-3.94063E-02 2.81876E-25 7.83155E-04-1.31235E-13 3.65622E-13
 -1        85 7.71962E-03-4.09834E-02 7.10471E-26 5.99139E-04-1.81144E-13 1.21890E-13
 -1        86 8.00632E-03-4.23046E-02 4.51093E-26 6.92435E-04-1.27718E-13-1.19985E-13
 -1        87 7.78898E-03-4.43183E-02 9.04214E-26 4.55829E-04-1.81292E-14-2.18892E-13
 -1        88 1.05931E-02-4.51500E-02 5.62194E-26 2.40268E-03 4.66725E-14-1.72236E-13
 -1        89-1.73635E-03 1.38840E-03 4.22520E-26 1.96788E-04 7.51833E-16-1.54385E-13
 -1        90-1.84614E-03 1.73869E-03 1.08650E-25 1.09077E-03-1.86215E-16-2.35408E-13
 -1        91-1.62576E-03 1.53761E-03 2.06676E-26 7.43434E-04-6.43213E-15-1.35798E-13
 -1        92-1.53185E-03 1.40200E-03-4.55121E-27 7.56298E-04-1.56698E-14 1.13155E-13
 -1        93-1.43948E-03 1.30469E-03 2.58274E-25 9.77063E-04-7.20020E-15 3.70839E-13
 -1        94-1.38555E-03 1.23579E-03 4.40705E-25 1.37732E-03 1.58086E-14 4.69704E-13
 -1        95-1.20984E-03 1.18097E-03 3.49983E-25 1.76897E-03 4.08161E-14 4.18334E-13
 -1        96-1.09065E-03 1.15620E-03 1.77472E-25 2.05645E-03 6.31469E-14 2.98235E-13
 -1        97-9.90577E-04 1.16899E-03 5.40418E-26 2.23004E-03 7.03539E-14 1.60406E-13
 -1        98-9.44400E-04 1.17739E-03 1.47932E-26 2.20781E-03 6.50052E-14 6.71241E-14
 -1        99-8.05875E-04 1.14305E-03 8.65216E-27 1.86257E-03 6.26015E-14 2.52792E-14
 -1       100-7.34746E-04 1.08009E-03 6.39518E-27 1.27452E-03 5.37309E-14 1.86177E-14
 -1       101-6.83293E-04 1.00884E-03 4.29972E-27 8.00612E-04 4.61918E-14 1.43153E-14
 -1       102-6.70142E-04 9.12071E-04 9.05414E-27 7.55164E-04 5.05835E-14 5.12347E-14
 -1       103-5.48513E-04 7.77600E-04 2.77358E-26 1.06816E-03 3.56881E-14 1.15229E-13
 -1       104-4.65413E-04 6.36024E-04 6.25469E-26 1.33504E-03 3.55820E-14 1.75857E-13
 -1       105-3.95780E-04 5.06213E-04 1.15402E-26 1.20642E-03 3.74837E-14 1.04786E-13
 -1       106-3.55320E-04 3.66370E-04-1.16270E-26 7.15241E-04 3.11035E-14-9.34918E-14
 -1       107-2.53403E-04 2.00374E-04 2.01550E-25 2.32079E-04 3.75952E-14-3.44643E-13
 -1       108-2.53403E-04 2.00374E-04 2.01456E-25 2.32079E-04 3.76281E-14-3.44586E-13
 -1       109-3.55320E-04 3.66370E-04-1.16022E-26 7.15241E-04 3.10934E-14-9.35224E-14
 -1       110-3.95780E-04 5.06213E-04 1.15344E-26 1.20642E-03 3.74776E-14 1.04777E-13
 -1       111-4.65413E-04 6.36024E-04 6.25475E-26 1.33504E-03 3.55872E-14 1.75858E-13
 -1       112-5.48513E-04 7.77600E-04 2.77358E-26 1.06816E-03 3.56886E-14 1.15229E-13
 -1       113-6.70142E-04 9.12071E-04 9.06110E-27 7.55164E-04 5.05952E-14 5.12589E-14
 -1       114-6.83293E-04 1.00884E-03 4.29750E-27 8.00612E-04 4.61878E-14 1.43049E-14
 -1       115-7.34746E-04 1.08009E-03 6.39001E-27 1.27452E-03 5.37196E-14 1.85876E-14
 -1       116-8.05875E-04 1.14305E-03 8.65237E-27 1.86257E-03 6.26020E-14 2.52841E-14
 -1       117-9.44400E-04 1.17739E-03 1.47992E-26 2.20781E-03 6.50100E-14 6.71374E-14
 -1       118-9.90577E-04 1.16899E-03 5.40406E-26 2.23004E-03 7.03558E-14 1.60402E-13
 -1       119-1.09065E-03 1.15620E-03 1.77469E-25 2.05645E-03 6.31462E-14 2.98234E-13
 -1       120-1.20984E-03 1.18097E-03 3.49996E-25 1.76897E-03 4.08182E-14 4.18342E-13
 -1       121-1.38555E-03 1.23579E-03 4.40691E-25 1.37732E-03 1.58064E-14 4.69696E-13
 -1       122-1.43948E-03 1.30469E-03 2.58279E-25 9.77063E-04-7.19800E-15 3.70842E-13
 -1       123-1.53185E-03 1.40200E-03-4.55026E-27 7.56298E-04-1.56706E-14 1.13157E-13
 -1       124-1.62576E-03 1.53761E-03 2.06673E-26 7.43434E-04-6.43266E-15-1.35798E-13
 -1       125-1.84614E-03 1.73869E-03 1.08650E-25 1.09077E-03-1.85810E-16-2.35408E-13
 -1       126-1.73635E-03 1.38840E-03 4.22521E-26 1.96788E-04 7.51740E-16-1.54385E-13
 -3
    1PSTEP                       332          83           1          
  100CL  183 8.30000E-01         126                     1   83           1
 -4  ERROR       1    1
 -5  STR(%)      1    1    0    0
 -1         1 6.08725E+01
 -1         2 6.08725E+01
 -1         3 2.11164E+01
 -1         4 2.11164E+01
 -1         5 2.53971E+01
 -1         6 2.53971E+01
 -1         7 6.05415E+01
 -1         8 6.05415E+01
 -1         9 2.53971E+01
 -1        10 2.53971E+01
 -1        11 6.08725E+01
 -1        12 6.08725E+01
 -1        13 6.08725E+01
 -1        14 5.91118E+01
 -1        15 5.91298E+01
 -1        16 5.92990E+01
 -1        17 5.96594E+01
 -1        18 5.98564E+01
 -1        19 5.99815E+01
 -1        20 5.99815E+01
 -1        21 5.98298E+01
 -1        22 5.94198E+01
 -1        23 5.85054E+01
 -1        24 5.76736E+01
 -1        25 5.67827E+01
 -1        26 5.64094E+01
 -1        27 5.64094E+01
 -1        28 5.56003E+01
 -1        29 4.94041E+01
 -1        30 3.50764E+01
 -1        31 3.50764E+01
 -1        32 6.08725E+01
 -1        33 5.91118E+01
 -1        34 5.91298E+01
 -1        35 5.92990E+01
 -1        36 5.96594E+01
 -1        37 5.98564E+01
 -1        38 5.99815E+01
 -1        39 5.99815E+01
 -1        40 5.98298E+01
 -1        41 5.94198E+01
 -1        42 5.85054E+01
 -1        43 5.76736E+01
 -1        44 5.67827E+01
 -1        45 5.64094E+01
 -1        46 5.64094E+01
 -1        47 5.56003E+01
 -1        48 4.94041E+01
 -1        49 3.50764E+01
 -1        50 3.50764E+01
 -1        51 2.58501E+01
 -1        52 3.98517E+01
 -1        53 5.93807E+01
 -1        54 6.80431E+01
 -1        55 6.86921E+01
 -1        56 6.86921E+01
 -1        57 6.82458E+01
 -1        58 6.82458E+01
 -1        59 6.78718E+01
 -1        60 6.66552E+01
 -1        61 6.53130E+01
 -1        62 6.41431E+01
 -1        63 6.31760E+01
 -1        64 6.24136E+01
 -1        65 6.16987E+01
 -1        66 6.13214E+01
 -1        67 6.16036E+01
 -1        68 6.21451E+01
 -1        69 6.21451E+01
 -1        70 2.58501E+01
 -1        71 3.98517E+01
 -1        72 5.93807E+01
 -1        73 6.80431E+01
 -1        74 6.86921E+01
 -1        75 6.86921E+01
 -1        76 6.82458E+01
 -1        77 6.82458E+01
 -1        78 6.78718E+01
 -1        79 6.66552E+01
 -1        80 6.53130E+01
 -1        81 6.41431E+01
 -1        82 6.31760E+01
 -1        83 6.24136E+01
 -1        84 6.16987E+01
 -1        85 6.13214E+01
 -1        86 6.16036E+01
 -1        87 6.21451E+01
 -1        88 6.21451E+01
 -1        89 6.21451E+01
 -1        90 6.21451E+01
 -1        91 6.16036E+01
 -1        92 6.13214E+01
 -1        93 6.16987E+01
 -1        94 6.24136E+01
 -1        95 6.31760E+01
 -1        96 6.41431E+01
 -1        97 6.53130E+01
 -1        98 6.66552E+01
 -1        99 6.78718E+01
 -1       100 6.82458E+01
 -1       101 6.82458E+01
 -1       102 6.86921E+01
 -1       103 6.86921E+01
 -1       104 6.80431E+01
 -1       105 5.93807E+01
 -1       106 3.98517E+01
 -1       107 3.50764E+01
 -1       108 3.50764E+01
 -1       109 3.98517E+01
 -1       110 5.93807E+01
 -1       111 6.80431E+01
 -1       112 6.86921E+01
 -1       113 6.86921E+01
 -1       114 6.82458E+01
 -1       115 6.82458E+01
 -1       116 6.78718E+01
 -1       117 6.66552E+01
 -1       118 6.53130E+01
 -1       119 6.41431E+01
 -1       120 6.31760E+01
 -1       121 6.24136E+01
 -1       122 6.16987E+01
 -1       123 6.13214E+01
 -1       124 6.16036E+01
 -1       125 6.21451E+01
 -1       126 6.21451E+01
 -3
    1PSTEP                       333          84           1          
  100CL  184 8.40000E-01         126                     1   84           1
 -4  DISP        4    1
 -5  D1          1    2    1    0
 -5  D2          1    2    2    0
 -5  D3          1    2    3    0
 -5  ALL         1    2    0    0    1ALL
 -1         1 0.00000E+00 0.00000E+00 0.00000E+00
 -1         2 0.00000E+00 0.00000E+00 0.00000E+00
 -1         3 3.34547E-01-4.28954E-02 0.00000E+00
 -1         4 3.34547E-01-4.28954E-02 0.00000E+00
 -1         5 3.23706E-01-8.81463E-02 0.00000E+00
 -1         6 3.23706E-01-8.81463E-02 0.00000E+00
 -1         7 0.00000E+00 0.00000E+00 0.00000E+00
 -1         8 0.00000E+00 0.00000E+00 0.00000E+00
 -1         9 3.29129E-01-6.55204E-02 0.00000E+00
 -1        10 3.29129E-01-6.55204E-02 0.00000E+00
 -1        11 0.00000E+00 0.00000E+00 0.00000E+00
 -1        12 0.00000E+00 0.00000E+00 0.00000E+00
 -1        13 1.84575E-03 2.44365E-03 0.00000E+00
 -1        14 5.76406E-03 4.77880E-03 0.00000E+00
 -1        15 1.21717E-02 6.73187E-03 0.00000E+00
 -1        16 2.08716E-02 8.25901E-03 0.00000E+00
 -1        17 3.17840E-02 9.27470E-03 0.00000E+00
 -1        18 4.48133E-02 9.68041E-03 0.00000E+00
 -1        19 5.97889E-02 9.38065E-03 0.00000E+00
 -1        20 7.64804E-02 8.31477E-03 0.00000E+00
 -1        21 9.45969E-02 6.49002E-03 0.00000E+00
 -1        22 1.13861E-01 3.96960E-03 0.00000E+00
 -1        23 1.34032E-01 8.50700E-04 0.00000E+00
 -1        24 1.54951E-01-2.77867E-03 0.00000E+00
 -1        25 1.76493E-01-6.84551E-03 0.00000E+00
 -1        26 1.98558E-01-1.13041E-02 0.00000E+00
 -1        27 2.21021E-01-1.61170E-02 0.00000E+00
 -1        28 2.43738E-01-2.12395E-02 0.00000E+00
 -1        29 2.66534E-01-2.65830E-02 0.00000E+00
 -1        30 2.89279E-01-3.20301E-02 0.00000E+00
 -1        31 3.11931E-01-3.74779E-02 0.00000E+00
 -1        32 1.84575E-03 2.44365E-03 0.00000E+00
 -1        33 5.76406E-03 4.77880E-03 0.00000E+00
 -1        34 1.21717E-02 6.73187E-03 0.00000E+00
 -1        35 2.08716E-02 8.25901E-03 0.00000E+00
 -1        36 3.17840E-02 9.27470E-03 0.00000E+00
 -1        37 4.48133E-02 9.68041E-03 0.00000E+00
 -1        38 5.97889E-02 9.38065E-03 0.00000E+00
 -1        39 7.64804E-02 8.31477E-03 0.00000E+00
 -1        40 9.45969E-02 6.49002E-03 0.00000E+00
 -1        41 1.13861E-01 3.96960E-03 0.00000E+00
 -1        42 1.34032E-01 8.50700E-04 0.00000E+00
 -1        43 1.54951E-01-2.77867E-03 0.00000E+00
 -1        44 1.76493E-01-6.84551E-03 0.00000E+00
 -1        45 1.98558E-01-1.13041E-02 0.00000E+00
 -1        46 2.21021E-01-1.61170E-02 0.00000E+00
 -1        47 2.43738E-01-2.12395E-02 0.00000E+00
 -1        48 2.66534E-01-2.65830E-02 0.00000E+00
 -1        49 2.89279E-01-3.20301E-02 0.00000E+00
 -1        50 3.11931E-01-3.74779E-02 0.00000E+00
 -1        51 3.01068E-01-8.27503E-02 0.00000E+00
 -1        52 2.78380E-01-7.73551E-02 0.00000E+00
 -1        53 2.55636E-01-7.18992E-02 0.00000E+00
 -1        54 2.32937E-01-6.63507E-02 0.00000E+00
 -1        55 2.10455E-01-6.07454E-02 0.00000E+00
 -1        56 1.88359E-01-5.51627E-02 0.00000E+00
 -1        57 1.66782E-01-4.96865E-02 0.00000E+00
 -1        58 1.45815E-01-4.43694E-02 0.00000E+00
 -1        59 1.25560E-01-3.92387E-02 0.00000E+00
 -1        60 1.06147E-01-3.43061E-02 0.00000E+00
 -1        61 8.77616E-02-2.95870E-02 0.00000E+00
 -1        62 7.06225E-02-2.51049E-02 0.00000E+00
 -1        63 5.49761E-02-2.09023E-02 0.00000E+00
 -1        64 4.10485E-02-1.70294E-02 0.00000E+00
 -1        65 2.90173E-02-1.35248E-02 0.00000E+00
 -1        66 1.89797E-02-1.03865E-02 0.00000E+00
 -1        67 1.10006E-02-7.56139E-03 0.00000E+00
 -1        68 5.12621E-03-4.95553E-03 0.00000E+00
 -1        69 1.57692E-03-2.40989E-03 0.00000E+00
 -1        70 3.01068E-01-8.27503E-02 0.00000E+00
 -1        71 2.78380E-01-7.73551E-02 0.00000E+00
 -1        72 2.55636E-01-7.18992E-02 0.00000E+00
 -1        73 2.32937E-01-6.63507E-02 0.00000E+00
 -1        74 2.10455E-01-6.07454E-02 0.00000E+00
 -1        75 1.88359E-01-5.51627E-02 0.00000E+00
 -1        76 1.66782E-01-4.96865E-02 0.00000E+00
 -1        77 1.45815E-01-4.43694E-02 0.00000E+00
 -1        78 1.25560E-01-3.92387E-02 0.00000E+00
 -1        79 1.06147E-01-3.43061E-02 0.00000E+00
 -1        80 8.77616E-02-2.95870E-02 0.00000E+00
 -1        81 7.06225E-02-2.51049E-02 0.00000E+00
 -1        82 5.49761E-02-2.09023E-02 0.00000E+00
 -1        83 4.10485E-02-1.70294E-02 0.00000E+00
 -1        84 2.90173E-02-1.35248E-02 0.00000E+00
 -1        85 1.89797E-02-1.03865E-02 0.00000E+00
 -1        86 1.10006E-02-7.56139E-03 0.00000E+00
 -1        87 5.12621E-03-4.95553E-03 0.00000E+00
 -1        88 1.57692E-03-2.40989E-03 0.00000E+00
 -1        89 1.07169E-03 2.70936E-05 0.00000E+00
 -1        90 4.95423E-03-3.70472E-05 0.00000E+00
 -1        91 1.11023E-02-3.39754E-04 0.00000E+00
 -1        92 1.94670E-02-9.72740E-04 0.00000E+00
 -1        93 2.99642E-02-2.01892E-03 0.00000E+00
 -1        94 4.25255E-02-3.55610E-03 0.00000E+00
 -1        95 5.70212E-02-5.63838E-03 0.00000E+00
 -1        96 7.32406E-02-8.27792E-03 0.00000E+00
 -1        97 9.09194E-02-1.14425E-02 0.00000E+00
 -1        98 1.09789E-01-1.50743E-02 0.00000E+00
 -1        99 1.29620E-01-1.91122E-02 0.00000E+00
 -1       100 1.50236E-01-2.35036E-02 0.00000E+00
 -1       101 1.71516E-01-2.82059E-02 0.00000E+00
 -1       102 1.93362E-01-3.31834E-02 0.00000E+00
 -1       103 2.15671E-01-3.83946E-02 0.00000E+00
 -1       104 2.38301E-01-4.37747E-02 0.00000E+00
 -1       105 2.61075E-01-4.92347E-02 0.00000E+00
 -1       106 2.83834E-01-5.46931E-02 0.00000E+00
 -1       107 3.06505E-01-6.01145E-02 0.00000E+00
 -1       108 3.06505E-01-6.01145E-02 0.00000E+00
 -1       109 2.83834E-01-5.46931E-02 0.00000E+00
 -1       110 2.61075E-01-4.92347E-02 0.00000E+00
 -1       111 2.38301E-01-4.37747E-02 0.00000E+00
 -1       112 2.15671E-01-3.83946E-02 0.00000E+00
 -1       113 1.93362E-01-3.31834E-02 0.00000E+00
 -1       114 1.71516E-01-2.82059E-02 0.00000E+00
 -1       115 1.50236E-01-2.35036E-02 0.00000E+00
 -1       116 1.29620E-01-1.91122E-02 0.00000E+00
 -1       117 1.09789E-01-1.50743E-02 0.00000E+00
 -1       118 9.09194E-02-1.14425E-02 0.00000E+00
 -1       119 7.32406E-02-8.27792E-03 0.00000E+00
 -1       120 5.70212E-02-5.63838E-03 0.00000E+00
 -1       121 4.25255E-02-3.55610E-03 0.00000E+00
 -1       122 2.99642E-02-2.01892E-03 0.00000E+00
 -1       123 1.94670E-02-9.72740E-04 0.00000E+00
 -1       124 1.11023E-02-3.39754E-04 0.00000E+00
 -1       125 4.95423E-03-3.70472E-05 0.00000E+00
 -1       126 1.07169E-03 2.70936E-05 0.00000E+00
 -3
    1PSTEP                       334          84           1          
  100CL  184 8.40000E-01         126                     1   84           1
 -4  STRESS      6    1
 -5  SXX         1    4    1    1
 -5  SYY         1    4    2    2
 -5  SZZ         1    4    3    3
 -5  SXY         1    4    1    2
 -5  SYZ         1    4    2    3
 -5  SZX         1    4    3    1
 -1         1 1.14921E+04 2.81492E+04 1.11622E+04 6.54942E+03-6.17107E-11-1.08156E-10
 -1         2 1.14921E+04 2.81492E+04 1.11622E+04 6.54942E+03-6.17107E-11-1.08156E-10
 -1         3-1.33408E+02-1.02733E+02-7.08616E+01-2.19637E+01 3.12557E-08-5.60082E-08
 -1         4-1.33408E+02-1.02733E+02-7.08616E+01-2.19637E+01 3.12557E-08-5.60043E-08
 -1         5 2.27975E+01 1.37465E+02 4.80452E+01 6.93428E+01 1.01840E-07-1.14335E-08
 -1         6 2.27975E+01 1.37465E+02 4.80452E+01 6.93428E+01 1.01850E-07-1.14335E-08
 -1         7-1.10704E+04-2.43167E+04-1.12801E+04 4.14813E+03-1.25575E-11-4.95649E-12
 -1         8-1.10704E+04-2.43167E+04-1.12801E+04 4.14813E+03-1.25575E-11-4.96043E-12
 -1         9-6.75458E+01 1.89680E+01-1.45763E+01 1.59557E+01 6.84171E-08-4.09250E-08
 -1        10-6.75458E+01 1.89680E+01-1.45763E+01 1.59557E+01 6.84156E-08-4.09324E-08
 -1        11 2.24031E+02-7.26345E+01 1.78013E+02 3.28122E+03-3.99818E-11-1.93789E-11
 -1        12 2.24031E+02-7.26345E+01 1.78013E+02 3.28122E+03-3.99819E-11-1.93716E-11
 -1        13 4.06060E+03 2.49713E+04 8.16755E+03 2.07391E+03-9.16394E-09-7.68569E-09
 -1        14 5.33089E+03 2.47362E+04 8.46847E+03 2.11941E+03-7.47708E-09-1.70025E-08
 -1        15 5.17711E+03 2.32069E+04 8.01847E+03 2.92734E+03-1.99966E-09-1.57301E-08
 -1        16 5.28641E+03 2.20057E+04 7.72718E+03 3.53017E+03 6.68871E-11 1.72184E-09
 -1        17 5.37709E+03 2.06336E+04 7.38110E+03 4.09007E+03-3.60300E-09 8.02280E-09
 -1        18 5.38868E+03 1.88770E+04 6.90792E+03 4.49033E+03-4.25593E-09 1.08476E-08
 -1        19 5.32705E+03 1.67060E+04 6.30124E+03 4.61014E+03-7.85668E-09 1.26712E-08
 -1        20 5.02269E+03 1.42429E+04 5.54116E+03 4.43750E+03-9.62865E-09-4.69731E-09
 -1        21 4.53207E+03 1.18137E+04 4.72975E+03 4.03312E+03 1.75887E-09-3.07138E-08
 -1        22 3.92426E+03 9.66945E+03 3.95574E+03 3.52885E+03 2.39996E-08-4.58495E-08
 -1        23 3.40405E+03 7.96361E+03 3.32413E+03 3.02327E+03 5.35566E-08-4.36082E-08
 -1        24 2.92386E+03 6.57679E+03 2.78914E+03 2.59818E+03 6.48080E-08 6.17797E-09
 -1        25 2.49312E+03 5.36489E+03 2.31452E+03 2.22810E+03 4.39843E-08 6.86156E-08
 -1        26 2.02565E+03 4.12627E+03 1.81793E+03 1.85559E+03 3.54518E-09 1.18691E-07
 -1        27 1.54371E+03 2.80913E+03 1.29106E+03 1.40360E+03-2.79777E-08 1.28189E-07
 -1        28 9.56459E+02 1.46424E+03 7.20724E+02 8.97841E+02-3.86440E-08 1.13305E-07
 -1        29 3.82458E+02 4.00001E+02 2.33595E+02 4.16919E+02-2.76124E-08 7.28362E-08
 -1        30-3.32601E+01-1.42494E+02-5.28878E+01 9.47797E+01-8.88105E-09 2.63152E-08
 -1        31-1.54757E+02-1.83413E+02-1.01503E+02-1.60330E+01 9.93673E-09-1.56927E-08
 -1        32 4.06060E+03 2.49713E+04 8.16755E+03 2.07391E+03-9.16394E-09-7.68569E-09
 -1        33 5.33089E+03 2.47362E+04 8.46847E+03 2.11941E+03-7.47709E-09-1.70025E-08
 -1        34 5.17711E+03 2.32069E+04 8.01847E+03 2.92734E+03-1.99966E-09-1.57300E-08
 -1        35 5.28641E+03 2.20057E+04 7.72718E+03 3.53017E+03 6.69292E-11 1.72181E-09
 -1        36 5.37709E+03 2.06336E+04 7.38110E+03 4.09007E+03-3.60283E-09 8.02209E-09
 -1        37 5.38868E+03 1.88770E+04 6.90792E+03 4.49033E+03-4.25662E-09 1.08469E-08
 -1        38 5.32705E+03 1.67060E+04 6.30124E+03 4.61014E+03-7.85481E-09 1.26720E-08
 -1        39 5.02269E+03 1.42429E+04 5.54116E+03 4.43750E+03-9.62865E-09-4.69731E-09
 -1        40 4.53207E+03 1.18137E+04 4.72975E+03 4.03312E+03 1.75864E-09-3.07144E-08
 -1        41 3.92426E+03 9.66945E+03 3.95574E+03 3.52885E+03 2.39997E-08-4.58459E-08
 -1        42 3.40405E+03 7.96361E+03 3.32413E+03 3.02327E+03 5.35566E-08-4.36092E-08
 -1        43 2.92386E+03 6.57679E+03 2.78914E+03 2.59818E+03 6.48080E-08 6.18072E-09
 -1        44 2.49312E+03 5.36489E+03 2.31452E+03 2.22810E+03 4.39832E-08 6.86202E-08
 -1        45 2.02565E+03 4.12627E+03 1.81793E+03 1.85559E+03 3.54628E-09 1.18690E-07
 -1        46 1.54371E+03 2.80913E+03 1.29106E+03 1.40360E+03-2.79775E-08 1.28185E-07
 -1        47 9.56459E+02 1.46424E+03 7.20724E+02 8.97841E+02-3.86441E-08 1.13306E-07
 -1        48 3.82458E+02 4.00001E+02 2.33595E+02 4.16919E+02-2.76126E-08 7.28436E-08
 -1        49-3.32601E+01-1.42494E+02-5.28878E+01 9.47797E+01-8.88227E-09 2.63064E-08
 -1        50-1.54757E+02-1.83413E+02-1.01503E+02-1.60330E+01 9.94133E-09-1.57051E-08
 -1        51 3.74350E+01 1.86294E+02 6.69897E+01 1.32326E+02 8.52900E-08 1.41686E-08
 -1        52 6.20740E+01 6.62271E+01 3.82804E+01 1.88456E+02 5.54089E-08 5.73336E-08
 -1        53-8.41049E+01-5.85693E+02-2.01532E+02 6.82799E+01 2.76626E-08 9.12514E-08
 -1        54-4.95313E+02-1.69285E+03-6.59790E+02-2.54080E+02-6.86286E-09 1.18129E-07
 -1        55-1.06039E+03-2.94782E+03-1.21260E+03-6.82292E+02-3.88387E-08 1.24363E-07
 -1        56-1.64005E+03-4.12466E+03-1.74962E+03-1.08878E+03-5.71608E-08 9.30987E-08
 -1        57-2.10197E+03-5.17017E+03-2.21356E+03-1.42564E+03-4.85032E-08 2.94341E-08
 -1        58-2.51364E+03-6.25423E+03-2.67681E+03-1.69894E+03-6.39140E-09-4.13898E-08
 -1        59-2.94308E+03-7.55071E+03-3.21521E+03-1.96404E+03 2.55920E-08-5.35135E-08
 -1        60-3.46568E+03-9.18466E+03-3.89391E+03-2.25635E+03 4.20282E-08-5.15810E-08
 -1        61-4.03356E+03-1.11259E+04-4.69277E+03-2.58178E+03 3.53213E-08-2.17810E-08
 -1        62-4.64550E+03-1.32606E+04-5.57757E+03-2.87587E+03 1.87039E-08 3.32546E-09
 -1        63-5.19694E+03-1.53252E+04-6.42983E+03-3.06157E+03 4.91024E-09 1.36124E-08
 -1        64-5.60858E+03-1.70706E+04-7.13872E+03-3.06519E+03-2.10539E-09 8.68192E-09
 -1        65-5.78752E+03-1.83627E+04-7.62553E+03-2.86065E+03-1.21323E-08 1.04965E-08
 -1        66-5.86317E+03-1.93616E+04-7.98151E+03-2.46021E+03-1.65524E-08-5.59880E-09
 -1        67-5.86265E+03-2.02799E+04-8.28780E+03-1.89151E+03-1.30727E-08-1.17675E-08
 -1        68-6.39788E+03-2.16805E+04-8.93032E+03-1.33630E+03-5.61670E-09-1.16850E-08
 -1        69-4.91331E+03-2.17664E+04-8.50380E+03-6.19372E+01-1.39057E-09-1.77860E-09
 -1        70 3.74350E+01 1.86294E+02 6.69897E+01 1.32326E+02 8.52954E-08 1.41632E-08
 -1        71 6.20740E+01 6.62271E+01 3.82804E+01 1.88456E+02 5.54157E-08 5.73356E-08
 -1        72-8.41049E+01-5.85693E+02-2.01532E+02 6.82799E+01 2.76597E-08 9.12475E-08
 -1        73-4.95313E+02-1.69285E+03-6.59790E+02-2.54080E+02-6.87010E-09 1.18141E-07
 -1        74-1.06039E+03-2.94782E+03-1.21260E+03-6.82292E+02-3.88357E-08 1.24362E-07
 -1        75-1.64005E+03-4.12466E+03-1.74962E+03-1.08878E+03-5.71608E-08 9.30957E-08
 -1        76-2.10197E+03-5.17017E+03-2.21356E+03-1.42564E+03-4.85037E-08 2.94339E-08
 -1        77-2.51364E+03-6.25423E+03-2.67681E+03-1.69894E+03-6.39561E-09-4.13863E-08
 -1        78-2.94308E+03-7.55071E+03-3.21521E+03-1.96404E+03 2.55962E-08-5.35135E-08
 -1        79-3.46568E+03-9.18466E+03-3.89391E+03-2.25635E+03 4.20280E-08-5.15743E-08
 -1        80-4.03356E+03-1.11259E+04-4.69277E+03-2.58178E+03 3.53216E-08-2.17819E-08
 -1        81-4.64550E+03-1.32606E+04-5.57757E+03-2.87587E+03 1.87039E-08 3.33219E-09
 -1        82-5.19694E+03-1.53252E+04-6.42983E+03-3.06157E+03 4.91002E-09 1.36104E-08
 -1        83-5.60858E+03-1.70706E+04-7.13872E+03-3.06519E+03-2.10545E-09 8.68310E-09
 -1        84-5.78752E+03-1.83627E+04-7.62553E+03-2.86065E+03-1.21324E-08 1.04913E-08
 -1        85-5.86317E+03-1.93616E+04-7.98151E+03-2.46021E+03-1.65511E-08-5.59792E-09
 -1        86-5.86265E+03-2.02799E+04-8.28780E+03-1.89151E+03-1.30729E-08-1.17674E-08
 -1        87-6.39788E+03-2.16805E+04-8.93032E+03-1.33630E+03-5.61669E-09-1.16850E-08
 -1        88-4.91331E+03-2.17664E+04-8.50380E+03-6.19372E+01-1.39058E-09-1.77859E-09
 -1        89-2.11038E+02-1.96268E+02-7.75636E+01 1.40312E+02-1.76028E-09-4.98830E-09
 -1        90-2.30147E+02-5.31572E+01-9.25373E+00 4.37866E+02-5.25283E-09-1.60305E-08
 -1        91-1.61916E+02-5.07262E+01-1.42050E+00 3.11271E+02-8.26818E-09-1.54939E-08
 -1        92-1.37495E+02-7.51118E+01-6.36538E+00 2.98156E+02-8.73219E-09-9.65286E-10
 -1        93-7.37993E+01-1.12387E+02-5.37052E+00 3.51725E+02-8.15901E-09 1.15507E-08
 -1        94 1.35027E+01-1.85173E+02-8.51055E+00 4.71799E+02-5.59426E-09 1.00933E-08
 -1        95 1.77130E+02-2.28745E+02 1.96864E+01 5.81731E+02-2.79307E-09 1.38084E-08
 -1        96 2.88544E+02-2.44127E+02 4.04896E+01 6.43522E+02 5.06133E-09-3.37347E-10
 -1        97 3.41628E+02-2.05017E+02 6.09149E+01 6.39156E+02 1.83546E-08-2.70507E-08
 -1        98 3.11974E+02-1.53384E+02 6.16393E+01 5.86172E+02 3.52394E-08-5.42924E-08
 -1        99 2.95631E+02-8.52699E+01 7.29331E+01 4.99128E+02 3.96927E-08-5.66118E-08
 -1       100 2.56454E+02-5.67239E+01 6.65779E+01 4.31126E+02 2.88621E-08-2.18078E-08
 -1       101 2.50578E+02-6.34008E+01 6.03184E+01 4.00578E+02-1.25909E-09 5.16084E-08
 -1       102 2.62895E+02-1.26284E+02 4.30941E+01 4.07213E+02-3.22631E-08 1.08523E-07
 -1       103 3.21809E+02-1.83571E+02 4.21496E+01 4.05365E+02-4.03288E-08 1.29472E-07
 -1       104 3.06618E+02-2.10240E+02 2.88377E+01 3.73067E+02-2.65198E-08 1.16380E-07
 -1       105 2.04977E+02-1.52085E+02 1.56051E+01 2.82241E+02-2.33988E-09 8.32682E-08
 -1       106 3.72687E+01-5.52280E+01-5.56058E+00 1.57388E+02 2.14758E-08 4.38440E-08
 -1       107-6.21683E+01 3.36028E+00-1.76703E+01 5.56725E+01 4.58222E-08 8.33319E-10
 -1       108-6.21683E+01 3.36028E+00-1.76703E+01 5.56725E+01 4.58187E-08 8.57032E-10
 -1       109 3.72687E+01-5.52280E+01-5.56058E+00 1.57388E+02 2.14756E-08 4.38446E-08
 -1       110 2.04977E+02-1.52085E+02 1.56051E+01 2.82241E+02-2.33765E-09 8.32744E-08
 -1       111 3.06618E+02-2.10240E+02 2.88377E+01 3.73067E+02-2.65181E-08 1.16379E-07
 -1       112 3.21809E+02-1.83571E+02 4.21496E+01 4.05365E+02-4.03316E-08 1.29475E-07
 -1       113 2.62895E+02-1.26284E+02 4.30941E+01 4.07213E+02-3.22631E-08 1.08529E-07
 -1       114 2.50578E+02-6.34008E+01 6.03184E+01 4.00578E+02-1.25809E-09 5.16061E-08
 -1       115 2.56454E+02-5.67239E+01 6.65779E+01 4.31126E+02 2.88625E-08-2.18134E-08
 -1       116 2.95631E+02-8.52699E+01 7.29331E+01 4.99128E+02 3.96922E-08-5.66100E-08
 -1       117 3.11974E+02-1.53384E+02 6.16393E+01 5.86172E+02 3.52393E-08-5.42997E-08
 -1       118 3.41628E+02-2.05017E+02 6.09149E+01 6.39156E+02 1.83546E-08-2.70512E-08
 -1       119 2.88544E+02-2.44127E+02 4.04896E+01 6.43522E+02 5.06129E-09-3.38033E-10
 -1       120 1.77130E+02-2.28745E+02 1.96864E+01 5.81731E+02-2.79354E-09 1.38089E-08
 -1       121 1.35027E+01-1.85173E+02-8.51055E+00 4.71799E+02-5.59392E-09 1.00887E-08
 -1       122-7.37993E+01-1.12387E+02-5.37052E+00 3.51725E+02-8.15924E-09 1.15527E-08
 -1       123-1.37495E+02-7.51118E+01-6.36538E+00 2.98156E+02-8.73227E-09-9.65308E-10
 -1       124-1.61916E+02-5.07262E+01-1.42050E+00 3.11271E+02-8.26820E-09-1.54943E-08
 -1       125-2.30147E+02-5.31572E+01-9.25373E+00 4.37866E+02-5.25281E-09-1.60305E-08
 -1       126-2.11038E+02-1.96268E+02-7.75636E+01 1.40312E+02-1.76026E-09-4.98831E-09
 -3
    1PSTEP                       335          84           1          
  100CL  184 8.40000E-01         126                     1   84           1
 -4  TOSTRAIN    6    1
 -5  EXX         1    4    1    1
 -5  EYY         1    4    2    2
 -5  EZZ         1    4    3    3
 -5  EXY         1    4    1    2
 -5  EYZ         1    4    2    3
 -5  EZX         1    4    3    1
 -1         1-2.14383E-04 5.05329E-02-4.11502E-28 1.84573E-02 2.54929E-19-2.78043E-16
 -1         2-2.14383E-04 5.05329E-02-4.11502E-28 1.84573E-02 2.54929E-19-2.78043E-16
 -1         3-1.25322E-04-1.81664E-04 7.39912E-26-8.24391E-05 8.21096E-15-2.08348E-13
 -1         4-1.25322E-04-1.81664E-04 7.39893E-26-8.24391E-05 8.21679E-15-2.08337E-13
 -1         5-1.87662E-04 3.95882E-04 2.11556E-25-1.73262E-05 2.78187E-13-1.82942E-13
 -1         6-1.87662E-04 3.95882E-04 2.11597E-25-1.73262E-05 2.78216E-13-1.82957E-13
 -1         7-2.06655E-04-4.67443E-02-1.26743E-29 1.57691E-02 2.82431E-19-3.06113E-17
 -1         8-2.06655E-04-4.67443E-02-1.26737E-29 1.57691E-02 2.82135E-19-3.06240E-17
 -1         9-1.56492E-04 9.33168E-05 1.20120E-25-8.28384E-05 1.38078E-13-2.19258E-13
 -1        10-1.56492E-04 9.33168E-05 1.20118E-25-8.28384E-05 1.38063E-13-2.19277E-13
 -1        11-2.10519E-04 5.61126E-04-8.11994E-29 1.07168E-02 2.61862E-19-5.31244E-17
 -1        12-2.10519E-04 5.61126E-04-8.12004E-29 1.07168E-02 2.62416E-19-5.31008E-17
 -1        13-1.43963E-02 5.06019E-02 2.11296E-27 3.05366E-03-2.91172E-14-2.31830E-14
 -1        14-1.16085E-02 4.92670E-02 6.78197E-27 5.69793E-04-2.77441E-14-5.20847E-14
 -1        15-1.13218E-02 4.69249E-02 4.55078E-27 7.44978E-04-1.29314E-14-4.92109E-14
 -1        16-1.08056E-02 4.50870E-02-8.44630E-28 6.41647E-04 1.22373E-15 5.42570E-15
 -1        17-1.03644E-02 4.30765E-02 1.42246E-27 8.09736E-04-5.14299E-15 2.77815E-14
 -1        18-9.79154E-03 4.03639E-02 2.85171E-27 1.11234E-03-3.71355E-15 3.73996E-14
 -1        19-8.80938E-03 3.66510E-02 4.10744E-27 1.43173E-03-1.13278E-14 4.67007E-14
 -1        20-7.71166E-03 3.21426E-02-5.44168E-28 1.63195E-03-3.31903E-14-3.79327E-15
 -1        21-6.58503E-03 2.73895E-02 1.62534E-26 1.62082E-03-2.96187E-14-9.45956E-14
 -1        22-5.61336E-03 2.29721E-02 5.37319E-26 1.42046E-03 1.45818E-14-1.66872E-13
 -1        23-4.66979E-03 1.92288E-02 9.32288E-26 1.16527E-03 1.00110E-13-1.99231E-13
 -1        24-3.96325E-03 1.61585E-02 6.58680E-26 9.89056E-04 1.95705E-13-6.95509E-14
 -1        25-3.36306E-03 1.34681E-02 1.11794E-25 9.36483E-04 2.20761E-13 1.39521E-13
 -1        26-2.80063E-03 1.07255E-02 2.81291E-25 9.92149E-04 1.77105E-13 3.40758E-13
 -1        27-2.02398E-03 7.64389E-03 3.60537E-25 1.08185E-03 1.03587E-13 4.12790E-13
 -1        28-1.25623E-03 4.38875E-03 2.98876E-25 1.05389E-03 5.37818E-14 3.85042E-13
 -1        29-6.02099E-04 1.61622E-03 1.18184E-25 7.70998E-04 2.72575E-14 2.51650E-13
 -1        30-2.59368E-04 3.03762E-05 3.86503E-27 3.24348E-04 1.30502E-14 8.93359E-14
 -1        31-1.50378E-04-2.89304E-04-5.57868E-27 6.97564E-06 5.70688E-15-6.01197E-14
 -1        32-1.43963E-02 5.06019E-02 2.11296E-27 3.05366E-03-2.91172E-14-2.31830E-14
 -1        33-1.16085E-02 4.92670E-02 6.78197E-27 5.69793E-04-2.77442E-14-5.20847E-14
 -1        34-1.13218E-02 4.69249E-02 4.55072E-27 7.44978E-04-1.29313E-14-4.92105E-14
 -1        35-1.08056E-02 4.50870E-02-8.44626E-28 6.41647E-04 1.22385E-15 5.42558E-15
 -1        36-1.03644E-02 4.30765E-02 1.42208E-27 8.09736E-04-5.14303E-15 2.77791E-14
 -1        37-9.79154E-03 4.03639E-02 2.85147E-27 1.11234E-03-3.71632E-15 3.73981E-14
 -1        38-8.80938E-03 3.66510E-02 4.10731E-27 1.43173E-03-1.13216E-14 4.67012E-14
 -1        39-7.71166E-03 3.21426E-02-5.44168E-28 1.63195E-03-3.31903E-14-3.79327E-15
 -1        40-6.58503E-03 2.73895E-02 1.62545E-26 1.62082E-03-2.96200E-14-9.45969E-14
 -1        41-5.61336E-03 2.29721E-02 5.37247E-26 1.42046E-03 1.45864E-14-1.66861E-13
 -1        42-4.66979E-03 1.92288E-02 9.32298E-26 1.16527E-03 1.00109E-13-1.99234E-13
 -1        43-3.96325E-03 1.61585E-02 6.58643E-26 9.89056E-04 1.95709E-13-6.95427E-14
 -1        44-3.36306E-03 1.34681E-02 1.11807E-25 9.36483E-04 2.20764E-13 1.39536E-13
 -1        45-2.80063E-03 1.07255E-02 2.81288E-25 9.92149E-04 1.77106E-13 3.40753E-13
 -1        46-2.02398E-03 7.64389E-03 3.60517E-25 1.08185E-03 1.03582E-13 4.12779E-13
 -1        47-1.25623E-03 4.38875E-03 2.98881E-25 1.05389E-03 5.37831E-14 3.85045E-13
 -1        48-6.02099E-04 1.61622E-03 1.18197E-25 7.70998E-04 2.72677E-14 2.51672E-13
 -1        49-2.59368E-04 3.03762E-05 3.83379E-27 3.24348E-04 1.30338E-14 8.93123E-14
 -1        50-1.50378E-04-2.89304E-04-5.57614E-27 6.97564E-06 5.70191E-15-6.01626E-14
 -1        51-3.44518E-04 6.34905E-04 1.45097E-25 5.80530E-05 2.67787E-13-8.45271E-14
 -1        52-4.16328E-04 5.82282E-04 1.21036E-25 3.55085E-04 2.44829E-13 8.42801E-14
 -1        53-1.35240E-04-7.36702E-04 1.81823E-25 7.92016E-04 2.14829E-13 2.23377E-13
 -1        54 3.99783E-04-3.25135E-03 2.89311E-25 1.08684E-03 1.54087E-13 3.52694E-13
 -1        55 1.02650E-03-6.25966E-03 3.54579E-25 1.13377E-03 6.81322E-14 4.18511E-13
 -1        56 1.56231E-03-9.10152E-03 2.40198E-25 1.03074E-03-3.45871E-14 3.54222E-13
 -1        57 2.07848E-03-1.16036E-02 4.03598E-26 9.58622E-04-1.03078E-13 1.54576E-13
 -1        58 2.54885E-03-1.40504E-02 1.78435E-26 1.02768E-03-7.63262E-14-1.13844E-13
 -1        59 3.08971E-03-1.68804E-02 7.13293E-26 1.22600E-03 6.60786E-15-1.93410E-13
 -1        60 3.74277E-03-2.04067E-02 9.23560E-26 1.46939E-03 6.38661E-14-2.08222E-13
 -1        61 4.62559E-03-2.46554E-02 3.37690E-26 1.65639E-03 8.45438E-14-1.08241E-13
 -1        62 5.55793E-03-2.92950E-02 5.78051E-27 1.68830E-03 6.36029E-14-1.04139E-14
 -1        63 6.42633E-03-3.37145E-02 3.71452E-27 1.50794E-03 2.99781E-14 3.74649E-14
 -1        64 7.07568E-03-3.73020E-02 1.27241E-27 1.16708E-03 9.22856E-16 2.92151E-14
 -1        65 7.57358E-03-3.98103E-02 5.03384E-27 8.39249E-04-3.24878E-14 4.25528E-14
 -1        66 7.86520E-03-4.15670E-02 6.88860E-27 6.82194E-04-5.98553E-14-7.77202E-15
 -1        67 8.22491E-03-4.31860E-02 7.19963E-27 8.32145E-04-5.06804E-14-3.19506E-14
 -1        68 8.08943E-03-4.56704E-02 3.36031E-27 6.29230E-04-2.33284E-14-3.63177E-14
 -1        69 1.11354E-02-4.70248E-02-1.46017E-28 2.72782E-03-4.99701E-15-5.57603E-15
 -1        70-3.44518E-04 6.34905E-04 1.45113E-25 5.80530E-05 2.67795E-13-8.45507E-14
 -1        71-4.16328E-04 5.82282E-04 1.21054E-25 3.55085E-04 2.44852E-13 8.42758E-14
 -1        72-1.35240E-04-7.36702E-04 1.81808E-25 7.92016E-04 2.14815E-13 2.23371E-13
 -1        73 3.99783E-04-3.25135E-03 2.89378E-25 1.08684E-03 1.54084E-13 3.52741E-13
 -1        74 1.02650E-03-6.25966E-03 3.54570E-25 1.13377E-03 6.81390E-14 4.18503E-13
 -1        75 1.56231E-03-9.10152E-03 2.40186E-25 1.03074E-03-3.45916E-14 3.54213E-13
 -1        76 2.07848E-03-1.16036E-02 4.03638E-26 9.58622E-04-1.03080E-13 1.54576E-13
 -1        77 2.54885E-03-1.40504E-02 1.78384E-26 1.02768E-03-7.63341E-14-1.13828E-13
 -1        78 3.08971E-03-1.68804E-02 7.13329E-26 1.22600E-03 6.62049E-15-1.93416E-13
 -1        79 3.74277E-03-2.04067E-02 9.23428E-26 1.46939E-03 6.38740E-14-2.08201E-13
 -1        80 4.62559E-03-2.46554E-02 3.37718E-26 1.65639E-03 8.45434E-14-1.08244E-13
 -1        81 5.55793E-03-2.92950E-02 5.78214E-27 1.68830E-03 6.36102E-14-1.03931E-14
 -1        82 6.42633E-03-3.37145E-02 3.71390E-27 1.50794E-03 2.99752E-14 3.74589E-14
 -1        83 7.07568E-03-3.73020E-02 1.27292E-27 1.16708E-03 9.23678E-16 2.92188E-14
 -1        84 7.57358E-03-3.98103E-02 5.03217E-27 8.39249E-04-3.24921E-14 4.25365E-14
 -1        85 7.86520E-03-4.15670E-02 6.88795E-27 6.82194E-04-5.98504E-14-7.77000E-15
 -1        86 8.22491E-03-4.31860E-02 7.19973E-27 8.32145E-04-5.06810E-14-3.19502E-14
 -1        87 8.08943E-03-4.56704E-02 3.36031E-27 6.29230E-04-2.33284E-14-3.63177E-14
 -1        88 1.11354E-02-4.70248E-02-1.46017E-28 2.72782E-03-4.99703E-15-5.57601E-15
 -1        89-1.63045E-03 1.04672E-03 2.16053E-28 4.45772E-04-6.42742E-15-1.59649E-14
 -1        90-1.75954E-03 1.44035E-03 5.71753E-27 1.34016E-03-2.19210E-14-5.02264E-14
 -1        91-1.54844E-03 1.30008E-03 5.94310E-27 9.16585E-04-3.37157E-14-4.60153E-14
 -1        92-1.47020E-03 1.21742E-03 6.14369E-28 8.62903E-04-2.84015E-14 2.29145E-15
 -1        93-1.39540E-03 1.16667E-03 3.85857E-27 1.04991E-03-1.71956E-14 4.26562E-14
 -1        94-1.35793E-03 1.14085E-03 2.76939E-27 1.47687E-03-8.76487E-15 3.65448E-14
 -1        95-1.19153E-03 1.12813E-03 3.55401E-27 1.91865E-03 4.87958E-15 4.55538E-14
 -1        96-1.07687E-03 1.13835E-03-2.28277E-27 2.16276E-03 1.51117E-14-6.59392E-15
 -1        97-9.79723E-04 1.16153E-03 1.82420E-26 2.12762E-03 2.39040E-14-1.03681E-13
 -1        98-9.35295E-04 1.14534E-03 8.68806E-26 1.87611E-03 3.82268E-14-2.07115E-13
 -1        99-7.90040E-04 1.06652E-03 9.86401E-26 1.55099E-03 4.43590E-14-2.20556E-13
 -1       100-7.07200E-04 9.68103E-04 8.44246E-27 1.29811E-03 5.57847E-14-1.03657E-13
 -1       101-6.42291E-04 8.84700E-04 2.91655E-26 1.21624E-03 6.81471E-14 1.53187E-13
 -1       102-6.19159E-04 7.93968E-04 2.59154E-25 1.31028E-03 6.05245E-14 3.62953E-13
 -1       103-4.98740E-04 6.75217E-04 3.86934E-25 1.44614E-03 7.05559E-14 4.34995E-13
 -1       104-4.28222E-04 5.50989E-04 2.96173E-25 1.39334E-03 9.37316E-14 3.76300E-13
 -1       105-3.68670E-04 4.35886E-04 1.36579E-25 1.00815E-03 1.15846E-13 2.44512E-13
 -1       106-3.37848E-04 3.13720E-04 3.77539E-26 4.22343E-04 1.26779E-13 9.52834E-14
 -1       107-2.47448E-04 1.70856E-04 3.03650E-26 2.06910E-05 1.33990E-13-6.50489E-14
 -1       108-2.47448E-04 1.70856E-04 3.03532E-26 2.06910E-05 1.34014E-13-6.49750E-14
 -1       109-3.37848E-04 3.13720E-04 3.77497E-26 4.22343E-04 1.26779E-13 9.52856E-14
 -1       110-3.68670E-04 4.35886E-04 1.36599E-25 1.00815E-03 1.15862E-13 2.44527E-13
 -1       111-4.28222E-04 5.50989E-04 2.96168E-25 1.39334E-03 9.37356E-14 3.76296E-13
 -1       112-4.98740E-04 6.75217E-04 3.86955E-25 1.44614E-03 7.05521E-14 4.35008E-13
 -1       113-6.19159E-04 7.93968E-04 2.59177E-25 1.31028E-03 6.05326E-14 3.62970E-13
 -1       114-6.42291E-04 8.84700E-04 2.91579E-26 1.21624E-03 6.81468E-14 1.53179E-13
 -1       115-7.07200E-04 9.68103E-04 8.45008E-27 1.29811E-03 5.57785E-14-1.03674E-13
 -1       116-7.90040E-04 1.06652E-03 9.86379E-26 1.55099E-03 4.43601E-14-2.20550E-13
 -1       117-9.35295E-04 1.14534E-03 8.68956E-26 1.87611E-03 3.82177E-14-2.07137E-13
 -1       118-9.79723E-04 1.16153E-03 1.82408E-26 2.12762E-03 2.39035E-14-1.03682E-13
 -1       119-1.07687E-03 1.13835E-03-2.28317E-27 2.16276E-03 1.51109E-14-6.59600E-15
 -1       120-1.19153E-03 1.12813E-03 3.55429E-27 1.91865E-03 4.87866E-15 4.55558E-14
 -1       121-1.35793E-03 1.14085E-03 2.76731E-27 1.47687E-03-8.76763E-15 3.65302E-14
 -1       122-1.39540E-03 1.16667E-03 3.85946E-27 1.04991E-03-1.71947E-14 4.26628E-14
 -1       123-1.47020E-03 1.21742E-03 6.14351E-28 8.62903E-04-2.84018E-14 2.29144E-15
 -1       124-1.54844E-03 1.30008E-03 5.94328E-27 9.16585E-04-3.37159E-14-4.60165E-14
 -1       125-1.75954E-03 1.44035E-03 5.71752E-27 1.34016E-03-2.19210E-14-5.02265E-14
 -1       126-1.63045E-03 1.04672E-03 2.16054E-28 4.45772E-04-6.42738E-15-1.59650E-14
 -3
    1PSTEP                       336          84           1          
  100CL  184 8.40000E-01         126                     1   84           1
 -4  ERROR       1    1
 -5  STR(%)      1    1    0    0
 -1         1 6.15735E+01
 -1         2 6.15735E+01
 -1         3 3.61737E+01
 -1         4 3.61737E+01
 -1         5 5.21339E+01
 -1         6 5.21339E+01
 -1         7 6.02430E+01
 -1         8 6.02430E+01
 -1         9 5.21339E+01
 -1        10 5.21339E+01
 -1        11 6.15735E+01
 -1        12 6.15735E+01
 -1        13 6.15735E+01
 -1        14 5.98105E+01
 -1        15 5.96950E+01
 -1        16 5.96470E+01
 -1        17 5.99352E+01
 -1        18 6.00962E+01
 -1        19 6.01460E+01
 -1        20 6.01460E+01
 -1        21 5.98341E+01
 -1        22 5.93437E+01
 -1        23 5.86660E+01
 -1        24 5.83014E+01
 -1        25 5.79658E+01
 -1        26 5.77033E+01
 -1        27 5.63610E+01
 -1        28 5.18682E+01
 -1        29 3.71654E+01
 -1        30 3.81411E+01
 -1        31 3.81411E+01
 -1        32 6.15735E+01
 -1        33 5.98105E+01
 -1        34 5.96950E+01
 -1        35 5.96470E+01
 -1        36 5.99352E+01
 -1        37 6.00962E+01
 -1        38 6.01460E+01
 -1        39 6.01460E+01
 -1        40 5.98341E+01
 -1        41 5.93437E+01
 -1        42 5.86660E+01
 -1        43 5.83014E+01
 -1        44 5.79658E+01
 -1        45 5.77033E+01
 -1        46 5.63610E+01
 -1        47 5.18682E+01
 -1        48 3.71654E+01
 -1        49 3.81411E+01
 -1        50 3.81411E+01
 -1        51 5.21339E+01
 -1        52 4.77383E+01
 -1        53 4.29627E+01
 -1        54 6.20271E+01
 -1        55 6.78142E+01
 -1        56 6.78142E+01
 -1        57 6.76676E+01
 -1        58 6.69135E+01
 -1        59 6.64428E+01
 -1        60 6.60478E+01
 -1        61 6.52500E+01
 -1        62 6.43063E+01
 -1        63 6.32859E+01
 -1        64 6.23459E+01
 -1        65 6.14958E+01
 -1        66 6.10650E+01
 -1        67 6.12733E+01
 -1        68 6.16771E+01
 -1        69 6.16771E+01
 -1        70 5.21339E+01
 -1        71 4.77383E+01
 -1        72 4.29627E+01
 -1        73 6.20271E+01
 -1        74 6.78142E+01
 -1        75 6.78142E+01
 -1        76 6.76676E+01
 -1        77 6.69135E+01
 -1        78 6.64428E+01
 -1        79 6.60478E+01
 -1        80 6.52500E+01
 -1        81 6.43063E+01
 -1        82 6.32859E+01
 -1        83 6.23459E+01
 -1        84 6.14958E+01
 -1        85 6.10650E+01
 -1        86 6.12733E+01
 -1        87 6.16771E+01
 -1        88 6.16771E+01
 -1        89 6.16771E+01
 -1        90 6.16771E+01
 -1        91 6.12733E+01
 -1        92 6.10650E+01
 -1        93 6.14958E+01
 -1        94 6.23459E+01
 -1        95 6.32859E+01
 -1        96 6.43063E+01
 -1        97 6.52500E+01
 -1        98 6.60478E+01
 -1        99 6.64428E+01
 -1       100 6.69135E+01
 -1       101 6.76676E+01
 -1       102 6.78142E+01
 -1       103 6.78142E+01
 -1       104 6.20271E+01
 -1       105 4.29627E+01
 -1       106 4.77383E+01
 -1       107 5.21339E+01
 -1       108 5.21339E+01
 -1       109 4.77383E+01
 -1       110 4.29627E+01
 -1       111 6.20271E+01
 -1       112 6.78142E+01
 -1       113 6.78142E+01
 -1       114 6.76676E+01
 -1       115 6.69135E+01
 -1       116 6.64428E+01
 -1       117 6.60478E+01
 -1       118 6.52500E+01
 -1       119 6.43063E+01
 -1       120 6.32859E+01
 -1       121 6.23459E+01
 -1       122 6.14958E+01
 -1       123 6.10650E+01
 -1       124 6.12733E+01
 -1       125 6.16771E+01
 -1       126 6.16771E+01
 -3
    1PSTEP                       337          85           1          
  100CL  185 8.50000E-01         126                     1   85           1
 -4  DISP        4    1
 -5  D1          1    2    1    0
 -5  D2          1    2    2    0
 -5  D3          1    2    3    0
 -5  ALL         1    2    0    0    1ALL
 -1         1 0.00000E+00 0.00000E+00 0.00000E+00
 -1         2 0.00000E+00 0.00000E+00 0.00000E+00
 -1         3 3.38300E-01-4.42941E-02 0.00000E+00
 -1         4 3.38300E-01-4.42941E-02 0.00000E+00
 -1         5 3.27390E-01-8.96820E-02 0.00000E+00
 -1         6 3.27390E-01-8.96820E-02 0.00000E+00
 -1         7 0.00000E+00 0.00000E+00 0.00000E+00
 -1         8 0.00000E+00 0.00000E+00 0.00000E+00
 -1         9 3.32845E-01-6.69870E-02 0.00000E+00
 -1        10 3.32845E-01-6.69870E-02 0.00000E+00
 -1        11 0.00000E+00 0.00000E+00 0.00000E+00
 -1        12 0.00000E+00 0.00000E+00 0.00000E+00
 -1        13 1.93399E-03 2.50484E-03 0.00000E+00
 -1        14 6.01354E-03 4.87627E-03 0.00000E+00
 -1        15 1.26524E-02 6.83614E-03 0.00000E+00
 -1        16 2.16436E-02 8.33343E-03 0.00000E+00
 -1        17 3.28670E-02 9.27503E-03 0.00000E+00
 -1        18 4.61756E-02 9.57745E-03 0.00000E+00
 -1        19 6.13788E-02 9.16920E-03 0.00000E+00
 -1        20 7.82531E-02 8.00338E-03 0.00000E+00
 -1        21 9.65155E-02 6.09760E-03 0.00000E+00
 -1        22 1.15907E-01 3.52887E-03 0.00000E+00
 -1        23 1.36240E-01 3.90431E-04 0.00000E+00
 -1        24 1.57422E-01-3.27421E-03 0.00000E+00
 -1        25 1.79332E-01-7.45258E-03 0.00000E+00
 -1        26 2.01779E-01-1.21151E-02 0.00000E+00
 -1        27 2.24521E-01-1.71685E-02 0.00000E+00
 -1        28 2.47359E-01-2.24827E-02 0.00000E+00
 -1        29 2.70168E-01-2.79224E-02 0.00000E+00
 -1        30 2.92914E-01-3.33932E-02 0.00000E+00
 -1        31 3.15611E-01-3.88500E-02 0.00000E+00
 -1        32 1.93399E-03 2.50484E-03 0.00000E+00
 -1        33 6.01354E-03 4.87627E-03 0.00000E+00
 -1        34 1.26524E-02 6.83614E-03 0.00000E+00
 -1        35 2.16436E-02 8.33343E-03 0.00000E+00
 -1        36 3.28670E-02 9.27503E-03 0.00000E+00
 -1        37 4.61756E-02 9.57745E-03 0.00000E+00
 -1        38 6.13788E-02 9.16920E-03 0.00000E+00
 -1        39 7.82531E-02 8.00338E-03 0.00000E+00
 -1        40 9.65155E-02 6.09760E-03 0.00000E+00
 -1        41 1.15907E-01 3.52887E-03 0.00000E+00
 -1        42 1.36240E-01 3.90431E-04 0.00000E+00
 -1        43 1.57422E-01-3.27421E-03 0.00000E+00
 -1        44 1.79332E-01-7.45258E-03 0.00000E+00
 -1        45 2.01779E-01-1.21151E-02 0.00000E+00
 -1        46 2.24521E-01-1.71685E-02 0.00000E+00
 -1        47 2.47359E-01-2.24827E-02 0.00000E+00
 -1        48 2.70168E-01-2.79224E-02 0.00000E+00
 -1        49 2.92914E-01-3.33932E-02 0.00000E+00
 -1        50 3.15611E-01-3.88500E-02 0.00000E+00
 -1        51 3.04689E-01-8.42418E-02 0.00000E+00
 -1        52 2.81969E-01-7.88123E-02 0.00000E+00
 -1        53 2.59209E-01-7.33647E-02 0.00000E+00
 -1        54 2.36429E-01-6.78563E-02 0.00000E+00
 -1        55 2.13726E-01-6.22613E-02 0.00000E+00
 -1        56 1.91277E-01-5.65965E-02 0.00000E+00
 -1        57 1.69312E-01-5.09406E-02 0.00000E+00
 -1        58 1.48037E-01-4.54068E-02 0.00000E+00
 -1        59 1.27593E-01-4.00979E-02 0.00000E+00
 -1        60 1.08065E-01-3.50584E-02 0.00000E+00
 -1        61 8.95643E-02-3.02847E-02 0.00000E+00
 -1        62 7.22734E-02-2.57670E-02 0.00000E+00
 -1        63 5.64367E-02-2.15309E-02 0.00000E+00
 -1        64 4.22806E-02-1.76202E-02 0.00000E+00
 -1        65 2.99820E-02-1.40624E-02 0.00000E+00
 -1        66 1.96611E-02-1.08442E-02 0.00000E+00
 -1        67 1.14293E-02-7.91662E-03 0.00000E+00
 -1        68 5.36079E-03-5.20065E-03 0.00000E+00
 -1        69 1.67864E-03-2.53908E-03 0.00000E+00
 -1        70 3.04689E-01-8.42418E-02 0.00000E+00
 -1        71 2.81969E-01-7.88123E-02 0.00000E+00
 -1        72 2.59209E-01-7.33647E-02 0.00000E+00
 -1        73 2.36429E-01-6.78563E-02 0.00000E+00
 -1        74 2.13726E-01-6.22613E-02 0.00000E+00
 -1        75 1.91277E-01-5.65965E-02 0.00000E+00
 -1        76 1.69312E-01-5.09406E-02 0.00000E+00
 -1        77 1.48037E-01-4.54068E-02 0.00000E+00
 -1        78 1.27593E-01-4.00979E-02 0.00000E+00
 -1        79 1.08065E-01-3.50584E-02 0.00000E+00
 -1        80 8.95643E-02-3.02847E-02 0.00000E+00
 -1        81 7.22734E-02-2.57670E-02 0.00000E+00
 -1        82 5.64367E-02-2.15309E-02 0.00000E+00
 -1        83 4.22806E-02-1.76202E-02 0.00000E+00
 -1        84 2.99820E-02-1.40624E-02 0.00000E+00
 -1        85 1.96611E-02-1.08442E-02 0.00000E+00
 -1        86 1.14293E-02-7.91662E-03 0.00000E+00
 -1        87 5.36079E-03-5.20065E-03 0.00000E+00
 -1        88 1.67864E-03-2.53908E-03 0.00000E+00
 -1        89 1.14395E-03-2.51150E-06 0.00000E+00
 -1        90 5.18300E-03-1.07849E-04 0.00000E+00
 -1        91 1.15464E-02-4.61582E-04 0.00000E+00
 -1        92 2.01895E-02-1.16096E-03 0.00000E+00
 -1        93 3.09909E-02-2.28580E-03 0.00000E+00
 -1        94 4.38296E-02-3.90315E-03 0.00000E+00
 -1        95 5.85539E-02-6.05955E-03 0.00000E+00
 -1        96 7.49587E-02-8.76607E-03 0.00000E+00
 -1        97 9.27825E-02-1.19883E-02 0.00000E+00
 -1        98 1.11766E-01-1.56687E-02 0.00000E+00
 -1        99 1.31727E-01-1.97655E-02 0.00000E+00
 -1       100 1.52568E-01-2.42616E-02 0.00000E+00
 -1       101 1.74195E-01-2.91320E-02 0.00000E+00
 -1       102 1.96442E-01-3.43097E-02 0.00000E+00
 -1       103 2.19078E-01-3.96887E-02 0.00000E+00
 -1       104 2.41877E-01-4.51592E-02 0.00000E+00
 -1       105 2.64688E-01-5.06419E-02 0.00000E+00
 -1       106 2.87445E-01-5.61030E-02 0.00000E+00
 -1       107 3.10152E-01-6.15451E-02 0.00000E+00
 -1       108 3.10152E-01-6.15451E-02 0.00000E+00
 -1       109 2.87445E-01-5.61030E-02 0.00000E+00
 -1       110 2.64688E-01-5.06419E-02 0.00000E+00
 -1       111 2.41877E-01-4.51592E-02 0.00000E+00
 -1       112 2.19078E-01-3.96887E-02 0.00000E+00
 -1       113 1.96442E-01-3.43097E-02 0.00000E+00
 -1       114 1.74195E-01-2.91320E-02 0.00000E+00
 -1       115 1.52568E-01-2.42616E-02 0.00000E+00
 -1       116 1.31727E-01-1.97655E-02 0.00000E+00
 -1       117 1.11766E-01-1.56687E-02 0.00000E+00
 -1       118 9.27825E-02-1.19883E-02 0.00000E+00
 -1       119 7.49587E-02-8.76607E-03 0.00000E+00
 -1       120 5.85539E-02-6.05955E-03 0.00000E+00
 -1       121 4.38296E-02-3.90315E-03 0.00000E+00
 -1       122 3.09909E-02-2.28580E-03 0.00000E+00
 -1       123 2.01895E-02-1.16096E-03 0.00000E+00
 -1       124 1.15464E-02-4.61582E-04 0.00000E+00
 -1       125 5.18300E-03-1.07849E-04 0.00000E+00
 -1       126 1.14395E-03-2.51150E-06 0.00000E+00
 -3
    1PSTEP                       338          85           1          
  100CL  185 8.50000E-01         126                     1   85           1
 -4  STRESS      6    1
 -5  SXX         1    4    1    1
 -5  SYY         1    4    2    2
 -5  SZZ         1    4    3    3
 -5  SXY         1    4    1    2
 -5  SYZ         1    4    2    3
 -5  SZX         1    4    3    1
 -1         1 1.18124E+04 2.89069E+04 1.14458E+04 6.88873E+03 2.42861E-10 2.36033E-10
 -1         2 1.18124E+04 2.89069E+04 1.14458E+04 6.88873E+03 2.42861E-10 2.36033E-10
 -1         3-9.52684E+01-2.35026E+01-3.56414E+01 4.40695E+00 4.60215E-09 1.09083E-07
 -1         4-9.52684E+01-2.35026E+01-3.56414E+01 4.40695E+00 4.60240E-09 1.09069E-07
 -1         5-2.22724E+01 4.68858E+01 7.37557E+00 3.68996E+01-1.95507E-08 1.02873E-07
 -1         6-2.22724E+01 4.68858E+01 7.37557E+00 3.68996E+01-1.95517E-08 1.02877E-07
 -1         7-1.16510E+04-2.55106E+04-1.18913E+04 4.37549E+03 3.39201E-10-2.91080E-10
 -1         8-1.16510E+04-2.55106E+04-1.18913E+04 4.37549E+03 3.39208E-10-2.91080E-10
 -1         9-6.74948E+01 9.53296E+00-1.73955E+01 1.55725E+01-4.64683E-09 1.08852E-07
 -1        10-6.74948E+01 9.53296E+00-1.73955E+01 1.55725E+01-4.64716E-09 1.08879E-07
 -1        11 1.07410E+02-4.13112E+02 4.89198E+01 3.49734E+03 2.86973E-10-2.40697E-11
 -1        12 1.07410E+02-4.13112E+02 4.89198E+01 3.49734E+03 2.86959E-10-2.40695E-11
 -1        13 4.22367E+03 2.55739E+04 8.37457E+03 2.22274E+03 7.41452E-09 3.04615E-08
 -1        14 5.51499E+03 2.51872E+04 8.64127E+03 2.26363E+03-1.40383E-08 5.19010E-08
 -1        15 5.32482E+03 2.34662E+04 8.12929E+03 3.09997E+03-4.27231E-08 1.74030E-08
 -1        16 5.40180E+03 2.20158E+04 7.76252E+03 3.70046E+03-4.27074E-08-5.36985E-08
 -1        17 5.43225E+03 2.03819E+04 7.32998E+03 4.19561E+03-1.46439E-08-1.07195E-07
 -1        18 5.37424E+03 1.84836E+04 6.79865E+03 4.50703E+03 1.15325E-08-1.17309E-07
 -1        19 5.26903E+03 1.63100E+04 6.17769E+03 4.56829E+03 2.43664E-08-1.07820E-07
 -1        20 4.95718E+03 1.39436E+04 5.44106E+03 4.37304E+03 2.87501E-08-9.62160E-08
 -1        21 4.49751E+03 1.17346E+04 4.69926E+03 3.98270E+03 3.39867E-08-8.92901E-08
 -1        22 3.97859E+03 9.93601E+03 4.04746E+03 3.55940E+03 4.70376E-08-7.61740E-08
 -1        23 3.59765E+03 8.52059E+03 3.53792E+03 3.19152E+03 5.97056E-08-4.32123E-08
 -1        24 3.21233E+03 7.08333E+03 3.01635E+03 2.85328E+03 6.21623E-08 2.55917E-09
 -1        25 2.70565E+03 5.40031E+03 2.38505E+03 2.39937E+03 3.56183E-08 7.63844E-08
 -1        26 1.98267E+03 3.55327E+03 1.63727E+03 1.79001E+03-2.06143E-09 1.31087E-07
 -1        27 1.23046E+03 1.91328E+03 9.34599E+02 1.11326E+03-2.56995E-08 1.33420E-07
 -1        28 5.52260E+02 7.17016E+02 3.78823E+02 5.53225E+02-2.61875E-08 1.12178E-07
 -1        29 1.01930E+02 8.00041E+01 5.43274E+01 1.94991E+02-1.11938E-08 8.87562E-08
 -1        30-1.19597E+02-1.20805E+02-7.21673E+01 3.97558E+01 3.71156E-09 8.95016E-08
 -1        31-1.33410E+02-8.10945E+01-6.43707E+01 6.34359E+00 7.45475E-09 9.98436E-08
 -1        32 4.22367E+03 2.55739E+04 8.37457E+03 2.22274E+03 7.41452E-09 3.04615E-08
 -1        33 5.51499E+03 2.51872E+04 8.64127E+03 2.26363E+03-1.40383E-08 5.19010E-08
 -1        34 5.32482E+03 2.34662E+04 8.12929E+03 3.09997E+03-4.27231E-08 1.74031E-08
 -1        35 5.40180E+03 2.20158E+04 7.76252E+03 3.70046E+03-4.27073E-08-5.36990E-08
 -1        36 5.43225E+03 2.03819E+04 7.32998E+03 4.19561E+03-1.46440E-08-1.07195E-07
 -1        37 5.37424E+03 1.84836E+04 6.79865E+03 4.50703E+03 1.15324E-08-1.17309E-07
 -1        38 5.26903E+03 1.63100E+04 6.17769E+03 4.56829E+03 2.43657E-08-1.07819E-07
 -1        39 4.95718E+03 1.39436E+04 5.44106E+03 4.37304E+03 2.87501E-08-9.62161E-08
 -1        40 4.49751E+03 1.17346E+04 4.69926E+03 3.98270E+03 3.39867E-08-8.92896E-08
 -1        41 3.97859E+03 9.93601E+03 4.04746E+03 3.55940E+03 4.70375E-08-7.61741E-08
 -1        42 3.59765E+03 8.52059E+03 3.53792E+03 3.19152E+03 5.97056E-08-4.32123E-08
 -1        43 3.21233E+03 7.08333E+03 3.01635E+03 2.85328E+03 6.21627E-08 2.55918E-09
 -1        44 2.70565E+03 5.40031E+03 2.38505E+03 2.39937E+03 3.56179E-08 7.63835E-08
 -1        45 1.98267E+03 3.55327E+03 1.63727E+03 1.79001E+03-2.06055E-09 1.31088E-07
 -1        46 1.23046E+03 1.91328E+03 9.34599E+02 1.11326E+03-2.56993E-08 1.33420E-07
 -1        47 5.52260E+02 7.17016E+02 3.78823E+02 5.53225E+02-2.61876E-08 1.12180E-07
 -1        48 1.01930E+02 8.00041E+01 5.43274E+01 1.94991E+02-1.11955E-08 8.87488E-08
 -1        49-1.19597E+02-1.20805E+02-7.21673E+01 3.97558E+01 3.71295E-09 8.95035E-08
 -1        50-1.33410E+02-8.10945E+01-6.43707E+01 6.34359E+00 7.45084E-09 9.98318E-08
 -1        51-2.29829E+01 9.53845E+01 2.16743E+01 7.72634E+01-1.00645E-08 9.07010E-08
 -1        52 1.46292E+01 1.32468E+02 4.40246E+01 1.36026E+02 1.95756E-09 8.34628E-08
 -1        53 7.55629E-01-1.28162E+02-3.83702E+01 1.29782E+02 4.56580E-09 8.85757E-08
 -1        54-2.06711E+02-8.94270E+02-3.31286E+02-2.26632E+01-1.23055E-08 1.12445E-07
 -1        55-6.67872E+02-2.19049E+03-8.62990E+02-3.73704E+02-3.98201E-08 1.21017E-07
 -1        56-1.36500E+03-3.83499E+03-1.57730E+03-8.84918E+02-5.86454E-08 8.73350E-08
 -1        57-2.10283E+03-5.46564E+03-2.30678E+03-1.44423E+03-5.70007E-08 2.42126E-08
 -1        58-2.75157E+03-6.85853E+03-2.94072E+03-1.89916E+03-3.35711E-08-3.54453E-08
 -1        59-3.22991E+03-8.05028E+03-3.46247E+03-2.19894E+03 1.02303E-09-8.43743E-08
 -1        60-3.63939E+03-9.35828E+03-4.00314E+03-2.40550E+03 2.05886E-08-9.36089E-08
 -1        61-4.06492E+03-1.10180E+04-4.66743E+03-2.62826E+03 2.46112E-08-9.67766E-08
 -1        62-4.59592E+03-1.30128E+04-5.48107E+03-2.87012E+03 2.28713E-08-1.05973E-07
 -1        63-5.12509E+03-1.50402E+04-6.31318E+03-3.04896E+03 2.54280E-08-1.19995E-07
 -1        64-5.54971E+03-1.68484E+04-7.04612E+03-3.06413E+03 3.37194E-08-1.16585E-07
 -1        65-5.77758E+03-1.83484E+04-7.61884E+03-2.88503E+03 5.09488E-08-9.74921E-08
 -1        66-5.93357E+03-1.96602E+04-8.10851E+03-2.52427E+03 4.80291E-08-3.19749E-08
 -1        67-6.00218E+03-2.08577E+04-8.53432E+03-1.98534E+03 2.32834E-08 2.96277E-08
 -1        68-6.59704E+03-2.24626E+04-9.26850E+03-1.42144E+03-1.96793E-09 4.99035E-08
 -1        69-5.06639E+03-2.26986E+04-8.87967E+03-5.05105E+01-1.17367E-08 3.54694E-08
 -1        70-2.29829E+01 9.53845E+01 2.16743E+01 7.72634E+01-1.00633E-08 9.06867E-08
 -1        71 1.46292E+01 1.32468E+02 4.40246E+01 1.36026E+02 1.95850E-09 8.34648E-08
 -1        72 7.55628E-01-1.28162E+02-3.83702E+01 1.29782E+02 4.56454E-09 8.85757E-08
 -1        73-2.06711E+02-8.94270E+02-3.31286E+02-2.26632E+01-1.23055E-08 1.12461E-07
 -1        74-6.67872E+02-2.19049E+03-8.62990E+02-3.73704E+02-3.98205E-08 1.21011E-07
 -1        75-1.36500E+03-3.83499E+03-1.57730E+03-8.84918E+02-5.86455E-08 8.73333E-08
 -1        76-2.10283E+03-5.46564E+03-2.30678E+03-1.44423E+03-5.70003E-08 2.42166E-08
 -1        77-2.75157E+03-6.85853E+03-2.94072E+03-1.89916E+03-3.35749E-08-3.54589E-08
 -1        78-3.22991E+03-8.05028E+03-3.46247E+03-2.19894E+03 1.02276E-09-8.43706E-08
 -1        79-3.63939E+03-9.35828E+03-4.00314E+03-2.40550E+03 2.05922E-08-9.36067E-08
 -1        80-4.06492E+03-1.10180E+04-4.66743E+03-2.62826E+03 2.46094E-08-9.67843E-08
 -1        81-4.59592E+03-1.30128E+04-5.48107E+03-2.87012E+03 2.28715E-08-1.05980E-07
 -1        82-5.12509E+03-1.50402E+04-6.31318E+03-3.04896E+03 2.54275E-08-1.19993E-07
 -1        83-5.54971E+03-1.68484E+04-7.04612E+03-3.06413E+03 3.37179E-08-1.16585E-07
 -1        84-5.77758E+03-1.83484E+04-7.61884E+03-2.88503E+03 5.09491E-08-9.74914E-08
 -1        85-5.93357E+03-1.96602E+04-8.10851E+03-2.52427E+03 4.80295E-08-3.19725E-08
 -1        86-6.00218E+03-2.08577E+04-8.53432E+03-1.98534E+03 2.32825E-08 2.96273E-08
 -1        87-6.59704E+03-2.24626E+04-9.26850E+03-1.42144E+03-1.96793E-09 4.99034E-08
 -1        88-5.06639E+03-2.26986E+04-8.87967E+03-5.05105E+01-1.17367E-08 3.54694E-08
 -1        89-1.93869E+02-4.92184E+02-1.57187E+02 1.89901E+02-6.67955E-09 3.38309E-08
 -1        90-2.27246E+02-3.31442E+02-8.68505E+01 4.66261E+02-1.05150E-08 5.50510E-08
 -1        91-1.47958E+02-2.77929E+02-6.31977E+01 3.43904E+02-6.53116E-09 2.94508E-08
 -1        92-1.06437E+02-2.51579E+02-4.90220E+01 3.55458E+02 4.54120E-09-4.07450E-08
 -1        93-3.78570E+01-2.27927E+02-2.90240E+01 4.02691E+02 1.98638E-08-1.05936E-07
 -1        94 3.47246E+01-2.43352E+02-2.01684E+01 4.90628E+02 2.52512E-08-1.19764E-07
 -1        95 1.80801E+02-2.50467E+02 1.32420E+01 5.73690E+02 2.62109E-08-1.15900E-07
 -1        96 2.73476E+02-2.42683E+02 3.59181E+01 6.14241E+02 2.66133E-08-1.00243E-07
 -1        97 2.93418E+02-1.73663E+02 5.64716E+01 5.77563E+02 2.84984E-08-9.36979E-08
 -1        98 2.31513E+02-1.00950E+02 5.45079E+01 4.99653E+02 3.19566E-08-8.85668E-08
 -1        99 2.37290E+02-6.66259E+01 6.20340E+01 4.38820E+02 3.23025E-08-6.87740E-08
 -1       100 2.94399E+02-1.35908E+02 5.43546E+01 4.52477E+02 1.45107E-08-1.87046E-08
 -1       101 3.91937E+02-2.35040E+02 5.06672E+01 4.97803E+02-1.39013E-08 5.11169E-08
 -1       102 4.15400E+02-2.99139E+02 3.62342E+01 5.06838E+02-3.35300E-08 1.14209E-07
 -1       103 3.73964E+02-2.56392E+02 3.54417E+01 4.29557E+02-3.44264E-08 1.31213E-07
 -1       104 2.31636E+02-1.62409E+02 2.05685E+01 3.07342E+02-2.05243E-08 1.11664E-07
 -1       105 7.83989E+01-5.40593E+01 7.15025E+00 1.82055E+02-2.22415E-09 8.93515E-08
 -1       106-4.60474E+01 5.16534E+00-1.23209E+01 9.18392E+01 6.50136E-09 8.40651E-08
 -1       107-8.25958E+01 1.02070E+01-2.17315E+01 3.87383E+01 3.08087E-09 9.69515E-08
 -1       108-8.25958E+01 1.02070E+01-2.17315E+01 3.87383E+01 3.08301E-09 9.69763E-08
 -1       109-4.60474E+01 5.16534E+00-1.23209E+01 9.18392E+01 6.50023E-09 8.40609E-08
 -1       110 7.83989E+01-5.40593E+01 7.15025E+00 1.82055E+02-2.22452E-09 8.93653E-08
 -1       111 2.31636E+02-1.62409E+02 2.05685E+01 3.07342E+02-2.05241E-08 1.11654E-07
 -1       112 3.73964E+02-2.56392E+02 3.54417E+01 4.29557E+02-3.44260E-08 1.31217E-07
 -1       113 4.15400E+02-2.99139E+02 3.62342E+01 5.06838E+02-3.35300E-08 1.14212E-07
 -1       114 3.91937E+02-2.35040E+02 5.06672E+01 4.97803E+02-1.39013E-08 5.11096E-08
 -1       115 2.94399E+02-1.35908E+02 5.43546E+01 4.52477E+02 1.45102E-08-1.87028E-08
 -1       116 2.37290E+02-6.66259E+01 6.20340E+01 4.38820E+02 3.23030E-08-6.87745E-08
 -1       117 2.31513E+02-1.00950E+02 5.45079E+01 4.99653E+02 3.19559E-08-8.85667E-08
 -1       118 2.93418E+02-1.73663E+02 5.64716E+01 5.77563E+02 2.84990E-08-9.36994E-08
 -1       119 2.73476E+02-2.42683E+02 3.59181E+01 6.14241E+02 2.66132E-08-1.00241E-07
 -1       120 1.80801E+02-2.50467E+02 1.32420E+01 5.73690E+02 2.62108E-08-1.15903E-07
 -1       121 3.47246E+01-2.43352E+02-2.01684E+01 4.90628E+02 2.52515E-08-1.19766E-07
 -1       122-3.78570E+01-2.27927E+02-2.90240E+01 4.02691E+02 1.98639E-08-1.05936E-07
 -1       123-1.06437E+02-2.51579E+02-4.90220E+01 3.55458E+02 4.54097E-09-4.07447E-08
 -1       124-1.47958E+02-2.77929E+02-6.31977E+01 3.43904E+02-6.53100E-09 2.94506E-08
 -1       125-2.27246E+02-3.31442E+02-8.68505E+01 4.66261E+02-1.05150E-08 5.50511E-08
 -1       126-1.93869E+02-4.92184E+02-1.57187E+02 1.89901E+02-6.67951E-09 3.38308E-08
 -3
    1PSTEP                       339          85           1          
  100CL  185 8.50000E-01         126                     1   85           1
 -4  TOSTRAIN    6    1
 -5  EXX         1    4    1    1
 -5  EYY         1    4    2    2
 -5  EZZ         1    4    3    3
 -5  EXY         1    4    1    2
 -5  EYZ         1    4    2    3
 -5  EZX         1    4    3    1
 -1         1-2.30113E-04 5.18682E-02-3.31671E-27 1.93397E-02 2.23597E-20 4.30992E-16
 -1         2-2.30113E-04 5.18682E-02-3.31671E-27 1.93397E-02 2.23597E-20 4.30992E-16
 -1         3-1.57404E-04 2.98109E-06 2.51447E-25-8.59350E-05 1.74268E-13 3.09205E-13
 -1         4-1.57404E-04 2.98109E-06 2.51381E-25-8.59350E-05 1.74247E-13 3.09161E-13
 -1         5-1.47086E-04 1.79043E-04 2.30018E-25-2.04048E-05 9.51433E-14 3.26793E-13
 -1         6-1.47086E-04 1.79043E-04 2.30033E-25-2.04048E-05 9.51461E-14 3.26805E-13
 -1         7-2.24196E-04-4.91514E-02-4.97987E-27 1.67863E-02 3.14583E-19-5.74761E-16
 -1         8-2.24196E-04-4.91514E-02-4.97988E-27 1.67863E-02 3.39470E-19-5.74762E-16
 -1         9-1.52245E-04 7.68677E-05 2.49656E-25-7.14976E-05 1.47131E-13 3.22158E-13
 -1        10-1.52245E-04 7.68677E-05 2.49778E-25-7.14976E-05 1.47170E-13 3.22237E-13
 -1        11-2.27155E-04-1.57101E-05-4.14660E-27 1.14394E-02 2.47052E-19-1.39656E-16
 -1        12-2.27155E-04-1.57101E-05-4.14660E-27 1.14394E-02 2.00612E-19-1.39655E-16
 -1        13-1.46356E-02 5.17721E-02 1.68076E-26 3.29634E-03 2.71316E-14 9.66053E-14
 -1        14-1.16967E-02 5.01373E-02 5.69362E-26 7.01664E-04-2.66712E-14 1.70617E-13
 -1        15-1.13957E-02 4.74974E-02 2.34251E-26 9.21189E-04-1.21505E-13 7.58331E-14
 -1        16-1.07860E-02 4.52248E-02 6.75641E-26 8.74524E-04-1.60337E-13-1.43134E-13
 -1        17-1.02265E-02 4.27063E-02 2.31821E-25 1.01130E-03-1.21106E-13-3.24614E-13
 -1        18-9.59340E-03 3.96723E-02 2.91312E-25 1.20656E-03-6.46080E-14-3.74052E-13
 -1        19-8.61556E-03 3.59010E-02 2.57896E-25 1.43565E-03-3.09618E-14-3.55256E-13
 -1        20-7.55057E-03 3.15326E-02 2.13270E-25 1.56407E-03-1.70797E-14-3.23958E-13
 -1        21-6.50703E-03 2.71746E-02 1.92862E-25 1.44488E-03-2.64796E-15-3.09004E-13
 -1        22-5.71502E-03 2.34797E-02 1.66257E-25 1.15653E-03 4.41505E-14-2.86356E-13
 -1        23-4.97521E-03 2.04792E-02 1.03107E-25 9.93070E-04 1.17463E-13-2.06487E-13
 -1        24-4.30671E-03 1.75042E-02 5.39401E-26 1.12327E-03 1.82558E-13-7.78119E-14
 -1        25-3.47112E-03 1.38877E-02 1.15597E-25 1.37265E-03 2.08395E-13 1.72268E-13
 -1        26-2.53402E-03 9.66963E-03 3.47036E-25 1.44716E-03 1.81264E-13 3.83551E-13
 -1        27-1.51134E-03 5.57642E-03 3.87302E-25 1.23500E-03 1.20176E-13 4.24127E-13
 -1        28-7.83633E-04 2.42853E-03 2.77908E-25 8.34418E-04 8.93643E-14 3.63318E-13
 -1        29-3.74186E-04 6.09911E-04 1.67008E-25 3.99555E-04 9.86496E-14 2.73458E-13
 -1        30-2.59983E-04-5.26537E-05 1.68968E-25 7.74338E-05 1.42928E-13 2.53730E-13
 -1        31-2.06155E-04-7.27131E-05 2.11568E-25-5.66667E-05 1.68941E-13 2.78239E-13
 -1        32-1.46356E-02 5.17721E-02 1.68076E-26 3.29634E-03 2.71316E-14 9.66053E-14
 -1        33-1.16967E-02 5.01373E-02 5.69362E-26 7.01664E-04-2.66712E-14 1.70617E-13
 -1        34-1.13957E-02 4.74974E-02 2.34249E-26 9.21189E-04-1.21505E-13 7.58335E-14
 -1        35-1.07860E-02 4.52248E-02 6.75647E-26 8.74524E-04-1.60337E-13-1.43135E-13
 -1        36-1.02265E-02 4.27063E-02 2.31821E-25 1.01130E-03-1.21106E-13-3.24614E-13
 -1        37-9.59340E-03 3.96723E-02 2.91312E-25 1.20656E-03-6.46085E-14-3.74051E-13
 -1        38-8.61556E-03 3.59010E-02 2.57892E-25 1.43565E-03-3.09632E-14-3.55253E-13
 -1        39-7.55057E-03 3.15326E-02 2.13271E-25 1.56407E-03-1.70799E-14-3.23959E-13
 -1        40-6.50703E-03 2.71746E-02 1.92861E-25 1.44488E-03-2.64739E-15-3.09003E-13
 -1        41-5.71502E-03 2.34797E-02 1.66257E-25 1.15653E-03 4.41504E-14-2.86357E-13
 -1        42-4.97521E-03 2.04792E-02 1.03107E-25 9.93070E-04 1.17463E-13-2.06487E-13
 -1        43-4.30671E-03 1.75042E-02 5.39404E-26 1.12327E-03 1.82559E-13-7.78126E-14
 -1        44-3.47112E-03 1.38877E-02 1.15594E-25 1.37265E-03 2.08392E-13 1.72266E-13
 -1        45-2.53402E-03 9.66963E-03 3.47037E-25 1.44716E-03 1.81267E-13 3.83550E-13
 -1        46-1.51134E-03 5.57642E-03 3.87302E-25 1.23500E-03 1.20177E-13 4.24126E-13
 -1        47-7.83633E-04 2.42853E-03 2.77916E-25 8.34418E-04 8.93670E-14 3.63324E-13
 -1        48-3.74186E-04 6.09911E-04 1.66979E-25 3.99555E-04 9.86336E-14 2.73439E-13
 -1        49-2.59983E-04-5.26537E-05 1.68977E-25 7.74338E-05 1.42934E-13 2.53734E-13
 -1        50-2.06155E-04-7.27131E-05 2.11520E-25-5.66667E-05 1.68912E-13 2.78211E-13
 -1        51-2.69136E-04 3.63088E-04 1.74575E-25-8.08222E-06 1.04658E-13 2.77555E-13
 -1        52-3.74814E-04 5.65607E-04 1.46851E-25 1.04389E-04 1.28828E-13 2.38788E-13
 -1        53-3.02082E-04 1.35982E-04 1.64420E-25 4.17517E-04 1.44078E-13 2.49640E-13
 -1        54 1.04592E-06-1.43418E-03 2.67131E-25 8.64894E-04 1.30546E-13 3.43806E-13
 -1        55 5.95130E-04-4.32234E-03 3.38570E-25 1.28677E-03 6.23479E-14 4.09748E-13
 -1        56 1.36550E-03-8.16353E-03 2.20141E-25 1.49124E-03-4.48350E-14 3.39824E-13
 -1        57 2.21952E-03-1.21409E-02 5.96769E-26 1.40453E-03-1.34787E-13 1.52239E-13
 -1        58 2.88590E-03-1.55101E-02 3.00498E-26 1.16803E-03-1.50716E-13-5.83129E-14
 -1        59 3.38704E-03-1.82270E-02 1.40171E-25 1.05133E-03-1.10801E-13-2.52722E-13
 -1        60 3.86770E-03-2.09941E-02 1.92974E-25 1.19821E-03-5.74085E-14-3.07612E-13
 -1        61 4.60232E-03-2.45263E-02 2.10470E-25 1.47446E-03-4.14984E-14-3.23433E-13
 -1        62 5.46657E-03-2.88004E-02 2.47713E-25 1.61561E-03-4.85490E-14-3.50910E-13
 -1        63 6.32216E-03-3.31250E-02 3.16945E-25 1.50404E-03-4.33654E-14-3.98645E-13
 -1        64 7.00654E-03-3.68486E-02 3.08557E-25 1.24986E-03 2.28471E-15-3.96929E-13
 -1        65 7.61771E-03-3.98242E-02 2.45153E-25 1.02889E-03 9.21864E-14-3.49274E-13
 -1        66 8.07904E-03-4.22983E-02 5.47931E-26 9.01892E-04 1.42041E-13-1.33135E-13
 -1        67 8.59534E-03-4.45608E-02 1.99711E-26 9.91039E-04 9.53068E-14 8.45046E-14
 -1        68 8.54351E-03-4.74954E-02 4.95462E-26 7.37080E-04 1.05123E-14 1.63385E-13
 -1        69 1.18145E-02-4.92377E-02 2.68629E-26 3.04403E-03-3.53922E-14 1.17868E-13
 -1        70-2.69136E-04 3.63088E-04 1.74518E-25-8.08222E-06 1.04641E-13 2.77512E-13
 -1        71-3.74814E-04 5.65607E-04 1.46859E-25 1.04389E-04 1.28834E-13 2.38793E-13
 -1        72-3.02082E-04 1.35982E-04 1.64420E-25 4.17517E-04 1.44074E-13 2.49642E-13
 -1        73 1.04592E-06-1.43418E-03 2.67208E-25 8.64894E-04 1.30569E-13 3.43852E-13
 -1        74 5.95130E-04-4.32234E-03 3.38541E-25 1.28677E-03 6.23376E-14 4.09731E-13
 -1        75 1.36550E-03-8.16353E-03 2.20137E-25 1.49124E-03-4.48377E-14 3.39819E-13
 -1        76 2.21952E-03-1.21409E-02 5.96865E-26 1.40453E-03-1.34780E-13 1.52250E-13
 -1        77 2.88590E-03-1.55101E-02 3.00784E-26 1.16803E-03-1.50746E-13-5.83483E-14
 -1        78 3.38704E-03-1.82270E-02 1.40163E-25 1.05133E-03-1.10797E-13-2.52711E-13
 -1        79 3.86770E-03-2.09941E-02 1.92969E-25 1.19821E-03-5.73946E-14-3.07611E-13
 -1        80 4.60232E-03-2.45263E-02 2.10499E-25 1.47446E-03-4.15137E-14-3.23454E-13
 -1        81 5.46657E-03-2.88004E-02 2.47745E-25 1.61561E-03-4.85560E-14-3.50932E-13
 -1        82 6.32216E-03-3.31250E-02 3.16931E-25 1.50404E-03-4.33639E-14-3.98636E-13
 -1        83 7.00654E-03-3.68486E-02 3.08553E-25 1.24986E-03 2.27999E-15-3.96927E-13
 -1        84 7.61771E-03-3.98242E-02 2.45150E-25 1.02889E-03 9.21880E-14-3.49272E-13
 -1        85 8.07904E-03-4.22983E-02 5.47899E-26 9.01892E-04 1.42043E-13-1.33128E-13
 -1        86 8.59534E-03-4.45608E-02 1.99699E-26 9.91039E-04 9.53039E-14 8.45038E-14
 -1        87 8.54351E-03-4.74954E-02 4.95460E-26 7.37080E-04 1.05122E-14 1.63385E-13
 -1        88 1.18145E-02-4.92377E-02 2.68629E-26 3.04403E-03-3.53923E-14 1.17868E-13
 -1        89-1.41058E-03 4.64600E-04 2.20562E-26 6.56385E-04-1.64859E-14 1.10983E-13
 -1        90-1.57661E-03 9.04435E-04 6.49147E-26 1.51937E-03-1.61207E-14 1.81759E-13
 -1        91-1.40020E-03 8.73421E-04 5.52180E-27 1.12762E-03-6.89948E-15 9.79181E-14
 -1        92-1.35346E-03 9.11039E-04 1.13284E-26 1.15623E-03-1.09522E-14-1.32917E-13
 -1        93-1.30441E-03 9.74557E-04 2.34459E-25 1.30306E-03-1.78272E-14-3.50101E-13
 -1        94-1.29343E-03 1.03082E-03 3.17000E-25 1.59094E-03-2.71858E-14-3.97136E-13
 -1        95-1.14670E-03 1.06088E-03 2.98446E-25 1.91685E-03-3.47664E-14-3.84743E-13
 -1        96-1.04200E-03 1.08768E-03 2.27113E-25 2.06788E-03-2.87416E-14-3.35945E-13
 -1        97-9.52355E-04 1.11605E-03 2.02821E-25 1.88885E-03-2.45376E-14-3.17448E-13
 -1        98-9.23658E-04 1.10017E-03 1.86284E-25 1.52064E-03-1.51929E-14-3.05771E-13
 -1        99-7.94083E-04 1.01782E-03 1.12323E-25 1.32083E-03 5.59562E-15-2.47004E-13
 -1       100-7.10404E-04 9.13144E-04-1.21955E-26 1.47953E-03 1.72378E-14-7.51108E-14
 -1       101-6.25802E-04 8.24574E-04 3.19002E-26 1.80020E-03 3.16403E-14 1.69209E-13
 -1       102-5.84257E-04 7.30978E-04 2.86748E-25 1.91717E-03 6.75896E-14 3.80830E-13
 -1       103-4.58105E-04 6.08083E-04 3.86675E-25 1.65026E-03 9.24921E-14 4.30914E-13
 -1       104-3.91294E-04 4.79686E-04 2.69382E-25 1.10398E-03 1.05253E-13 3.53534E-13
 -1       105-3.38134E-04 3.69060E-04 1.66780E-25 5.20983E-04 1.25523E-13 2.61894E-13
 -1       106-3.17398E-04 2.63999E-04 1.49688E-25 1.07798E-04 1.42919E-13 2.33835E-13
 -1       107-2.37646E-04 1.43478E-04 1.97884E-25-4.80171E-05 1.51967E-13 2.76291E-13
 -1       108-2.37646E-04 1.43478E-04 1.97981E-25-4.80171E-05 1.52009E-13 2.76360E-13
 -1       109-3.17398E-04 2.63999E-04 1.49670E-25 1.07798E-04 1.42909E-13 2.33824E-13
 -1       110-3.38134E-04 3.69060E-04 1.66835E-25 5.20983E-04 1.25542E-13 2.61934E-13
 -1       111-3.91294E-04 4.79686E-04 2.69339E-25 1.10398E-03 1.05239E-13 3.53506E-13
 -1       112-4.58105E-04 6.08083E-04 3.86700E-25 1.65026E-03 9.25005E-14 4.30928E-13
 -1       113-5.84257E-04 7.30978E-04 2.86757E-25 1.91717E-03 6.75942E-14 3.80839E-13
 -1       114-6.25802E-04 8.24574E-04 3.18823E-26 1.80020E-03 3.16299E-14 1.69188E-13
 -1       115-7.10404E-04 9.13144E-04-1.22000E-26 1.47953E-03 1.72389E-14-7.51047E-14
 -1       116-7.94083E-04 1.01782E-03 1.12324E-25 1.32083E-03 5.59654E-15-2.47006E-13
 -1       117-9.23658E-04 1.10017E-03 1.86283E-25 1.52064E-03-1.51948E-14-3.05770E-13
 -1       118-9.52355E-04 1.11605E-03 2.02828E-25 1.88885E-03-2.45374E-14-3.17453E-13
 -1       119-1.04200E-03 1.08768E-03 2.27106E-25 2.06788E-03-2.87401E-14-3.35941E-13
 -1       120-1.14670E-03 1.06088E-03 2.98460E-25 1.91685E-03-3.47697E-14-3.84752E-13
 -1       121-1.29343E-03 1.03082E-03 3.17010E-25 1.59094E-03-2.71866E-14-3.97142E-13
 -1       122-1.30441E-03 9.74557E-04 2.34457E-25 1.30306E-03-1.78264E-14-3.50100E-13
 -1       123-1.35346E-03 9.11039E-04 1.13284E-26 1.15623E-03-1.09528E-14-1.32916E-13
 -1       124-1.40020E-03 8.73421E-04 5.52216E-27 1.12762E-03-6.89909E-15 9.79172E-14
 -1       125-1.57661E-03 9.04435E-04 6.49150E-26 1.51937E-03-1.61206E-14 1.81760E-13
 -1       126-1.41058E-03 4.64600E-04 2.20561E-26 6.56385E-04-1.64858E-14 1.10983E-13
 -3
    1PSTEP                       340          85           1          
  100CL  185 8.50000E-01         126                     1   85           1
 -4  ERROR       1    1
 -5  STR(%)      1    1    0    0
 -1         1 6.25151E+01
 -1         2 6.25151E+01
 -1         3 1.55892E+01
 -1         4 1.55892E+01
 -1         5 3.46232E+01
 -1         6 3.46232E+01
 -1         7 5.96895E+01
 -1         8 5.96895E+01
 -1         9 3.46232E+01
 -1        10 3.46232E+01
 -1        11 6.25151E+01
 -1        12 6.25151E+01
 -1        13 6.25151E+01
 -1        14 6.08185E+01
 -1        15 6.05820E+01
 -1        16 6.04140E+01
 -1        17 6.03175E+01
 -1        18 6.03175E+01
 -1        19 6.02565E+01
 -1        20 6.02175E+01
 -1        21 5.98594E+01
 -1        22 5.93351E+01
 -1        23 5.87115E+01
 -1        24 5.86975E+01
 -1        25 5.86673E+01
 -1        26 5.72997E+01
 -1        27 5.24585E+01
 -1        28 4.28796E+01
 -1        29 2.28132E+01
 -1        30 3.38976E+01
 -1        31 3.38976E+01
 -1        32 6.25151E+01
 -1        33 6.08185E+01
 -1        34 6.05820E+01
 -1        35 6.04140E+01
 -1        36 6.03175E+01
 -1        37 6.03175E+01
 -1        38 6.02565E+01
 -1        39 6.02175E+01
 -1        40 5.98594E+01
 -1        41 5.93351E+01
 -1        42 5.87115E+01
 -1        43 5.86975E+01
 -1        44 5.86673E+01
 -1        45 5.72997E+01
 -1        46 5.24585E+01
 -1        47 4.28796E+01
 -1        48 2.28132E+01
 -1        49 3.38976E+01
 -1        50 3.38976E+01
 -1        51 4.22592E+01
 -1        52 4.22592E+01
 -1        53 5.99803E+01
 -1        54 5.99803E+01
 -1        55 6.16983E+01
 -1        56 6.59144E+01
 -1        57 6.62318E+01
 -1        58 6.62318E+01
 -1        59 6.53261E+01
 -1        60 6.50315E+01
 -1        61 6.47883E+01
 -1        62 6.41628E+01
 -1        63 6.32162E+01
 -1        64 6.22886E+01
 -1        65 6.14567E+01
 -1        66 6.09201E+01
 -1        67 6.05650E+01
 -1        68 6.07568E+01
 -1        69 6.07568E+01
 -1        70 4.22592E+01
 -1        71 4.22592E+01
 -1        72 5.99803E+01
 -1        73 5.99803E+01
 -1        74 6.16983E+01
 -1        75 6.59144E+01
 -1        76 6.62318E+01
 -1        77 6.62318E+01
 -1        78 6.53261E+01
 -1        79 6.50315E+01
 -1        80 6.47883E+01
 -1        81 6.41628E+01
 -1        82 6.32162E+01
 -1        83 6.22886E+01
 -1        84 6.14567E+01
 -1        85 6.09201E+01
 -1        86 6.05650E+01
 -1        87 6.07568E+01
 -1        88 6.07568E+01
 -1        89 6.25151E+01
 -1        90 6.08185E+01
 -1        91 6.05820E+01
 -1        92 6.09201E+01
 -1        93 6.14567E+01
 -1        94 6.22886E+01
 -1        95 6.32162E+01
 -1        96 6.41628E+01
 -1        97 6.47883E+01
 -1        98 6.50315E+01
 -1        99 6.53261E+01
 -1       100 6.62318E+01
 -1       101 6.62318E+01
 -1       102 6.59144E+01
 -1       103 6.16983E+01
 -1       104 5.99803E+01
 -1       105 5.99803E+01
 -1       106 4.22592E+01
 -1       107 4.22592E+01
 -1       108 4.22592E+01
 -1       109 4.22592E+01
 -1       110 5.99803E+01
 -1       111 5.99803E+01
 -1       112 6.16983E+01
 -1       113 6.59144E+01
 -1       114 6.62318E+01
 -1       115 6.62318E+01
 -1       116 6.53261E+01
 -1       117 6.50315E+01
 -1       118 6.47883E+01
 -1       119 6.41628E+01
 -1       120 6.32162E+01
 -1       121 6.22886E+01
 -1       122 6.14567E+01
 -1       123 6.09201E+01
 -1       124 6.05820E+01
 -1       125 6.08185E+01
 -1       126 6.25151E+01
 -3
    1PSTEP                       341          86           1          
  100CL  186 8.60000E-01         126                     1   86           1
 -4  DISP        4    1
 -5  D1          1    2    1    0
 -5  D2          1    2    2    0
 -5  D3          1    2    3    0
 -5  ALL         1    2    0    0    1ALL
 -1         1 0.00000E+00 0.00000E+00 0.00000E+00
 -1         2 0.00000E+00 0.00000E+00 0.00000E+00
 -1         3 3.42113E-01-4.57025E-02 0.00000E+00
 -1         4 3.42113E-01-4.57025E-02 0.00000E+00
 -1         5 3.31087E-01-9.13174E-02 0.00000E+00
 -1         6 3.31087E-01-9.13174E-02 0.00000E+00
 -1         7 0.00000E+00 0.00000E+00 0.00000E+00
 -1         8 0.00000E+00 0.00000E+00 0.00000E+00
 -1         9 3.36599E-01-6.85084E-02 0.00000E+00
 -1        10 3.36599E-01-6.85084E-02 0.00000E+00
 -1        11 0.00000E+00 0.00000E+00 0.00000E+00
 -1        12 0.00000E+00 0.00000E+00 0.00000E+00
 -1        13 2.00148E-03 2.56995E-03 0.00000E+00
 -1        14 6.25742E-03 4.98869E-03 0.00000E+00
 -1        15 1.31683E-02 6.95420E-03 0.00000E+00
 -1        16 2.24902E-02 8.40592E-03 0.00000E+00
 -1        17 3.40544E-02 9.24764E-03 0.00000E+00
 -1        18 4.76539E-02 9.41229E-03 0.00000E+00
 -1        19 6.30538E-02 8.86669E-03 0.00000E+00
 -1        20 8.00360E-02 7.60601E-03 0.00000E+00
 -1        21 9.83798E-02 5.66253E-03 0.00000E+00
 -1        22 1.17907E-01 3.08530E-03 0.00000E+00
 -1        23 1.38476E-01-8.28509E-05 0.00000E+00
 -1        24 1.59973E-01-3.83592E-03 0.00000E+00
 -1        25 1.82222E-01-8.16738E-03 0.00000E+00
 -1        26 2.04966E-01-1.30235E-02 0.00000E+00
 -1        27 2.27910E-01-1.82650E-02 0.00000E+00
 -1        28 2.50848E-01-2.37151E-02 0.00000E+00
 -1        29 2.73702E-01-2.92225E-02 0.00000E+00
 -1        30 2.96506E-01-3.47204E-02 0.00000E+00
 -1        31 3.19305E-01-4.02078E-02 0.00000E+00
 -1        32 2.00148E-03 2.56995E-03 0.00000E+00
 -1        33 6.25742E-03 4.98869E-03 0.00000E+00
 -1        34 1.31683E-02 6.95420E-03 0.00000E+00
 -1        35 2.24902E-02 8.40592E-03 0.00000E+00
 -1        36 3.40544E-02 9.24764E-03 0.00000E+00
 -1        37 4.76539E-02 9.41229E-03 0.00000E+00
 -1        38 6.30538E-02 8.86669E-03 0.00000E+00
 -1        39 8.00360E-02 7.60601E-03 0.00000E+00
 -1        40 9.83798E-02 5.66253E-03 0.00000E+00
 -1        41 1.17907E-01 3.08530E-03 0.00000E+00
 -1        42 1.38476E-01-8.28509E-05 0.00000E+00
 -1        43 1.59973E-01-3.83592E-03 0.00000E+00
 -1        44 1.82222E-01-8.16738E-03 0.00000E+00
 -1        45 2.04966E-01-1.30235E-02 0.00000E+00
 -1        46 2.27910E-01-1.82650E-02 0.00000E+00
 -1        47 2.50848E-01-2.37151E-02 0.00000E+00
 -1        48 2.73702E-01-2.92225E-02 0.00000E+00
 -1        49 2.96506E-01-3.47204E-02 0.00000E+00
 -1        50 3.19305E-01-4.02078E-02 0.00000E+00
 -1        51 3.08275E-01-8.58092E-02 0.00000E+00
 -1        52 2.85472E-01-8.03141E-02 0.00000E+00
 -1        53 2.62657E-01-7.48333E-02 0.00000E+00
 -1        54 2.39797E-01-6.93260E-02 0.00000E+00
 -1        55 2.16926E-01-6.37283E-02 0.00000E+00
 -1        56 1.94209E-01-5.80123E-02 0.00000E+00
 -1        57 1.71917E-01-5.22393E-02 0.00000E+00
 -1        58 1.50321E-01-4.65374E-02 0.00000E+00
 -1        59 1.29618E-01-4.10443E-02 0.00000E+00
 -1        60 1.09922E-01-3.58463E-02 0.00000E+00
 -1        61 9.13330E-02-3.09736E-02 0.00000E+00
 -1        62 7.39703E-02-2.64214E-02 0.00000E+00
 -1        63 5.80066E-02-2.21866E-02 0.00000E+00
 -1        64 4.36327E-02-1.82705E-02 0.00000E+00
 -1        65 3.10426E-02-1.46710E-02 0.00000E+00
 -1        66 2.04058E-02-1.13692E-02 0.00000E+00
 -1        67 1.18841E-02-8.32732E-03 0.00000E+00
 -1        68 5.58553E-03-5.48004E-03 0.00000E+00
 -1        69 1.75979E-03-2.67809E-03 0.00000E+00
 -1        70 3.08275E-01-8.58092E-02 0.00000E+00
 -1        71 2.85472E-01-8.03141E-02 0.00000E+00
 -1        72 2.62657E-01-7.48333E-02 0.00000E+00
 -1        73 2.39797E-01-6.93260E-02 0.00000E+00
 -1        74 2.16926E-01-6.37283E-02 0.00000E+00
 -1        75 1.94209E-01-5.80123E-02 0.00000E+00
 -1        76 1.71917E-01-5.22393E-02 0.00000E+00
 -1        77 1.50321E-01-4.65374E-02 0.00000E+00
 -1        78 1.29618E-01-4.10443E-02 0.00000E+00
 -1        79 1.09922E-01-3.58463E-02 0.00000E+00
 -1        80 9.13330E-02-3.09736E-02 0.00000E+00
 -1        81 7.39703E-02-2.64214E-02 0.00000E+00
 -1        82 5.80066E-02-2.21866E-02 0.00000E+00
 -1        83 4.36327E-02-1.82705E-02 0.00000E+00
 -1        84 3.10426E-02-1.46710E-02 0.00000E+00
 -1        85 2.04058E-02-1.13692E-02 0.00000E+00
 -1        86 1.18841E-02-8.32732E-03 0.00000E+00
 -1        87 5.58553E-03-5.48004E-03 0.00000E+00
 -1        88 1.75979E-03-2.67809E-03 0.00000E+00
 -1        89 1.19255E-03-3.48385E-05 0.00000E+00
 -1        90 5.40077E-03-1.87120E-04 0.00000E+00
 -1        91 1.20206E-02-6.03072E-04 0.00000E+00
 -1        92 2.09825E-02-1.38322E-03 0.00000E+00
 -1        93 3.21216E-02-2.60233E-03 0.00000E+00
 -1        94 4.52581E-02-4.31291E-03 0.00000E+00
 -1        95 6.01895E-02-6.54277E-03 0.00000E+00
 -1        96 7.67038E-02-9.29466E-03 0.00000E+00
 -1        97 9.45933E-02-1.25486E-02 0.00000E+00
 -1        98 1.13682E-01-1.62785E-02 0.00000E+00
 -1        99 1.33844E-01-2.04681E-02 0.00000E+00
 -1       100 1.54979E-01-2.51030E-02 0.00000E+00
 -1       101 1.76946E-01-3.01391E-02 0.00000E+00
 -1       102 1.99514E-01-3.54773E-02 0.00000E+00
 -1       103 2.22388E-01-4.09783E-02 0.00000E+00
 -1       104 2.45317E-01-4.65161E-02 0.00000E+00
 -1       105 2.68182E-01-5.20278E-02 0.00000E+00
 -1       106 2.90989E-01-5.75159E-02 0.00000E+00
 -1       107 3.13789E-01-6.30061E-02 0.00000E+00
 -1       108 3.13789E-01-6.30061E-02 0.00000E+00
 -1       109 2.90989E-01-5.75159E-02 0.00000E+00
 -1       110 2.68182E-01-5.20278E-02 0.00000E+00
 -1       111 2.45317E-01-4.65161E-02 0.00000E+00
 -1       112 2.22388E-01-4.09783E-02 0.00000E+00
 -1       113 1.99514E-01-3.54773E-02 0.00000E+00
 -1       114 1.76946E-01-3.01391E-02 0.00000E+00
 -1       115 1.54979E-01-2.51030E-02 0.00000E+00
 -1       116 1.33844E-01-2.04681E-02 0.00000E+00
 -1       117 1.13682E-01-1.62785E-02 0.00000E+00
 -1       118 9.45933E-02-1.25486E-02 0.00000E+00
 -1       119 7.67038E-02-9.29466E-03 0.00000E+00
 -1       120 6.01895E-02-6.54277E-03 0.00000E+00
 -1       121 4.52581E-02-4.31291E-03 0.00000E+00
 -1       122 3.21216E-02-2.60233E-03 0.00000E+00
 -1       123 2.09825E-02-1.38322E-03 0.00000E+00
 -1       124 1.20206E-02-6.03072E-04 0.00000E+00
 -1       125 5.40077E-03-1.87120E-04 0.00000E+00
 -1       126 1.19255E-03-3.48385E-05 0.00000E+00
 -3
    1PSTEP                       342          86           1          
  100CL  186 8.60000E-01         126                     1   86           1
 -4  STRESS      6    1
 -5  SXX         1    4    1    1
 -5  SYY         1    4    2    2
 -5  SZZ         1    4    3    3
 -5  SXY         1    4    1    2
 -5  SYZ         1    4    2    3
 -5  SZX         1    4    3    1
 -1         1 1.21372E+04 2.97040E+04 1.17433E+04 7.15525E+03 2.88066E-10 2.28721E-10
 -1         2 1.21372E+04 2.97040E+04 1.17433E+04 7.15525E+03 2.88066E-10 2.28721E-10
 -1         3-5.05412E+01 5.12178E+01 1.89384E-01 3.61140E+01-3.07749E-08 2.08074E-07
 -1         4-5.05412E+01 5.12178E+01 1.89384E-01 3.61140E+01-3.07749E-08 2.08074E-07
 -1         5-6.22800E+01-4.69533E+01-3.27743E+01 1.14036E+01-1.24342E-07 1.68697E-07
 -1         6-6.22800E+01-4.69533E+01-3.27743E+01 1.14036E+01-1.24356E-07 1.68626E-07
 -1         7-1.22912E+04-2.67935E+04-1.25545E+04 4.54349E+03 3.15445E-10-2.10583E-10
 -1         8-1.22912E+04-2.67935E+04-1.25545E+04 4.54349E+03 3.15437E-10-2.10583E-10
 -1         9-6.12806E+01-6.04585E+00-2.02037E+01 2.17308E+01-7.25205E-08 1.87387E-07
 -1        10-6.12806E+01-6.04585E+00-2.02037E+01 2.17308E+01-7.25187E-08 1.87399E-07
 -1        11-3.07169E+01-7.91707E+02-9.49391E+01 3.63925E+03 3.07452E-10 3.53078E-11
 -1        12-3.07169E+01-7.91707E+02-9.49391E+01 3.63925E+03 3.07466E-10 3.53076E-11
 -1        13 4.40038E+03 2.62643E+04 8.60767E+03 2.34407E+03 1.93615E-09 3.51551E-08
 -1        14 5.72512E+03 2.57288E+04 8.84436E+03 2.43260E+03-1.95674E-08 4.84886E-08
 -1        15 5.49160E+03 2.37074E+04 8.24097E+03 3.29951E+03-4.27973E-08 8.10159E-09
 -1        16 5.50967E+03 2.18921E+04 7.76055E+03 3.87062E+03-4.51255E-08-6.97343E-08
 -1        17 5.45049E+03 1.98881E+04 7.20384E+03 4.27118E+03-2.15972E-08-1.43987E-07
 -1        18 5.28914E+03 1.77739E+04 6.58499E+03 4.44874E+03 1.61063E-08-1.78312E-07
 -1        19 5.11928E+03 1.56867E+04 5.96819E+03 4.41382E+03 4.62321E-08-1.67346E-07
 -1        20 4.84045E+03 1.37004E+04 5.34327E+03 4.23743E+03 6.13569E-08-1.39079E-07
 -1        21 4.51596E+03 1.19561E+04 4.76713E+03 3.98085E+03 6.30154E-08-9.59573E-08
 -1        22 4.15783E+03 1.04379E+04 4.23932E+03 3.71488E+03 5.22658E-08-5.42208E-08
 -1        23 3.86034E+03 8.98397E+03 3.74354E+03 3.42049E+03 2.96404E-08-3.39513E-09
 -1        24 3.42561E+03 7.24307E+03 3.12236E+03 3.03019E+03 7.62798E-09 1.90387E-08
 -1        25 2.75858E+03 5.15448E+03 2.32833E+03 2.43111E+03-1.51948E-09 2.98128E-08
 -1        26 1.83961E+03 2.99084E+03 1.43004E+03 1.65685E+03 1.19525E-10 3.56955E-08
 -1        27 9.55716E+02 1.28403E+03 6.66819E+02 8.78486E+02 4.25918E-09 4.11926E-08
 -1        28 2.82631E+02 2.99458E+02 1.73889E+02 3.35610E+02 2.64946E-09 5.23150E-08
 -1        29-4.20664E+01-9.74118E+00-1.56030E+01 9.08167E+01 2.90818E-09 6.94282E-08
 -1        30-1.24811E+02-5.90814E+00-3.92468E+01 4.98111E+01 5.26117E-10 1.04344E-07
 -1        31-8.45871E+01 3.54344E+01-1.47707E+01 4.87924E+01-1.02323E-08 1.58932E-07
 -1        32 4.40038E+03 2.62643E+04 8.60767E+03 2.34407E+03 1.93615E-09 3.51551E-08
 -1        33 5.72512E+03 2.57288E+04 8.84436E+03 2.43260E+03-1.95674E-08 4.84886E-08
 -1        34 5.49160E+03 2.37074E+04 8.24097E+03 3.29951E+03-4.27972E-08 8.10160E-09
 -1        35 5.50967E+03 2.18921E+04 7.76055E+03 3.87062E+03-4.51255E-08-6.97358E-08
 -1        36 5.45049E+03 1.98881E+04 7.20384E+03 4.27118E+03-2.15972E-08-1.43989E-07
 -1        37 5.28914E+03 1.77739E+04 6.58499E+03 4.44874E+03 1.61062E-08-1.78312E-07
 -1        38 5.11928E+03 1.56867E+04 5.96819E+03 4.41382E+03 4.62321E-08-1.67346E-07
 -1        39 4.84045E+03 1.37004E+04 5.34327E+03 4.23743E+03 6.13569E-08-1.39079E-07
 -1        40 4.51596E+03 1.19561E+04 4.76713E+03 3.98085E+03 6.30152E-08-9.59573E-08
 -1        41 4.15783E+03 1.04379E+04 4.23932E+03 3.71488E+03 5.22659E-08-5.42208E-08
 -1        42 3.86034E+03 8.98397E+03 3.74354E+03 3.42049E+03 2.96403E-08-3.39323E-09
 -1        43 3.42561E+03 7.24307E+03 3.12236E+03 3.03019E+03 7.62675E-09 1.90337E-08
 -1        44 2.75858E+03 5.15448E+03 2.32833E+03 2.43111E+03-1.51808E-09 2.98147E-08
 -1        45 1.83961E+03 2.99084E+03 1.43004E+03 1.65685E+03 1.19331E-10 3.56992E-08
 -1        46 9.55716E+02 1.28403E+03 6.66819E+02 8.78486E+02 4.25849E-09 4.11926E-08
 -1        47 2.82631E+02 2.99458E+02 1.73889E+02 3.35610E+02 2.65057E-09 5.23150E-08
 -1        48-4.20664E+01-9.74118E+00-1.56030E+01 9.08167E+01 2.90861E-09 6.94208E-08
 -1        49-1.24811E+02-5.90814E+00-3.92468E+01 4.98111E+01 5.24401E-10 1.04369E-07
 -1        50-8.45871E+01 3.54344E+01-1.47707E+01 4.87924E+01-1.02293E-08 1.58939E-07
 -1        51-8.15937E+01-2.78478E+01-3.28457E+01 2.83116E+01-9.17138E-08 1.12595E-07
 -1        52-5.79584E+01 7.03078E+01 3.66062E+00 7.06499E+01-5.81859E-08 7.47044E-08
 -1        53 1.46481E+00 7.72704E+01 2.35219E+01 1.30777E+02-3.45932E-08 5.14798E-08
 -1        54-5.41823E+01-3.85656E+02-1.32291E+02 1.06830E+02-1.64764E-08 3.63443E-08
 -1        55-3.96998E+02-1.58095E+03-5.96376E+02-1.52610E+02-1.08791E-08 2.78353E-08
 -1        56-1.10917E+03-3.40785E+03-1.36879E+03-6.84359E+02-1.21708E-08 1.51712E-08
 -1        57-1.99231E+03-5.40474E+03-2.25462E+03-1.36360E+03-2.02763E-08 1.51881E-08
 -1        58-2.83493E+03-7.17997E+03-3.06833E+03-1.96911E+03-3.05771E-08-3.91787E-09
 -1        59-3.46082E+03-8.60102E+03-3.70991E+03-2.38458E+03-3.69012E-08-3.63951E-08
 -1        60-3.90551E+03-9.86058E+03-4.24798E+03-2.62681E+03-2.73641E-08-8.52689E-08
 -1        61-4.23698E+03-1.11995E+04-4.78072E+03-2.79246E+03-5.50552E-09-1.27194E-07
 -1        62-4.60367E+03-1.27843E+04-5.40898E+03-2.92409E+03 1.75098E-08-1.58548E-07
 -1        63-5.00342E+03-1.45630E+04-6.11684E+03-3.01520E+03 4.13068E-08-1.68530E-07
 -1        64-5.40646E+03-1.64222E+04-6.85894E+03-3.01574E+03 6.49761E-08-1.61892E-07
 -1        65-5.71352E+03-1.82266E+04-7.55975E+03-2.88544E+03 7.48947E-08-1.16946E-07
 -1        66-5.98982E+03-1.99428E+04-8.22688E+03-2.58962E+03 7.31338E-08-4.45752E-08
 -1        67-6.15793E+03-2.15076E+04-8.81280E+03-2.08851E+03 5.08731E-08 2.47358E-08
 -1        68-6.83686E+03-2.33964E+04-9.67618E+03-1.52428E+03 1.78592E-08 5.63870E-08
 -1        69-5.25784E+03-2.37585E+04-9.31658E+03-7.81402E+01-3.69235E-09 3.31357E-08
 -1        70-8.15937E+01-2.78478E+01-3.28457E+01 2.83116E+01-9.17126E-08 1.12636E-07
 -1        71-5.79584E+01 7.03078E+01 3.66062E+00 7.06499E+01-5.81853E-08 7.47002E-08
 -1        72 1.46481E+00 7.72704E+01 2.35219E+01 1.30777E+02-3.45949E-08 5.14846E-08
 -1        73-5.41823E+01-3.85656E+02-1.32291E+02 1.06830E+02-1.64763E-08 3.63551E-08
 -1        74-3.96998E+02-1.58095E+03-5.96376E+02-1.52610E+02-1.08795E-08 2.78436E-08
 -1        75-1.10917E+03-3.40785E+03-1.36879E+03-6.84359E+02-1.21710E-08 1.51716E-08
 -1        76-1.99231E+03-5.40474E+03-2.25462E+03-1.36360E+03-2.02757E-08 1.51897E-08
 -1        77-2.83493E+03-7.17997E+03-3.06833E+03-1.96911E+03-3.05768E-08-3.92763E-09
 -1        78-3.46082E+03-8.60102E+03-3.70991E+03-2.38458E+03-3.69047E-08-3.64043E-08
 -1        79-3.90551E+03-9.86058E+03-4.24798E+03-2.62681E+03-2.73641E-08-8.52677E-08
 -1        80-4.23698E+03-1.11995E+04-4.78072E+03-2.79246E+03-5.50553E-09-1.27199E-07
 -1        81-4.60367E+03-1.27843E+04-5.40898E+03-2.92409E+03 1.75098E-08-1.58548E-07
 -1        82-5.00342E+03-1.45630E+04-6.11684E+03-3.01520E+03 4.13069E-08-1.68530E-07
 -1        83-5.40646E+03-1.64222E+04-6.85894E+03-3.01574E+03 6.49781E-08-1.61896E-07
 -1        84-5.71352E+03-1.82266E+04-7.55975E+03-2.88544E+03 7.48922E-08-1.16946E-07
 -1        85-5.98982E+03-1.99428E+04-8.22688E+03-2.58962E+03 7.31352E-08-4.45716E-08
 -1        86-6.15793E+03-2.15076E+04-8.81280E+03-2.08851E+03 5.08727E-08 2.47340E-08
 -1        87-6.83686E+03-2.33964E+04-9.67618E+03-1.52428E+03 1.78592E-08 5.63870E-08
 -1        88-5.25784E+03-2.37585E+04-9.31658E+03-7.81402E+01-3.69233E-09 3.31357E-08
 -1        89-1.82703E+02-8.27262E+02-2.51077E+02 1.99345E+02 7.27225E-10 3.52061E-08
 -1        90-2.26035E+02-6.61244E+02-1.80243E+02 4.97047E+02 1.81705E-09 5.87107E-08
 -1        91-1.29569E+02-5.59417E+02-1.39607E+02 3.89250E+02 8.60804E-09 2.38733E-08
 -1        92-7.01837E+01-4.82407E+02-1.06874E+02 4.18626E+02 2.11036E-08-5.63539E-08
 -1        93 8.38178E+00-3.96733E+02-6.67043E+01 4.62350E+02 3.33723E-08-1.32226E-07
 -1        94 6.05668E+01-3.37591E+02-4.19345E+01 5.07634E+02 4.22987E-08-1.75248E-07
 -1        95 1.52818E+02-2.68271E+02-1.15167E+00 5.19247E+02 4.38224E-08-1.74224E-07
 -1        96 1.89134E+02-2.10583E+02 2.04481E+01 5.02349E+02 3.91311E-08-1.53085E-07
 -1        97 1.95892E+02-1.43331E+02 3.71393E+01 4.63616E+02 2.85167E-08-1.14571E-07
 -1        98 1.79696E+02-1.19038E+02 3.45401E+01 4.39728E+02 1.23255E-08-6.82782E-08
 -1        99 2.61575E+02-1.43974E+02 4.67962E+01 4.50067E+02-6.94828E-09-1.89041E-08
 -1       100 3.81192E+02-2.50534E+02 4.59891E+01 5.14092E+02-1.47080E-08 1.15468E-08
 -1       101 5.00356E+02-3.50819E+02 4.78438E+01 5.73288E+02-1.33877E-08 1.95906E-08
 -1       102 4.90777E+02-3.75511E+02 3.52478E+01 5.57488E+02-7.23258E-09 2.36536E-08
 -1       103 3.72387E+02-2.59255E+02 3.37299E+01 4.25515E+02-4.17054E-09 3.30336E-08
 -1       104 1.55695E+02-9.73309E+01 1.72506E+01 2.51610E+02-5.35280E-09 4.53974E-08
 -1       105-1.39158E+01 2.44776E+01 3.08111E+00 1.15664E+02-1.24750E-08 5.98083E-08
 -1       106-9.37319E+01 3.97931E+01-1.62127E+01 5.79385E+01-2.78524E-08 8.71636E-08
 -1       107-8.56363E+01 3.48191E+00-2.46648E+01 3.70424E+01-4.84897E-08 1.34699E-07
 -1       108-8.56363E+01 3.48191E+00-2.46648E+01 3.70424E+01-4.84893E-08 1.34669E-07
 -1       109-9.37319E+01 3.97931E+01-1.62127E+01 5.79385E+01-2.78541E-08 8.71682E-08
 -1       110-1.39158E+01 2.44776E+01 3.08111E+00 1.15664E+02-1.24740E-08 5.98123E-08
 -1       111 1.55695E+02-9.73309E+01 1.72506E+01 2.51610E+02-5.35510E-09 4.53947E-08
 -1       112 3.72387E+02-2.59255E+02 3.37299E+01 4.25515E+02-4.16838E-09 3.30357E-08
 -1       113 4.90777E+02-3.75511E+02 3.52478E+01 5.57488E+02-7.23232E-09 2.36523E-08
 -1       114 5.00356E+02-3.50819E+02 4.78438E+01 5.73288E+02-1.33897E-08 1.95810E-08
 -1       115 3.81192E+02-2.50534E+02 4.59891E+01 5.14092E+02-1.47059E-08 1.15568E-08
 -1       116 2.61575E+02-1.43974E+02 4.67962E+01 4.50067E+02-6.94715E-09-1.89080E-08
 -1       117 1.79696E+02-1.19038E+02 3.45401E+01 4.39728E+02 1.23254E-08-6.82779E-08
 -1       118 1.95892E+02-1.43331E+02 3.71393E+01 4.63616E+02 2.85172E-08-1.14571E-07
 -1       119 1.89134E+02-2.10583E+02 2.04481E+01 5.02349E+02 3.91311E-08-1.53085E-07
 -1       120 1.52818E+02-2.68271E+02-1.15167E+00 5.19247E+02 4.38229E-08-1.74224E-07
 -1       121 6.05668E+01-3.37591E+02-4.19345E+01 5.07634E+02 4.22988E-08-1.75248E-07
 -1       122 8.38178E+00-3.96733E+02-6.67043E+01 4.62350E+02 3.33723E-08-1.32224E-07
 -1       123-7.01837E+01-4.82407E+02-1.06874E+02 4.18626E+02 2.11034E-08-5.63514E-08
 -1       124-1.29569E+02-5.59417E+02-1.39607E+02 3.89250E+02 8.60801E-09 2.38735E-08
 -1       125-2.26035E+02-6.61244E+02-1.80243E+02 4.97047E+02 1.81711E-09 5.87107E-08
 -1       126-1.82703E+02-8.27262E+02-2.51077E+02 1.99345E+02 7.27185E-10 3.52061E-08
 -3
    1PSTEP                       343          86           1          
  100CL  186 8.60000E-01         126                     1   86           1
 -4  TOSTRAIN    6    1
 -5  EXX         1    4    1    1
 -5  EYY         1    4    2    2
 -5  EZZ         1    4    3    3
 -5  EXY         1    4    1    2
 -5  EYZ         1    4    2    3
 -5  EZX         1    4    3    1
 -1         1-2.47718E-04 5.32719E-02-4.39708E-27 2.00146E-02-4.96297E-20 3.39164E-16
 -1         2-2.47718E-04 5.32719E-02-4.39708E-27 2.00146E-02-4.96297E-20 3.39164E-16
 -1         3-1.91428E-04 1.92245E-04 9.17763E-25-6.57250E-05 2.19459E-13 6.47551E-13
 -1         4-1.91428E-04 1.92245E-04 9.17763E-25-6.57250E-05 2.19459E-13 6.47551E-13
 -1         5-1.15649E-04-2.63553E-05 9.02928E-25 1.40634E-06-1.09477E-13 6.72376E-13
 -1         6-1.15649E-04-2.63553E-05 9.02528E-25 1.40634E-06-1.09622E-13 6.72191E-13
 -1         7-2.43825E-04-5.17505E-02-3.83676E-27 1.75978E-02 7.74117E-20-3.28532E-16
 -1         8-2.43825E-04-5.17505E-02-3.83676E-27 1.75978E-02 5.25524E-20-3.28531E-16
 -1         9-1.53538E-04 6.59951E-05 8.32603E-25-3.16559E-05 6.81066E-14 6.49598E-13
 -1        10-1.53538E-04 6.59951E-05 8.32667E-25-3.16559E-05 6.81283E-14 6.49628E-13
 -1        11-2.45772E-04-6.57885E-04-4.36306E-27 1.19254E-02-2.99754E-20 5.78679E-17
 -1        12-2.45772E-04-6.57885E-04-4.36306E-27 1.19254E-02 1.64134E-20 5.78659E-17
 -1        13-1.49243E-02 5.31089E-02 2.33371E-26 3.43350E-03 1.09550E-14 1.12648E-13
 -1        14-1.18341E-02 5.11939E-02 5.16592E-26 8.50240E-04-4.43327E-14 1.61570E-13
 -1        15-1.14494E-02 4.80529E-02 1.16826E-26 1.14549E-03-1.26014E-13 4.69883E-14
 -1        16-1.06927E-02 4.51188E-02 9.88835E-26 1.14480E-03-1.78527E-13-1.91018E-13
 -1        17-9.96067E-03 4.18680E-02 4.14113E-25 1.26248E-03-1.71196E-13-4.33565E-13
 -1        18-9.20440E-03 3.83193E-02 6.68692E-25 1.32028E-03-1.05281E-13-5.66931E-13
 -1        19-8.24558E-03 3.45886E-02 6.36373E-25 1.32403E-03-2.51598E-14-5.59915E-13
 -1        20-7.36851E-03 3.09107E-02 4.83399E-25 1.26736E-03 3.23264E-14-4.90186E-13
 -1        21-6.59113E-03 2.75589E-02 2.67367E-25 1.13779E-03 7.36860E-14-3.63600E-13
 -1        22-5.99114E-03 2.46069E-02 1.04547E-25 1.02469E-03 8.51347E-14-2.27729E-13
 -1        23-5.26921E-03 2.16840E-02 5.40610E-27 1.10090E-03 8.11424E-14-4.95469E-14
 -1        24-4.46014E-03 1.81267E-02 4.71116E-27 1.40359E-03 4.77948E-14 4.50812E-14
 -1        25-3.40377E-03 1.35727E-02 1.74365E-26 1.69666E-03 3.76879E-14 8.88557E-14
 -1        26-2.26537E-03 8.49567E-03 2.58220E-26 1.66575E-03 5.20264E-14 1.03162E-13
 -1        27-1.16058E-03 4.05934E-03 3.51442E-26 1.22745E-03 7.28391E-14 1.12723E-13
 -1        28-5.22825E-04 1.27744E-03 5.67030E-26 6.11091E-04 8.50994E-14 1.47286E-13
 -1        29-3.04291E-04 2.36697E-04 9.82874E-26 1.29448E-04 1.11336E-13 1.96513E-13
 -1        30-3.29388E-04 1.59349E-04 2.18935E-25-6.22846E-05 1.56167E-13 3.01162E-13
 -1        31-2.74679E-04 2.10675E-04 5.18795E-25-6.57030E-05 2.05954E-13 4.75016E-13
 -1        32-1.49243E-02 5.31089E-02 2.33371E-26 3.43350E-03 1.09550E-14 1.12648E-13
 -1        33-1.18341E-02 5.11939E-02 5.16592E-26 8.50240E-04-4.43328E-14 1.61570E-13
 -1        34-1.14494E-02 4.80529E-02 1.16821E-26 1.14549E-03-1.26014E-13 4.69883E-14
 -1        35-1.06927E-02 4.51188E-02 9.88868E-26 1.14480E-03-1.78527E-13-1.91022E-13
 -1        36-9.96067E-03 4.18680E-02 4.14123E-25 1.26248E-03-1.71197E-13-4.33570E-13
 -1        37-9.20440E-03 3.83193E-02 6.68690E-25 1.32028E-03-1.05281E-13-5.66930E-13
 -1        38-8.24558E-03 3.45886E-02 6.36373E-25 1.32403E-03-2.51597E-14-5.59915E-13
 -1        39-7.36851E-03 3.09107E-02 4.83399E-25 1.26736E-03 3.23264E-14-4.90186E-13
 -1        40-6.59113E-03 2.75589E-02 2.67367E-25 1.13779E-03 7.36853E-14-3.63600E-13
 -1        41-5.99114E-03 2.46069E-02 1.04547E-25 1.02469E-03 8.51349E-14-2.27729E-13
 -1        42-5.26921E-03 2.16840E-02 5.40596E-27 1.10090E-03 8.11448E-14-4.95412E-14
 -1        43-4.46014E-03 1.81267E-02 4.70978E-27 1.40359E-03 4.77844E-14 4.50684E-14
 -1        44-3.40377E-03 1.35727E-02 1.74369E-26 1.69666E-03 3.76946E-14 8.88593E-14
 -1        45-2.26537E-03 8.49567E-03 2.58270E-26 1.66575E-03 5.20312E-14 1.03173E-13
 -1        46-1.16058E-03 4.05934E-03 3.51443E-26 1.22745E-03 7.28371E-14 1.12724E-13
 -1        47-5.22825E-04 1.27744E-03 5.67028E-26 6.11091E-04 8.51026E-14 1.47284E-13
 -1        48-3.04291E-04 2.36697E-04 9.82582E-26 1.29448E-04 1.11326E-13 1.96491E-13
 -1        49-3.29388E-04 1.59349E-04 2.19033E-25-6.22846E-05 1.56200E-13 3.01239E-13
 -1        50-2.74679E-04 2.10675E-04 5.18833E-25-6.57030E-05 2.05974E-13 4.75033E-13
 -1        51-1.96892E-04 5.45845E-05 4.25786E-25-1.71708E-05-9.83345E-14 4.61731E-13
 -1        52-3.00120E-04 3.16010E-04 1.79502E-25-3.51094E-05-5.75355E-14 3.02401E-13
 -1        53-3.66136E-04 4.68070E-04 7.65733E-26 1.47893E-04-2.36910E-14 2.00247E-13
 -1        54-2.54433E-04-3.18158E-04 3.18472E-26 6.41885E-04 6.25939E-15 1.29601E-13
 -1        55 2.46887E-04-2.82403E-03 1.81715E-26 1.27921E-03 9.70601E-15 9.67205E-14
 -1        56 1.09498E-03-6.99646E-03 7.28819E-27 1.70904E-03-1.32118E-14 6.20044E-14
 -1        57 2.15063E-03-1.18472E-02 1.25882E-26 1.72743E-03-3.79807E-14 7.36866E-14
 -1        58 3.03805E-03-1.62032E-02 1.68699E-26 1.44669E-03-9.74508E-14 3.13711E-14
 -1        59 3.68677E-03-1.95736E-02 5.01905E-26 1.15551E-03-1.62295E-13-5.85487E-14
 -1        60 4.16982E-03-2.23291E-02 1.60680E-25 1.05883E-03-1.95977E-13-2.21103E-13
 -1        61 4.75698E-03-2.51577E-02 3.35943E-25 1.15498E-03-1.74374E-13-3.79411E-13
 -1        62 5.41481E-03-2.84478E-02 5.33708E-25 1.30392E-03-1.27116E-13-5.06142E-13
 -1        63 6.14575E-03-3.21312E-02 6.32263E-25 1.37808E-03-4.48816E-14-5.65425E-13
 -1        64 6.86591E-03-3.59307E-02 6.35115E-25 1.35173E-03 5.99104E-14-5.67773E-13
 -1        65 7.64242E-03-3.96010E-02 3.94413E-25 1.27030E-03 1.54090E-13-4.30523E-13
 -1        66 8.31082E-03-4.30097E-02 1.43262E-25 1.16189E-03 2.17900E-13-1.90882E-13
 -1        67 9.01801E-03-4.61147E-02 6.11815E-26 1.20529E-03 1.88239E-13 5.41212E-14
 -1        68 9.08492E-03-4.96842E-02 6.90588E-26 8.69499E-04 8.24957E-14 1.77477E-13
 -1        69 1.25649E-02-5.17648E-02 1.91925E-26 3.26035E-03-7.59724E-15 1.08783E-13
 -1        70-1.96892E-04 5.45845E-05 4.26010E-25-1.71708E-05-9.82698E-14 4.61848E-13
 -1        71-3.00120E-04 3.16010E-04 1.79482E-25-3.51094E-05-5.75400E-14 3.02388E-13
 -1        72-3.66136E-04 4.68070E-04 7.65860E-26 1.47893E-04-2.36888E-14 2.00263E-13
 -1        73-2.54433E-04-3.18158E-04 3.18648E-26 6.41885E-04 6.27583E-15 1.29632E-13
 -1        74 2.46887E-04-2.82403E-03 1.81815E-26 1.27921E-03 9.71695E-15 9.67450E-14
 -1        75 1.09498E-03-6.99646E-03 7.28879E-27 1.70904E-03-1.32115E-14 6.20058E-14
 -1        76 2.15063E-03-1.18472E-02 1.25891E-26 1.72743E-03-3.79764E-14 7.36903E-14
 -1        77 3.03805E-03-1.62032E-02 1.68702E-26 1.44669E-03-9.74637E-14 3.13419E-14
 -1        78 3.68677E-03-1.95736E-02 5.02082E-26 1.15551E-03-1.62318E-13-5.85709E-14
 -1        79 4.16982E-03-2.23291E-02 1.60673E-25 1.05883E-03-1.95975E-13-2.21099E-13
 -1        80 4.75698E-03-2.51577E-02 3.35969E-25 1.15498E-03-1.74380E-13-3.79426E-13
 -1        81 5.41481E-03-2.84478E-02 5.33708E-25 1.30392E-03-1.27116E-13-5.06142E-13
 -1        82 6.14575E-03-3.21312E-02 6.32263E-25 1.37808E-03-4.48814E-14-5.65425E-13
 -1        83 6.86591E-03-3.59307E-02 6.35144E-25 1.35173E-03 5.99135E-14-5.67786E-13
 -1        84 7.64242E-03-3.96010E-02 3.94400E-25 1.27030E-03 1.54082E-13-4.30519E-13
 -1        85 8.31082E-03-4.30097E-02 1.43260E-25 1.16189E-03 2.17907E-13-1.90871E-13
 -1        86 9.01801E-03-4.61147E-02 6.11804E-26 1.20529E-03 1.88237E-13 5.41159E-14
 -1        87 9.08492E-03-4.96842E-02 6.90588E-26 8.69499E-04 8.24957E-14 1.77477E-13
 -1        88 1.25649E-02-5.17648E-02 1.91925E-26 3.26035E-03-7.59717E-15 1.08783E-13
 -1        89-1.17974E-03-1.93373E-04 2.31823E-26 7.47384E-04 7.66548E-15 1.14214E-13
 -1        90-1.37461E-03 2.77457E-04 6.85981E-26 1.73012E-03 2.51961E-14 1.89275E-13
 -1        91-1.21569E-03 3.45932E-04-8.82263E-27 1.41429E-03 3.91121E-14 7.23620E-14
 -1        92-1.19096E-03 4.94354E-04 4.14304E-26 1.51082E-03 3.06517E-14-1.93373E-13
 -1        93-1.15912E-03 6.70726E-04 3.71854E-25 1.63266E-03 2.09710E-15-4.43619E-13
 -1        94-1.16924E-03 8.22023E-04 6.83694E-25 1.73685E-03-2.60393E-14-5.85806E-13
 -1        95-1.04991E-03 9.10814E-04 6.83016E-25 1.76126E-03-4.07023E-14-5.82764E-13
 -1        96-9.76850E-04 9.59166E-04 5.22734E-25 1.66572E-03-4.97155E-14-5.11290E-13
 -1        97-9.17076E-04 9.94214E-04 2.82551E-25 1.47414E-03-5.00658E-14-3.80503E-13
 -1        98-9.10656E-04 9.94198E-04 8.57189E-26 1.34066E-03-4.93386E-14-2.20006E-13
 -1        99-7.91222E-04 9.42875E-04-3.22038E-27 1.46085E-03-4.55819E-14-4.66680E-14
 -1       100-7.11042E-04 8.74638E-04 3.78160E-27 1.85020E-03-2.70299E-14 5.44913E-14
 -1       101-6.26570E-04 8.13573E-04 1.12376E-26 2.22924E-03-1.08730E-14 7.64219E-14
 -1       102-5.85197E-04 7.29593E-04 1.21499E-26 2.20572E-03 1.36547E-14 7.92167E-14
 -1       103-4.56848E-04 6.00903E-04 2.25574E-26 1.63986E-03 3.67477E-14 1.01696E-13
 -1       104-3.88629E-04 4.63160E-04 4.28470E-26 8.10171E-04 5.18180E-14 1.39191E-13
 -1       105-3.35214E-04 3.48563E-04 7.52348E-26 1.68563E-04 5.25902E-14 1.91510E-13
 -1       106-3.14754E-04 2.44502E-04 1.66937E-25-6.61507E-05 4.86303E-14 2.93498E-13
 -1       107-2.35786E-04 1.28919E-04 4.15130E-25-4.72518E-05 5.94305E-14 4.61604E-13
 -1       108-2.35786E-04 1.28919E-04 4.14970E-25-4.72518E-05 5.93873E-14 4.61516E-13
 -1       109-3.14754E-04 2.44502E-04 1.66972E-25-6.61507E-05 4.86323E-14 2.93514E-13
 -1       110-3.35214E-04 3.48563E-04 7.52484E-26 1.68563E-04 5.25991E-14 1.91520E-13
 -1       111-3.88629E-04 4.63160E-04 4.28429E-26 8.10171E-04 5.18073E-14 1.39187E-13
 -1       112-4.56848E-04 6.00903E-04 2.25600E-26 1.63986E-03 3.67571E-14 1.01699E-13
 -1       113-5.85197E-04 7.29593E-04 1.21481E-26 2.20572E-03 1.36536E-14 7.92126E-14
 -1       114-6.26570E-04 8.13573E-04 1.12305E-26 2.22924E-03-1.08927E-14 7.63967E-14
 -1       115-7.11042E-04 8.74638E-04 3.78392E-27 1.85020E-03-2.70098E-14 5.45180E-14
 -1       116-7.91222E-04 9.42875E-04-3.22056E-27 1.46085E-03-4.55838E-14-4.66812E-14
 -1       117-9.10656E-04 9.94198E-04 8.57190E-26 1.34066E-03-4.93387E-14-2.20005E-13
 -1       118-9.17076E-04 9.94214E-04 2.82548E-25 1.47414E-03-5.00633E-14-3.80501E-13
 -1       119-9.76850E-04 9.59166E-04 5.22734E-25 1.66572E-03-4.97156E-14-5.11290E-13
 -1       120-1.04991E-03 9.10814E-04 6.83017E-25 1.76126E-03-4.07006E-14-5.82764E-13
 -1       121-1.16924E-03 8.22023E-04 6.83691E-25 1.73685E-03-2.60387E-14-5.85804E-13
 -1       122-1.15912E-03 6.70726E-04 3.71838E-25 1.63266E-03 2.09929E-15-4.43611E-13
 -1       123-1.19096E-03 4.94354E-04 4.14242E-26 1.51082E-03 3.06526E-14-1.93364E-13
 -1       124-1.21569E-03 3.45932E-04-8.82150E-27 1.41429E-03 3.91121E-14 7.23625E-14
 -1       125-1.37461E-03 2.77457E-04 6.85981E-26 1.73012E-03 2.51963E-14 1.89275E-13
 -1       126-1.17974E-03-1.93373E-04 2.31822E-26 7.47384E-04 7.66534E-15 1.14214E-13
 -3
    1PSTEP                       344          86           1          
  100CL  186 8.60000E-01         126                     1   86           1
 -4  ERROR       1    1
 -5  STR(%)      1    1    0    0
 -1         1 6.33298E+01
 -1         2 6.33298E+01
 -1         3 2.17302E+01
 -1         4 2.17302E+01
 -1         5 2.43403E+01
 -1         6 2.43403E+01
 -1         7 5.88957E+01
 -1         8 5.88957E+01
 -1         9 2.43403E+01
 -1        10 2.43403E+01
 -1        11 6.33298E+01
 -1        12 6.33298E+01
 -1        13 6.33298E+01
 -1        14 6.19067E+01
 -1        15 6.16526E+01
 -1        16 6.14266E+01
 -1        17 6.11884E+01
 -1        18 6.09611E+01
 -1        19 6.05771E+01
 -1        20 6.02910E+01
 -1        21 5.98912E+01
 -1        22 5.95188E+01
 -1        23 5.92766E+01
 -1        24 5.92766E+01
 -1        25 5.87278E+01
 -1        26 5.55129E+01
 -1        27 4.65490E+01
 -1        28 2.87967E+01
 -1        29 1.89773E+01
 -1        30 9.60556E+00
 -1        31 2.17302E+01
 -1        32 6.33298E+01
 -1        33 6.19067E+01
 -1        34 6.16526E+01
 -1        35 6.14266E+01
 -1        36 6.11884E+01
 -1        37 6.09611E+01
 -1        38 6.05771E+01
 -1        39 6.02910E+01
 -1        40 5.98912E+01
 -1        41 5.95188E+01
 -1        42 5.92766E+01
 -1        43 5.92766E+01
 -1        44 5.87278E+01
 -1        45 5.55129E+01
 -1        46 4.65490E+01
 -1        47 2.87967E+01
 -1        48 1.89773E+01
 -1        49 9.60556E+00
 -1        50 2.17302E+01
 -1        51 2.43403E+01
 -1        52 2.37767E+01
 -1        53 2.37767E+01
 -1        54 3.31508E+01
 -1        55 5.44578E+01
 -1        56 6.33287E+01
 -1        57 6.58038E+01
 -1        58 6.58038E+01
 -1        59 6.49902E+01
 -1        60 6.41523E+01
 -1        61 6.36595E+01
 -1        62 6.32988E+01
 -1        63 6.27486E+01
 -1        64 6.21053E+01
 -1        65 6.13143E+01
 -1        66 6.05948E+01
 -1        67 5.99644E+01
 -1        68 5.97162E+01
 -1        69 5.97162E+01
 -1        70 2.43403E+01
 -1        71 2.37767E+01
 -1        72 2.37767E+01
 -1        73 3.31508E+01
 -1        74 5.44578E+01
 -1        75 6.33287E+01
 -1        76 6.58038E+01
 -1        77 6.58038E+01
 -1        78 6.49902E+01
 -1        79 6.41523E+01
 -1        80 6.36595E+01
 -1        81 6.32988E+01
 -1        82 6.27486E+01
 -1        83 6.21053E+01
 -1        84 6.13143E+01
 -1        85 6.05948E+01
 -1        86 5.99644E+01
 -1        87 5.97162E+01
 -1        88 5.97162E+01
 -1        89 6.33298E+01
 -1        90 6.19067E+01
 -1        91 6.16526E+01
 -1        92 6.14266E+01
 -1        93 6.13143E+01
 -1        94 6.21053E+01
 -1        95 6.27486E+01
 -1        96 6.32988E+01
 -1        97 6.36595E+01
 -1        98 6.41523E+01
 -1        99 6.49902E+01
 -1       100 6.58038E+01
 -1       101 6.58038E+01
 -1       102 6.33287E+01
 -1       103 5.44578E+01
 -1       104 3.31508E+01
 -1       105 2.37767E+01
 -1       106 2.37767E+01
 -1       107 2.43403E+01
 -1       108 2.43403E+01
 -1       109 2.37767E+01
 -1       110 2.37767E+01
 -1       111 3.31508E+01
 -1       112 5.44578E+01
 -1       113 6.33287E+01
 -1       114 6.58038E+01
 -1       115 6.58038E+01
 -1       116 6.49902E+01
 -1       117 6.41523E+01
 -1       118 6.36595E+01
 -1       119 6.32988E+01
 -1       120 6.27486E+01
 -1       121 6.21053E+01
 -1       122 6.13143E+01
 -1       123 6.14266E+01
 -1       124 6.16526E+01
 -1       125 6.19067E+01
 -1       126 6.33298E+01
 -3
    1PSTEP                       345          87           1          
  100CL  187 8.70000E-01         126                     1   87           1
 -4  DISP        4    1
 -5  D1          1    2    1    0
 -5  D2          1    2    2    0
 -5  D3          1    2    3    0
 -5  ALL         1    2    0    0    1ALL
 -1         1 0.00000E+00 0.00000E+00 0.00000E+00
 -1         2 0.00000E+00 0.00000E+00 0.00000E+00
 -1         3 3.45929E-01-4.71510E-02 0.00000E+00
 -1         4 3.45929E-01-4.71510E-02 0.00000E+00
 -1         5 3.34789E-01-9.29839E-02 0.00000E+00
 -1         6 3.34789E-01-9.29839E-02 0.00000E+00
 -1         7 0.00000E+00 0.00000E+00 0.00000E+00
 -1         8 0.00000E+00 0.00000E+00 0.00000E+00
 -1         9 3.40358E-01-7.00662E-02 0.00000E+00
 -1        10 3.40358E-01-7.00662E-02 0.00000E+00
 -1        11 0.00000E+00 0.00000E+00 0.00000E+00
 -1        12 0.00000E+00 0.00000E+00 0.00000E+00
 -1        13 2.06004E-03 2.64595E-03 0.00000E+00
 -1        14 6.51294E-03 5.12448E-03 0.00000E+00
 -1        15 1.37364E-02 7.09089E-03 0.00000E+00
 -1        16 2.34145E-02 8.47564E-03 0.00000E+00
 -1        17 3.53166E-02 9.19437E-03 0.00000E+00
 -1        18 4.91850E-02 9.20615E-03 0.00000E+00
 -1        19 6.47491E-02 8.52100E-03 0.00000E+00
 -1        20 8.18092E-02 7.17942E-03 0.00000E+00
 -1        21 1.00233E-01 5.21863E-03 0.00000E+00
 -1        22 1.19940E-01 2.63338E-03 0.00000E+00
 -1        23 1.40800E-01-6.02690E-04 0.00000E+00
 -1        24 1.62623E-01-4.50244E-03 0.00000E+00
 -1        25 1.85136E-01-9.01372E-03 0.00000E+00
 -1        26 2.08053E-01-1.40223E-02 0.00000E+00
 -1        27 2.31119E-01-1.93666E-02 0.00000E+00
 -1        28 2.54178E-01-2.48893E-02 0.00000E+00
 -1        29 2.77167E-01-3.04665E-02 0.00000E+00
 -1        30 3.00102E-01-3.60392E-02 0.00000E+00
 -1        31 3.23014E-01-4.15965E-02 0.00000E+00
 -1        32 2.06004E-03 2.64595E-03 0.00000E+00
 -1        33 6.51294E-03 5.12448E-03 0.00000E+00
 -1        34 1.37364E-02 7.09089E-03 0.00000E+00
 -1        35 2.34145E-02 8.47564E-03 0.00000E+00
 -1        36 3.53166E-02 9.19437E-03 0.00000E+00
 -1        37 4.91850E-02 9.20615E-03 0.00000E+00
 -1        38 6.47491E-02 8.52100E-03 0.00000E+00
 -1        39 8.18092E-02 7.17942E-03 0.00000E+00
 -1        40 1.00233E-01 5.21863E-03 0.00000E+00
 -1        41 1.19940E-01 2.63338E-03 0.00000E+00
 -1        42 1.40800E-01-6.02690E-04 0.00000E+00
 -1        43 1.62623E-01-4.50244E-03 0.00000E+00
 -1        44 1.85136E-01-9.01372E-03 0.00000E+00
 -1        45 2.08053E-01-1.40223E-02 0.00000E+00
 -1        46 2.31119E-01-1.93666E-02 0.00000E+00
 -1        47 2.54178E-01-2.48893E-02 0.00000E+00
 -1        48 2.77167E-01-3.04665E-02 0.00000E+00
 -1        49 3.00102E-01-3.60392E-02 0.00000E+00
 -1        50 3.23014E-01-4.15965E-02 0.00000E+00
 -1        51 3.11867E-01-8.74249E-02 0.00000E+00
 -1        52 2.88939E-01-8.18796E-02 0.00000E+00
 -1        53 2.65985E-01-7.63386E-02 0.00000E+00
 -1        54 2.42987E-01-7.07660E-02 0.00000E+00
 -1        55 2.19988E-01-6.51154E-02 0.00000E+00
 -1        56 1.97118E-01-5.93629E-02 0.00000E+00
 -1        57 1.74608E-01-5.35432E-02 0.00000E+00
 -1        58 1.52719E-01-4.77434E-02 0.00000E+00
 -1        59 1.31710E-01-4.20889E-02 0.00000E+00
 -1        60 1.11786E-01-3.67074E-02 0.00000E+00
 -1        61 9.30839E-02-3.16955E-02 0.00000E+00
 -1        62 7.56695E-02-2.70832E-02 0.00000E+00
 -1        63 5.96152E-02-2.28448E-02 0.00000E+00
 -1        64 4.50512E-02-1.89288E-02 0.00000E+00
 -1        65 3.21822E-02-1.52966E-02 0.00000E+00
 -1        66 2.12235E-02-1.19215E-02 0.00000E+00
 -1        67 1.23815E-02-8.76956E-03 0.00000E+00
 -1        68 5.81295E-03-5.78178E-03 0.00000E+00
 -1        69 1.82681E-03-2.82324E-03 0.00000E+00
 -1        70 3.11867E-01-8.74249E-02 0.00000E+00
 -1        71 2.88939E-01-8.18796E-02 0.00000E+00
 -1        72 2.65985E-01-7.63386E-02 0.00000E+00
 -1        73 2.42987E-01-7.07660E-02 0.00000E+00
 -1        74 2.19988E-01-6.51154E-02 0.00000E+00
 -1        75 1.97118E-01-5.93629E-02 0.00000E+00
 -1        76 1.74608E-01-5.35432E-02 0.00000E+00
 -1        77 1.52719E-01-4.77434E-02 0.00000E+00
 -1        78 1.31710E-01-4.20889E-02 0.00000E+00
 -1        79 1.11786E-01-3.67074E-02 0.00000E+00
 -1        80 9.30839E-02-3.16955E-02 0.00000E+00
 -1        81 7.56695E-02-2.70832E-02 0.00000E+00
 -1        82 5.96152E-02-2.28448E-02 0.00000E+00
 -1        83 4.50512E-02-1.89288E-02 0.00000E+00
 -1        84 3.21822E-02-1.52966E-02 0.00000E+00
 -1        85 2.12235E-02-1.19215E-02 0.00000E+00
 -1        86 1.23815E-02-8.76956E-03 0.00000E+00
 -1        87 5.81295E-03-5.78178E-03 0.00000E+00
 -1        88 1.82681E-03-2.82324E-03 0.00000E+00
 -1        89 1.22653E-03-6.47524E-05 0.00000E+00
 -1        90 5.62363E-03-2.64271E-04 0.00000E+00
 -1        91 1.25438E-02-7.49683E-04 0.00000E+00
 -1        92 2.18547E-02-1.62056E-03 0.00000E+00
 -1        93 3.33325E-02-2.94114E-03 0.00000E+00
 -1        94 4.67481E-02-4.74805E-03 0.00000E+00
 -1        95 6.18541E-02-7.04926E-03 0.00000E+00
 -1        96 7.84414E-02-9.84077E-03 0.00000E+00
 -1        97 9.63844E-02-1.31276E-02 0.00000E+00
 -1        98 1.15615E-01-1.69274E-02 0.00000E+00
 -1        99 1.36045E-01-2.12449E-02 0.00000E+00
 -1       100 1.57507E-01-2.60401E-02 0.00000E+00
 -1       101 1.79760E-01-3.12196E-02 0.00000E+00
 -1       102 2.02522E-01-3.66573E-02 0.00000E+00
 -1       103 2.25527E-01-4.22250E-02 0.00000E+00
 -1       104 2.48578E-01-4.78236E-02 0.00000E+00
 -1       105 2.71579E-01-5.34027E-02 0.00000E+00
 -1       106 2.94522E-01-5.89590E-02 0.00000E+00
 -1       107 3.17441E-01-6.45091E-02 0.00000E+00
 -1       108 3.17441E-01-6.45091E-02 0.00000E+00
 -1       109 2.94522E-01-5.89590E-02 0.00000E+00
 -1       110 2.71579E-01-5.34027E-02 0.00000E+00
 -1       111 2.48578E-01-4.78236E-02 0.00000E+00
 -1       112 2.25527E-01-4.22250E-02 0.00000E+00
 -1       113 2.02522E-01-3.66573E-02 0.00000E+00
 -1       114 1.79760E-01-3.12196E-02 0.00000E+00
 -1       115 1.57507E-01-2.60401E-02 0.00000E+00
 -1       116 1.36045E-01-2.12449E-02 0.00000E+00
 -1       117 1.15615E-01-1.69274E-02 0.00000E+00
 -1       118 9.63844E-02-1.31276E-02 0.00000E+00
 -1       119 7.84414E-02-9.84077E-03 0.00000E+00
 -1       120 6.18541E-02-7.04926E-03 0.00000E+00
 -1       121 4.67481E-02-4.74805E-03 0.00000E+00
 -1       122 3.33325E-02-2.94114E-03 0.00000E+00
 -1       123 2.18547E-02-1.62056E-03 0.00000E+00
 -1       124 1.25438E-02-7.49683E-04 0.00000E+00
 -1       125 5.62363E-03-2.64271E-04 0.00000E+00
 -1       126 1.22653E-03-6.47524E-05 0.00000E+00
 -3
    1PSTEP                       346          87           1          
  100CL  187 8.70000E-01         126                     1   87           1
 -4  STRESS      6    1
 -5  SXX         1    4    1    1
 -5  SYY         1    4    2    2
 -5  SZZ         1    4    3    3
 -5  SXY         1    4    1    2
 -5  SYZ         1    4    2    3
 -5  SZX         1    4    3    1
 -1         1 1.25032E+04 3.06312E+04 1.20869E+04 7.39424E+03-7.30339E-12-2.29081E-11
 -1         2 1.25032E+04 3.06312E+04 1.20869E+04 7.39424E+03-7.30339E-12-2.29081E-11
 -1         3-7.65706E+01 1.23075E+01-1.92895E+01 2.02506E+01-4.73197E-08 1.74306E-07
 -1         4-7.65706E+01 1.23075E+01-1.92895E+01 2.02506E+01-4.73197E-08 1.74321E-07
 -1         5-4.25382E+01 1.55428E+00-1.22996E+01 2.63516E+01-1.41130E-07 1.16261E-07
 -1         6-4.25382E+01 1.55428E+00-1.22996E+01 2.63516E+01-1.41103E-07 1.16262E-07
 -1         7-1.29710E+04-2.81289E+04-1.32516E+04 4.67051E+03-5.11523E-11 1.49900E-10
 -1         8-1.29710E+04-2.81289E+04-1.32516E+04 4.67051E+03-5.11598E-11 1.49900E-10
 -1         9-6.74735E+01 5.88869E-01-2.00727E+01 1.92396E+01-9.65324E-08 1.49692E-07
 -1        10-6.74735E+01 5.88869E-01-2.00727E+01 1.92396E+01-9.65364E-08 1.49662E-07
 -1        11-1.64305E+02-1.15268E+03-2.29175E+02 3.73585E+03 1.13228E-11 5.92095E-11
 -1        12-1.64305E+02-1.15268E+03-2.29175E+02 3.73585E+03 1.13369E-11 5.92093E-11
 -1        13 4.58762E+03 2.70890E+04 8.87690E+03 2.46336E+03-2.23955E-09-6.95947E-10
 -1        14 5.95244E+03 2.63498E+04 9.07115E+03 2.64278E+03-4.57671E-09-1.71780E-08
 -1        15 5.66663E+03 2.38715E+04 8.33454E+03 3.52899E+03-1.97185E-09-3.30690E-08
 -1        16 5.59799E+03 2.15823E+04 7.70443E+03 4.02025E+03-2.36219E-09-3.98583E-08
 -1        17 5.42775E+03 1.92026E+04 7.01527E+03 4.29214E+03 1.85049E-09-7.77882E-08
 -1        18 5.16575E+03 1.69394E+04 6.32705E+03 4.33055E+03 1.93565E-08-1.07009E-07
 -1        19 4.95414E+03 1.50601E+04 5.75387E+03 4.21736E+03 4.38204E-08-1.19651E-07
 -1        20 4.74868E+03 1.35885E+04 5.28909E+03 4.10703E+03 5.94003E-08-9.61031E-08
 -1        21 4.60135E+03 1.23364E+04 4.89745E+03 4.03789E+03 5.24013E-08-4.43831E-08
 -1        22 4.39847E+03 1.09216E+04 4.44211E+03 3.92572E+03 2.28859E-08 4.85310E-09
 -1        23 4.09513E+03 9.14170E+03 3.85402E+03 3.61097E+03-1.48461E-08 2.99536E-08
 -1        24 3.48895E+03 6.96383E+03 3.06039E+03 3.05360E+03-4.32692E-08 1.44220E-08
 -1        25 2.63219E+03 4.67491E+03 2.15293E+03 2.29924E+03-3.60090E-08-3.50679E-08
 -1        26 1.64969E+03 2.61440E+03 1.26406E+03 1.49568E+03-8.49738E-10-8.35872E-08
 -1        27 8.28613E+02 1.12222E+03 5.81243E+02 7.87324E+02 2.89162E-08-7.48750E-08
 -1        28 2.40111E+02 2.60560E+02 1.49575E+02 3.16042E+02 3.89048E-08-2.83972E-08
 -1        29-5.39748E+01-5.34201E+01-3.22832E+01 8.82758E+01 2.86806E-08 1.97949E-08
 -1        30-1.50363E+02-8.34059E+01-7.01611E+01 3.05818E+01 5.12908E-09 7.60712E-08
 -1        31-1.16727E+02-2.65045E+01-4.29869E+01 2.61466E+01-2.26274E-08 1.29663E-07
 -1        32 4.58762E+03 2.70890E+04 8.87690E+03 2.46336E+03-2.23955E-09-6.95947E-10
 -1        33 5.95244E+03 2.63498E+04 9.07115E+03 2.64278E+03-4.57670E-09-1.71780E-08
 -1        34 5.66663E+03 2.38715E+04 8.33454E+03 3.52899E+03-1.97179E-09-3.30690E-08
 -1        35 5.59799E+03 2.15823E+04 7.70443E+03 4.02025E+03-2.36225E-09-3.98586E-08
 -1        36 5.42775E+03 1.92026E+04 7.01527E+03 4.29214E+03 1.85060E-09-7.77879E-08
 -1        37 5.16575E+03 1.69394E+04 6.32705E+03 4.33055E+03 1.93564E-08-1.07010E-07
 -1        38 4.95414E+03 1.50601E+04 5.75387E+03 4.21736E+03 4.38204E-08-1.19653E-07
 -1        39 4.74868E+03 1.35885E+04 5.28909E+03 4.10703E+03 5.94003E-08-9.61031E-08
 -1        40 4.60135E+03 1.23364E+04 4.89745E+03 4.03789E+03 5.24013E-08-4.43849E-08
 -1        41 4.39847E+03 1.09216E+04 4.44211E+03 3.92572E+03 2.28859E-08 4.85019E-09
 -1        42 4.09513E+03 9.14170E+03 3.85402E+03 3.61097E+03-1.48460E-08 2.99537E-08
 -1        43 3.48895E+03 6.96383E+03 3.06039E+03 3.05360E+03-4.32697E-08 1.44223E-08
 -1        44 2.63219E+03 4.67491E+03 2.15293E+03 2.29924E+03-3.60093E-08-3.50678E-08
 -1        45 1.64969E+03 2.61440E+03 1.26406E+03 1.49568E+03-8.49680E-10-8.35875E-08
 -1        46 8.28613E+02 1.12222E+03 5.81243E+02 7.87324E+02 2.89152E-08-7.48787E-08
 -1        47 2.40111E+02 2.60560E+02 1.49575E+02 3.16042E+02 3.89050E-08-2.83963E-08
 -1        48-5.39748E+01-5.34201E+01-3.22832E+01 8.82758E+01 2.86807E-08 1.98156E-08
 -1        49-1.50363E+02-8.34059E+01-7.01611E+01 3.05818E+01 5.12828E-09 7.60656E-08
 -1        50-1.16727E+02-2.65045E+01-4.29869E+01 2.61466E+01-2.26304E-08 1.29662E-07
 -1        51-5.20933E+01 4.32258E+01-2.68688E+00 5.64991E+01-1.23743E-07 7.38857E-08
 -1        52-1.35031E+01 1.49298E+02 4.06495E+01 1.13137E+02-9.65946E-08 2.69731E-08
 -1        53 3.59328E+01 1.25666E+02 4.83376E+01 1.61302E+02-6.48639E-08-2.23908E-08
 -1        54-3.39335E+01-3.05487E+02-1.02093E+02 1.24044E+02-2.75810E-08-6.28657E-08
 -1        55-3.41317E+02-1.34433E+03-5.07820E+02-1.06445E+02 1.33041E-08-8.18014E-08
 -1        56-9.69690E+02-2.99789E+03-1.20067E+03-5.71076E+02 3.51362E-08-5.07362E-08
 -1        57-1.80624E+03-5.02180E+03-2.07866E+03-1.21853E+03 2.44898E-08-3.25471E-09
 -1        58-2.73413E+03-7.12820E+03-3.02141E+03-1.89894E+03-6.76482E-09 2.46567E-08
 -1        59-3.55858E+03-9.00311E+03-3.86990E+03-2.47507E+03-3.87851E-08 1.80566E-08
 -1        60-4.16717E+03-1.04833E+04-4.53229E+03-2.85168E+03-4.46116E-08-2.34082E-08
 -1        61-4.48955E+03-1.16129E+04-4.99606E+03-3.02579E+03-2.75054E-08-8.25203E-08
 -1        62-4.68848E+03-1.27275E+04-5.41822E+03-3.04836E+03 5.76969E-09-1.16222E-07
 -1        63-4.90696E+03-1.41409E+04-5.94774E+03-3.01596E+03 3.49630E-08-1.20728E-07
 -1        64-5.24390E+03-1.59617E+04-6.65530E+03-2.96968E+03 5.40374E-08-1.04431E-07
 -1        65-5.60721E+03-1.80097E+04-7.45582E+03-2.87326E+03 5.37022E-08-6.35297E-08
 -1        66-6.00006E+03-2.01142E+04-8.29306E+03-2.63524E+03 3.77112E-08-3.29570E-08
 -1        67-6.29382E+03-2.21172E+04-9.07250E+03-2.17253E+03 2.82514E-08-2.89109E-08
 -1        68-7.10010E+03-2.43970E+04-1.01186E+04-1.62502E+03 2.27030E-08-1.47728E-08
 -1        69-5.48418E+03-2.48987E+04-9.79703E+03-1.30782E+02 1.23126E-08-2.23613E-09
 -1        70-5.20933E+01 4.32258E+01-2.68688E+00 5.64991E+01-1.23745E-07 7.38907E-08
 -1        71-1.35031E+01 1.49298E+02 4.06495E+01 1.13137E+02-9.65951E-08 2.69712E-08
 -1        72 3.59328E+01 1.25666E+02 4.83376E+01 1.61302E+02-6.48617E-08-2.23908E-08
 -1        73-3.39335E+01-3.05487E+02-1.02093E+02 1.24044E+02-2.75826E-08-6.28657E-08
 -1        74-3.41317E+02-1.34433E+03-5.07820E+02-1.06445E+02 1.33064E-08-8.18014E-08
 -1        75-9.69690E+02-2.99789E+03-1.20067E+03-5.71076E+02 3.51356E-08-5.07363E-08
 -1        76-1.80624E+03-5.02180E+03-2.07866E+03-1.21853E+03 2.44904E-08-3.25401E-09
 -1        77-2.73413E+03-7.12820E+03-3.02141E+03-1.89894E+03-6.76902E-09 2.46567E-08
 -1        78-3.55858E+03-9.00311E+03-3.86990E+03-2.47507E+03-3.87844E-08 1.80578E-08
 -1        79-4.16717E+03-1.04833E+04-4.53229E+03-2.85168E+03-4.46150E-08-2.34012E-08
 -1        80-4.48955E+03-1.16129E+04-4.99606E+03-3.02579E+03-2.75044E-08-8.25227E-08
 -1        81-4.68848E+03-1.27275E+04-5.41822E+03-3.04836E+03 5.76969E-09-1.16222E-07
 -1        82-4.90696E+03-1.41409E+04-5.94774E+03-3.01596E+03 3.49629E-08-1.20729E-07
 -1        83-5.24390E+03-1.59617E+04-6.65530E+03-2.96968E+03 5.40360E-08-1.04435E-07
 -1        84-5.60721E+03-1.80097E+04-7.45582E+03-2.87326E+03 5.37023E-08-6.35286E-08
 -1        85-6.00006E+03-2.01142E+04-8.29306E+03-2.63524E+03 3.77129E-08-3.29603E-08
 -1        86-6.29382E+03-2.21172E+04-9.07250E+03-2.17253E+03 2.82512E-08-2.89108E-08
 -1        87-7.10010E+03-2.43970E+04-1.01186E+04-1.62502E+03 2.27030E-08-1.47729E-08
 -1        88-5.48418E+03-2.48987E+04-9.79703E+03-1.30782E+02 1.23126E-08-2.23611E-09
 -1        89-1.76232E+02-1.15344E+03-3.44562E+02 1.89523E+02 6.55128E-09 1.62345E-09
 -1        90-2.19956E+02-9.95485E+02-2.73933E+02 5.52582E+02 1.14268E-08-1.52381E-08
 -1        91-9.56138E+01-8.58546E+02-2.16849E+02 4.67061E+02 1.47797E-08-2.83760E-08
 -1        92-2.32324E+01-7.38626E+02-1.69540E+02 4.87469E+02 1.90047E-08-3.59217E-08
 -1        93 5.21431E+01-5.99667E+02-1.15966E+02 5.03421E+02 2.83950E-08-6.80446E-08
 -1        94 7.27226E+01-4.69728E+02-7.93103E+01 4.91432E+02 3.82923E-08-1.09565E-07
 -1        95 9.80371E+01-3.16082E+02-3.21690E+01 4.18126E+02 3.99808E-08-1.26080E-07
 -1        96 7.40198E+01-2.05224E+02-1.18350E+01 3.46283E+02 2.96331E-08-1.12212E-07
 -1        97 9.55195E+01-1.62777E+02 1.95242E+00 3.39244E+02 1.04432E-08-6.55226E-08
 -1        98 1.75066E+02-2.23342E+02 2.24190E+00 4.14454E+02-1.39284E-08-8.73344E-09
 -1        99 3.54161E+02-3.09102E+02 2.50266E+01 5.08093E+02-3.22944E-08 3.07910E-08
 -1       100 4.86982E+02-3.88920E+02 3.59817E+01 5.80600E+02-2.65463E-08 2.41421E-08
 -1       101 5.38004E+02-3.96803E+02 4.50613E+01 5.91278E+02-4.01035E-09-1.74772E-08
 -1       102 4.57910E+02-3.40626E+02 3.56798E+01 5.30934E+02 1.83882E-08-7.15860E-08
 -1       103 3.26495E+02-2.04499E+02 3.63714E+01 3.95712E+02 2.22969E-08-8.44334E-08
 -1       104 1.41673E+02-6.94712E+01 2.14216E+01 2.47691E+02 6.09050E-09-5.28745E-08
 -1       105 2.11678E-02 2.56414E+01 7.60094E+00 1.31295E+02-1.96678E-08-1.27908E-09
 -1       106-8.32351E+01 3.93790E+01-1.31928E+01 7.03368E+01-4.75790E-08 4.87739E-08
 -1       107-8.92343E+01 9.57543E+00-2.39155E+01 3.82824E+01-7.34702E-08 9.98625E-08
 -1       108-8.92343E+01 9.57543E+00-2.39155E+01 3.82824E+01-7.34699E-08 9.98438E-08
 -1       109-8.32351E+01 3.93790E+01-1.31928E+01 7.03368E+01-4.75788E-08 4.87818E-08
 -1       110 2.11678E-02 2.56414E+01 7.60094E+00 1.31295E+02-1.96689E-08-1.28185E-09
 -1       111 1.41673E+02-6.94712E+01 2.14216E+01 2.47691E+02 6.09228E-09-5.28763E-08
 -1       112 3.26495E+02-2.04499E+02 3.63714E+01 3.95712E+02 2.22973E-08-8.44265E-08
 -1       113 4.57910E+02-3.40626E+02 3.56798E+01 5.30934E+02 1.83892E-08-7.15838E-08
 -1       114 5.38004E+02-3.96803E+02 4.50613E+01 5.91278E+02-4.01105E-09-1.74833E-08
 -1       115 4.86982E+02-3.88920E+02 3.59817E+01 5.80600E+02-2.65449E-08 2.41417E-08
 -1       116 3.54161E+02-3.09102E+02 2.50266E+01 5.08093E+02-3.22943E-08 3.07888E-08
 -1       117 1.75066E+02-2.23342E+02 2.24190E+00 4.14454E+02-1.39281E-08-8.72818E-09
 -1       118 9.55195E+01-1.62777E+02 1.95242E+00 3.39244E+02 1.04431E-08-6.55210E-08
 -1       119 7.40198E+01-2.05224E+02-1.18350E+01 3.46283E+02 2.96331E-08-1.12212E-07
 -1       120 9.80371E+01-3.16082E+02-3.21690E+01 4.18126E+02 3.99810E-08-1.26073E-07
 -1       121 7.27226E+01-4.69728E+02-7.93103E+01 4.91432E+02 3.82923E-08-1.09564E-07
 -1       122 5.21431E+01-5.99667E+02-1.15966E+02 5.03421E+02 2.83949E-08-6.80448E-08
 -1       123-2.32324E+01-7.38626E+02-1.69540E+02 4.87469E+02 1.90044E-08-3.59209E-08
 -1       124-9.56138E+01-8.58546E+02-2.16849E+02 4.67061E+02 1.47796E-08-2.83760E-08
 -1       125-2.19956E+02-9.95485E+02-2.73933E+02 5.52582E+02 1.14268E-08-1.52379E-08
 -1       126-1.76232E+02-1.15344E+03-3.44562E+02 1.89523E+02 6.55124E-09 1.62342E-09
 -3
    1PSTEP                       347          87           1          
  100CL  187 8.70000E-01         126                     1   87           1
 -4  TOSTRAIN    6    1
 -5  EXX         1    4    1    1
 -5  EYY         1    4    2    2
 -5  EZZ         1    4    3    3
 -5  EXY         1    4    1    2
 -5  EYZ         1    4    2    3
 -5  EZX         1    4    3    1
 -1         1-2.67822E-04 5.48985E-02 2.88056E-29 2.06002E-02-2.67501E-19-6.75225E-17
 -1         2-2.67822E-04 5.48985E-02 2.88056E-29 2.06002E-02-2.67501E-19-6.75225E-17
 -1         3-1.79189E-04 9.56074E-05 6.69969E-25-7.95159E-05 1.22987E-13 5.74116E-13
 -1         4-1.79189E-04 9.56074E-05 6.70059E-25-7.95159E-05 1.23009E-13 5.74158E-13
 -1         5-1.37981E-04 8.46830E-05 6.88379E-25-8.73302E-06-2.34415E-13 5.46158E-13
 -1         6-1.37981E-04 8.46830E-05 6.88239E-25-8.73302E-06-2.34335E-13 5.46121E-13
 -1         7-2.65872E-04-5.44676E-02-6.75912E-28 1.82679E-02-4.20645E-19 4.36314E-16
 -1         8-2.65872E-04-5.44676E-02-6.75914E-28 1.82679E-02-4.45477E-19 4.36315E-16
 -1         9-1.58585E-04 7.16097E-05 6.49313E-25-5.38671E-05-5.58131E-14 5.76299E-13
 -1        10-1.58585E-04 7.16097E-05 6.49155E-25-5.38671E-05-5.58693E-14 5.76219E-13
 -1        11-2.66847E-04-1.26018E-03-1.10966E-28 1.22652E-02-2.78120E-19 1.93286E-16
 -1        12-2.66847E-04-1.26018E-03-1.10962E-28 1.22652E-02-2.31782E-19 1.93284E-16
 -1        13-1.53148E-02 5.47116E-02-6.26692E-28 3.52567E-03-7.03525E-15-1.86116E-15
 -1        14-1.20410E-02 5.24286E-02 4.76079E-27 1.06056E-03-1.97380E-14-5.32231E-14
 -1        15-1.14608E-02 4.84845E-02 2.15504E-26 1.45895E-03-2.23227E-14-1.04023E-13
 -1        16-1.04823E-02 4.46504E-02 2.91836E-26 1.44923E-03-3.23092E-14-1.24018E-13
 -1        17-9.57140E-03 4.06242E-02 1.20114E-25 1.49751E-03-5.34065E-14-2.44504E-13
 -1        18-8.71225E-03 3.66640E-02 2.46029E-25 1.38734E-03-3.58277E-14-3.48833E-13
 -1        19-7.82284E-03 3.32018E-02 3.42262E-25 1.12917E-03 1.27530E-14-4.11344E-13
 -1        20-7.22168E-03 3.05184E-02 2.60424E-25 8.90424E-04 7.15703E-14-3.57683E-13
 -1        21-6.76371E-03 2.83099E-02 8.01711E-26 8.53943E-04 1.01343E-13-1.96106E-13
 -1        22-6.28472E-03 2.58009E-02-3.73862E-27 1.06796E-03 7.22151E-14-1.48821E-14
 -1        23-5.40624E-03 2.23114E-02 1.79623E-26 1.42640E-03-3.34683E-15 1.08155E-13
 -1        24-4.33320E-03 1.77277E-02 3.58443E-26 1.73553E-03-1.04071E-13 1.03149E-13
 -1        25-3.13682E-03 1.25356E-02 3.56144E-26 1.80634E-03-1.52965E-13-4.92895E-14
 -1        26-2.05180E-03 7.55591E-03 1.36888E-25 1.56363E-03-1.24395E-13-2.40291E-13
 -1        27-1.08456E-03 3.61024E-03 1.30758E-25 1.08723E-03-2.76568E-14-2.59256E-13
 -1        28-5.31090E-04 1.18012E-03 3.53436E-26 5.64734E-04 6.98902E-14-1.40128E-13
 -1        29-3.04604E-04 1.64756E-04 5.08737E-27 1.65151E-04 1.12327E-13 1.43587E-14
 -1        30-2.96202E-04-7.75086E-06 9.75904E-26-3.10720E-05 1.28193E-13 2.12169E-13
 -1        31-2.47447E-04 6.12031E-05 3.43230E-25-7.01921E-05 1.27802E-13 4.08396E-13
 -1        32-1.53148E-02 5.47116E-02-6.26692E-28 3.52567E-03-7.03525E-15-1.86116E-15
 -1        33-1.20410E-02 5.24286E-02 4.76080E-27 1.06056E-03-1.97379E-14-5.32231E-14
 -1        34-1.14608E-02 4.84845E-02 2.15504E-26 1.45895E-03-2.23225E-14-1.04023E-13
 -1        35-1.04823E-02 4.46504E-02 2.91840E-26 1.44923E-03-3.23095E-14-1.24019E-13
 -1        36-9.57140E-03 4.06242E-02 1.20113E-25 1.49751E-03-5.34059E-14-2.44503E-13
 -1        37-8.71225E-03 3.66640E-02 2.46030E-25 1.38734E-03-3.58280E-14-3.48834E-13
 -1        38-7.82284E-03 3.32018E-02 3.42272E-25 1.12917E-03 1.27512E-14-4.11349E-13
 -1        39-7.22168E-03 3.05184E-02 2.60424E-25 8.90424E-04 7.15703E-14-3.57683E-13
 -1        40-6.76371E-03 2.83099E-02 8.01762E-26 8.53943E-04 1.01341E-13-1.96111E-13
 -1        41-6.28472E-03 2.58009E-02-3.73743E-27 1.06796E-03 7.22114E-14-1.48908E-14
 -1        42-5.40624E-03 2.23114E-02 1.79620E-26 1.42640E-03-3.34637E-15 1.08155E-13
 -1        43-4.33320E-03 1.77277E-02 3.58434E-26 1.73553E-03-1.04072E-13 1.03150E-13
 -1        44-3.13682E-03 1.25356E-02 3.56136E-26 1.80634E-03-1.52965E-13-4.92889E-14
 -1        45-2.05180E-03 7.55591E-03 1.36888E-25 1.56363E-03-1.24396E-13-2.40292E-13
 -1        46-1.08456E-03 3.61024E-03 1.30769E-25 1.08723E-03-2.76651E-14-2.59265E-13
 -1        47-5.31090E-04 1.18012E-03 3.53406E-26 5.64734E-04 6.98924E-14-1.40125E-13
 -1        48-3.04604E-04 1.64756E-04 5.11095E-27 1.65151E-04 1.12358E-13 1.44184E-14
 -1        49-2.96202E-04-7.75086E-06 9.75847E-26-3.10720E-05 1.28183E-13 2.12154E-13
 -1        50-2.47447E-04 6.12031E-05 3.43219E-25-7.01921E-05 1.27791E-13 4.08396E-13
 -1        51-2.45205E-04 2.33580E-04 4.18897E-25-1.97524E-05-2.47281E-13 3.97865E-13
 -1        52-3.64688E-04 5.40877E-04 1.91019E-25-2.61607E-06-2.38630E-13 2.21926E-13
 -1        53-4.07089E-04 6.16589E-04 7.91872E-26 1.84318E-04-2.20537E-13 3.21759E-14
 -1        54-2.94932E-04-1.46989E-04 8.64678E-26 5.94368E-04-1.73471E-13-1.40250E-13
 -1        55 1.34401E-04-2.32979E-03 1.39082E-25 1.13403E-03-8.35062E-14-2.56219E-13
 -1        56 8.77305E-04-6.05687E-03 7.17966E-26 1.59752E-03 2.72001E-14-1.99179E-13
 -1        57 1.92655E-03-1.08702E-02 2.55682E-27 1.82709E-03 6.75536E-14-4.52725E-14
 -1        58 2.99109E-03-1.59543E-02 7.51087E-27 1.77435E-03 1.51312E-14 8.20089E-14
 -1        59 3.91072E-03-2.04716E-02 3.48594E-26 1.48154E-03-9.30477E-14 1.06461E-13
 -1        60 4.55080E-03-2.39061E-02 4.55088E-26 1.09724E-03-1.69036E-13-1.25216E-14
 -1        61 5.05826E-03-2.63624E-02 1.50029E-25 8.53758E-04-1.89191E-13-2.16894E-13
 -1        62 5.48507E-03-2.85564E-02 2.80276E-25 9.01995E-04-1.16592E-13-3.62919E-13
 -1        63 6.03710E-03-3.13170E-02 3.29644E-25 1.16205E-03-1.59358E-14-4.10454E-13
 -1        64 6.74682E-03-3.49642E-02 2.88386E-25 1.40690E-03 7.68979E-14-3.77579E-13
 -1        65 7.65350E-03-3.91782E-02 1.44363E-25 1.50015E-03 1.25782E-13-2.44856E-13
 -1        66 8.51193E-03-4.34751E-02 5.37365E-26 1.46728E-03 1.04574E-13-1.31069E-13
 -1        67 9.42627E-03-4.75741E-02 3.61036E-26 1.52782E-03 8.11929E-14-1.08344E-13
 -1        68 9.64554E-03-5.20265E-02 1.67379E-26 1.07910E-03 7.37448E-14-5.64145E-14
 -1        69 1.33366E-02-5.44841E-02 3.23922E-27 3.42361E-03 4.29894E-14-9.70565E-15
 -1        70-2.45205E-04 2.33580E-04 4.18924E-25-1.97524E-05-2.47278E-13 3.97882E-13
 -1        71-3.64688E-04 5.40877E-04 1.91014E-25-2.61607E-06-2.38635E-13 2.21921E-13
 -1        72-4.07089E-04 6.16589E-04 7.91826E-26 1.84318E-04-2.20531E-13 3.21727E-14
 -1        73-2.94932E-04-1.46989E-04 8.64678E-26 5.94368E-04-1.73476E-13-1.40247E-13
 -1        74 1.34401E-04-2.32979E-03 1.39083E-25 1.13403E-03-8.34996E-14-2.56222E-13
 -1        75 8.77305E-04-6.05687E-03 7.17964E-26 1.59752E-03 2.71983E-14-1.99179E-13
 -1        76 1.92655E-03-1.08702E-02 2.55618E-27 1.82709E-03 6.75563E-14-4.52713E-14
 -1        77 2.99109E-03-1.59543E-02 7.51341E-27 1.77435E-03 1.51187E-14 8.20147E-14
 -1        78 3.91072E-03-2.04716E-02 3.48601E-26 1.48154E-03-9.30442E-14 1.06464E-13
 -1        79 4.55080E-03-2.39061E-02 4.55032E-26 1.09724E-03-1.69038E-13-1.24965E-14
 -1        80 5.05826E-03-2.63624E-02 1.50032E-25 8.53758E-04-1.89191E-13-2.16903E-13
 -1        81 5.48507E-03-2.85564E-02 2.80276E-25 9.01995E-04-1.16592E-13-3.62919E-13
 -1        82 6.03710E-03-3.13170E-02 3.29653E-25 1.16205E-03-1.59378E-14-4.10459E-13
 -1        83 6.74682E-03-3.49642E-02 2.88396E-25 1.40690E-03 7.68902E-14-3.77588E-13
 -1        84 7.65350E-03-3.91782E-02 1.44359E-25 1.50015E-03 1.25783E-13-2.44852E-13
 -1        85 8.51193E-03-4.34751E-02 5.37443E-26 1.46728E-03 1.04578E-13-1.31080E-13
 -1        86 9.42627E-03-4.75741E-02 3.61032E-26 1.52782E-03 8.11921E-14-1.08344E-13
 -1        87 9.64554E-03-5.20265E-02 1.67379E-26 1.07910E-03 7.37448E-14-5.64148E-14
 -1        88 1.33366E-02-5.44841E-02 3.23922E-27 3.42361E-03 4.29895E-14-9.70561E-15
 -1        89-9.89092E-04-8.12478E-04 8.10940E-29 7.78848E-04 2.14585E-14 4.09391E-15
 -1        90-1.19774E-03-3.28134E-04 6.05234E-27 2.03237E-03 3.13446E-14-5.34635E-14
 -1        91-1.01728E-03-1.98127E-04 2.02999E-26 1.82902E-03 3.24532E-14-9.88824E-14
 -1        92-9.85182E-04 1.65949E-05 3.13159E-26 1.91527E-03 3.63548E-14-1.27125E-13
 -1        93-9.58952E-04 2.64644E-04 1.07475E-25 1.94021E-03 3.51685E-14-2.37350E-13
 -1        94-9.82716E-04 4.84486E-04 2.80963E-25 1.81710E-03 1.92057E-14-3.77079E-13
 -1        95-8.92868E-04 6.27763E-04 3.69709E-25 1.48918E-03-5.13148E-15-4.30148E-13
 -1        96-8.68306E-04 7.11918E-04 2.77140E-25 1.15089E-03-3.43887E-14-3.75789E-13
 -1        97-8.52725E-04 7.71546E-04 7.45640E-26 1.08783E-03-4.69246E-14-2.10442E-13
 -1        98-8.66960E-04 8.02827E-04-9.29851E-27 1.39549E-03-5.27048E-14-8.12953E-15
 -1        99-7.47762E-04 8.00960E-04 3.83465E-26 1.89250E-03-5.38804E-14 1.34896E-13
 -1       100-6.71055E-04 7.91978E-04 2.24715E-26 2.28649E-03-4.38134E-14 1.08341E-13
 -1       101-6.05137E-04 7.82717E-04-7.12846E-27 2.36613E-03-3.69383E-14-4.48891E-14
 -1       102-5.87249E-04 7.35306E-04 1.07116E-25 2.06111E-03-5.22170E-14-2.34359E-13
 -1       103-4.75078E-04 6.31131E-04 1.58574E-25 1.44727E-03-6.11027E-14-2.77078E-13
 -1       104-4.13011E-04 5.05675E-04 4.69138E-26 7.44745E-04-6.12400E-14-1.61727E-13
 -1       105-3.55846E-04 3.88776E-04-1.26232E-26 2.12818E-04-5.86792E-14 2.56731E-14
 -1       106-3.30445E-04 2.73269E-04 7.53777E-26-2.99345E-05-6.47164E-14 2.11848E-13
 -1       107-2.46326E-04 1.42704E-04 3.02215E-25-5.86844E-05-6.34348E-14 3.98013E-13
 -1       108-2.46326E-04 1.42704E-04 3.02156E-25-5.86844E-05-6.34619E-14 3.97959E-13
 -1       109-3.30445E-04 2.73269E-04 7.54042E-26-2.99345E-05-6.47039E-14 2.11870E-13
 -1       110-3.55846E-04 3.88776E-04-1.26256E-26 2.12818E-04-5.86864E-14 2.56667E-14
 -1       111-4.13011E-04 5.05675E-04 4.69191E-26 7.44745E-04-6.12376E-14-1.61735E-13
 -1       112-4.75078E-04 6.31131E-04 1.58553E-25 1.44727E-03-6.10912E-14-2.77059E-13
 -1       113-5.87249E-04 7.35306E-04 1.07114E-25 2.06111E-03-5.22111E-14-2.34355E-13
 -1       114-6.05137E-04 7.82717E-04-7.11757E-27 2.36613E-03-3.69492E-14-4.49055E-14
 -1       115-6.71055E-04 7.91978E-04 2.24728E-26 2.28649E-03-4.38100E-14 1.08338E-13
 -1       116-7.47762E-04 8.00960E-04 3.83446E-26 1.89250E-03-5.38832E-14 1.34889E-13
 -1       117-8.66960E-04 8.02827E-04-9.30025E-27 1.39549E-03-5.26971E-14-8.11413E-15
 -1       118-8.52725E-04 7.71546E-04 7.45597E-26 1.08783E-03-4.69228E-14-2.10436E-13
 -1       119-8.68306E-04 7.11918E-04 2.77140E-25 1.15089E-03-3.43884E-14-3.75788E-13
 -1       120-8.92868E-04 6.27763E-04 3.69675E-25 1.48918E-03-5.12438E-15-4.30128E-13
 -1       121-9.82716E-04 4.84486E-04 2.80959E-25 1.81710E-03 1.92067E-14-3.77075E-13
 -1       122-9.58952E-04 2.64644E-04 1.07476E-25 1.94021E-03 3.51678E-14-2.37350E-13
 -1       123-9.85182E-04 1.65949E-05 3.13142E-26 1.91527E-03 3.63542E-14-1.27123E-13
 -1       124-1.01728E-03-1.98127E-04 2.03000E-26 1.82902E-03 3.24531E-14-9.88824E-14
 -1       125-1.19774E-03-3.28134E-04 6.05222E-27 2.03237E-03 3.13445E-14-5.34629E-14
 -1       126-9.89092E-04-8.12478E-04 8.10958E-29 7.78848E-04 2.14583E-14 4.09382E-15
 -3
    1PSTEP                       348          87           1          
  100CL  187 8.70000E-01         126                     1   87           1
 -4  ERROR       1    1
 -5  STR(%)      1    1    0    0
 -1         1 6.39433E+01
 -1         2 6.39433E+01
 -1         3 8.14372E+00
 -1         4 8.14372E+00
 -1         5 2.19602E+01
 -1         6 2.19602E+01
 -1         7 5.80886E+01
 -1         8 5.80886E+01
 -1         9 2.19602E+01
 -1        10 2.19602E+01
 -1        11 6.39433E+01
 -1        12 6.39433E+01
 -1        13 6.39433E+01
 -1        14 6.29029E+01
 -1        15 6.27726E+01
 -1        16 6.25432E+01
 -1        17 6.22198E+01
 -1        18 6.18358E+01
 -1        19 6.11649E+01
 -1        20 6.05367E+01
 -1        21 6.00230E+01
 -1        22 6.00660E+01
 -1        23 6.00660E+01
 -1        24 5.99206E+01
 -1        25 5.83917E+01
 -1        26 5.44025E+01
 -1        27 4.54562E+01
 -1        28 2.75959E+01
 -1        29 2.09353E+01
 -1        30 2.02310E+01
 -1        31 2.02310E+01
 -1        32 6.39433E+01
 -1        33 6.29029E+01
 -1        34 6.27726E+01
 -1        35 6.25432E+01
 -1        36 6.22198E+01
 -1        37 6.18358E+01
 -1        38 6.11649E+01
 -1        39 6.05367E+01
 -1        40 6.00230E+01
 -1        41 6.00660E+01
 -1        42 6.00660E+01
 -1        43 5.99206E+01
 -1        44 5.83917E+01
 -1        45 5.44025E+01
 -1        46 4.54562E+01
 -1        47 2.75959E+01
 -1        48 2.09353E+01
 -1        49 2.02310E+01
 -1        50 2.02310E+01
 -1        51 3.44252E+01
 -1        52 3.44252E+01
 -1        53 3.24241E+01
 -1        54 3.29027E+01
 -1        55 5.45184E+01
 -1        56 6.23515E+01
 -1        57 6.49833E+01
 -1        58 6.49833E+01
 -1        59 6.47102E+01
 -1        60 6.35410E+01
 -1        61 6.23381E+01
 -1        62 6.18035E+01
 -1        63 6.16971E+01
 -1        64 6.15191E+01
 -1        65 6.08713E+01
 -1        66 6.01015E+01
 -1        67 5.94033E+01
 -1        68 5.89828E+01
 -1        69 5.88009E+01
 -1        70 3.44252E+01
 -1        71 3.44252E+01
 -1        72 3.24241E+01
 -1        73 3.29027E+01
 -1        74 5.45184E+01
 -1        75 6.23515E+01
 -1        76 6.49833E+01
 -1        77 6.49833E+01
 -1        78 6.47102E+01
 -1        79 6.35410E+01
 -1        80 6.23381E+01
 -1        81 6.18035E+01
 -1        82 6.16971E+01
 -1        83 6.15191E+01
 -1        84 6.08713E+01
 -1        85 6.01015E+01
 -1        86 5.94033E+01
 -1        87 5.89828E+01
 -1        88 5.88009E+01
 -1        89 6.39433E+01
 -1        90 6.29029E+01
 -1        91 6.27726E+01
 -1        92 6.25432E+01
 -1        93 6.22198E+01
 -1        94 6.18358E+01
 -1        95 6.16971E+01
 -1        96 6.18035E+01
 -1        97 6.23381E+01
 -1        98 6.35410E+01
 -1        99 6.47102E+01
 -1       100 6.49833E+01
 -1       101 6.49833E+01
 -1       102 6.23515E+01
 -1       103 5.45184E+01
 -1       104 3.29027E+01
 -1       105 3.24241E+01
 -1       106 3.44252E+01
 -1       107 3.44252E+01
 -1       108 3.44252E+01
 -1       109 3.44252E+01
 -1       110 3.24241E+01
 -1       111 3.29027E+01
 -1       112 5.45184E+01
 -1       113 6.23515E+01
 -1       114 6.49833E+01
 -1       115 6.49833E+01
 -1       116 6.47102E+01
 -1       117 6.35410E+01
 -1       118 6.23381E+01
 -1       119 6.18035E+01
 -1       120 6.16971E+01
 -1       121 6.18358E+01
 -1       122 6.22198E+01
 -1       123 6.25432E+01
 -1       124 6.27726E+01
 -1       125 6.29029E+01
 -1       126 6.39433E+01
 -3
    1PSTEP                       349          88           1          
  100CL  188 8.80000E-01         126                     1   88           1
 -4  DISP        4    1
 -5  D1          1    2    1    0
 -5  D2          1    2    2    0
 -5  D3          1    2    3    0
 -5  ALL         1    2    0    0    1ALL
 -1         1 0.00000E+00 0.00000E+00 0.00000E+00
 -1         2 0.00000E+00 0.00000E+00 0.00000E+00
 -1         3 3.49775E-01-4.86299E-02 0.00000E+00
 -1         4 3.49775E-01-4.86299E-02 0.00000E+00
 -1         5 3.38502E-01-9.47184E-02 0.00000E+00
 -1         6 3.38502E-01-9.47184E-02 0.00000E+00
 -1         7 0.00000E+00 0.00000E+00 0.00000E+00
 -1         8 0.00000E+00 0.00000E+00 0.00000E+00
 -1         9 3.44140E-01-7.16738E-02 0.00000E+00
 -1        10 3.44140E-01-7.16738E-02 0.00000E+00
 -1        11 0.00000E+00 0.00000E+00 0.00000E+00
 -1        12 0.00000E+00 0.00000E+00 0.00000E+00
 -1        13 2.14805E-03 2.73304E-03 0.00000E+00
 -1        14 6.81551E-03 5.27027E-03 0.00000E+00
 -1        15 1.43612E-02 7.23005E-03 0.00000E+00
 -1        16 2.43969E-02 8.53372E-03 0.00000E+00
 -1        17 3.66106E-02 9.11786E-03 0.00000E+00
 -1        18 5.06971E-02 8.98795E-03 0.00000E+00
 -1        19 6.63994E-02 8.19555E-03 0.00000E+00
 -1        20 8.35775E-02 6.79144E-03 0.00000E+00
 -1        21 1.02164E-01 4.78737E-03 0.00000E+00
 -1        22 1.22105E-01 2.13493E-03 0.00000E+00
 -1        23 1.43244E-01-1.22125E-03 0.00000E+00
 -1        24 1.65320E-01-5.28307E-03 0.00000E+00
 -1        25 1.88005E-01-9.94932E-03 0.00000E+00
 -1        26 2.11019E-01-1.50581E-02 0.00000E+00
 -1        27 2.34175E-01-2.04483E-02 0.00000E+00
 -1        28 2.57382E-01-2.60114E-02 0.00000E+00
 -1        29 2.80568E-01-3.16662E-02 0.00000E+00
 -1        30 3.03689E-01-3.73460E-02 0.00000E+00
 -1        31 3.26741E-01-4.30011E-02 0.00000E+00
 -1        32 2.14805E-03 2.73304E-03 0.00000E+00
 -1        33 6.81551E-03 5.27027E-03 0.00000E+00
 -1        34 1.43612E-02 7.23005E-03 0.00000E+00
 -1        35 2.43969E-02 8.53372E-03 0.00000E+00
 -1        36 3.66106E-02 9.11786E-03 0.00000E+00
 -1        37 5.06971E-02 8.98795E-03 0.00000E+00
 -1        38 6.63994E-02 8.19555E-03 0.00000E+00
 -1        39 8.35775E-02 6.79144E-03 0.00000E+00
 -1        40 1.02164E-01 4.78737E-03 0.00000E+00
 -1        41 1.22105E-01 2.13493E-03 0.00000E+00
 -1        42 1.43244E-01-1.22125E-03 0.00000E+00
 -1        43 1.65320E-01-5.28307E-03 0.00000E+00
 -1        44 1.88005E-01-9.94932E-03 0.00000E+00
 -1        45 2.11019E-01-1.50581E-02 0.00000E+00
 -1        46 2.34175E-01-2.04483E-02 0.00000E+00
 -1        47 2.57382E-01-2.60114E-02 0.00000E+00
 -1        48 2.80568E-01-3.16662E-02 0.00000E+00
 -1        49 3.03689E-01-3.73460E-02 0.00000E+00
 -1        50 3.26741E-01-4.30011E-02 0.00000E+00
 -1        51 3.15449E-01-8.91056E-02 0.00000E+00
 -1        52 2.92357E-01-8.35061E-02 0.00000E+00
 -1        53 2.69206E-01-7.78794E-02 0.00000E+00
 -1        54 2.46031E-01-7.21942E-02 0.00000E+00
 -1        55 2.22914E-01-6.64481E-02 0.00000E+00
 -1        56 1.99959E-01-6.06477E-02 0.00000E+00
 -1        57 1.77319E-01-5.48055E-02 0.00000E+00
 -1        58 1.55216E-01-4.89563E-02 0.00000E+00
 -1        59 1.33939E-01-4.31957E-02 0.00000E+00
 -1        60 1.13764E-01-3.76667E-02 0.00000E+00
 -1        61 9.48763E-02-3.25077E-02 0.00000E+00
 -1        62 7.73390E-02-2.77864E-02 0.00000E+00
 -1        63 6.11789E-02-2.34891E-02 0.00000E+00
 -1        64 4.64659E-02-1.95488E-02 0.00000E+00
 -1        65 3.33656E-02-1.58936E-02 0.00000E+00
 -1        66 2.21002E-02-1.24646E-02 0.00000E+00
 -1        67 1.29302E-02-9.21410E-03 0.00000E+00
 -1        68 6.08131E-03-6.09115E-03 0.00000E+00
 -1        69 1.91909E-03-2.97773E-03 0.00000E+00
 -1        70 3.15449E-01-8.91056E-02 0.00000E+00
 -1        71 2.92357E-01-8.35061E-02 0.00000E+00
 -1        72 2.69206E-01-7.78794E-02 0.00000E+00
 -1        73 2.46031E-01-7.21942E-02 0.00000E+00
 -1        74 2.22914E-01-6.64481E-02 0.00000E+00
 -1        75 1.99959E-01-6.06477E-02 0.00000E+00
 -1        76 1.77319E-01-5.48055E-02 0.00000E+00
 -1        77 1.55216E-01-4.89563E-02 0.00000E+00
 -1        78 1.33939E-01-4.31957E-02 0.00000E+00
 -1        79 1.13764E-01-3.76667E-02 0.00000E+00
 -1        80 9.48763E-02-3.25077E-02 0.00000E+00
 -1        81 7.73390E-02-2.77864E-02 0.00000E+00
 -1        82 6.11789E-02-2.34891E-02 0.00000E+00
 -1        83 4.64659E-02-1.95488E-02 0.00000E+00
 -1        84 3.33656E-02-1.58936E-02 0.00000E+00
 -1        85 2.21002E-02-1.24646E-02 0.00000E+00
 -1        86 1.29302E-02-9.21410E-03 0.00000E+00
 -1        87 6.08131E-03-6.09115E-03 0.00000E+00
 -1        88 1.91909E-03-2.97773E-03 0.00000E+00
 -1        89 1.28633E-03-9.32220E-05 0.00000E+00
 -1        90 5.89162E-03-3.39557E-04 0.00000E+00
 -1        91 1.31231E-02-8.95685E-04 0.00000E+00
 -1        92 2.27891E-02-1.85951E-03 0.00000E+00
 -1        93 3.45835E-02-3.27842E-03 0.00000E+00
 -1        94 4.82233E-02-5.16999E-03 0.00000E+00
 -1        95 6.34657E-02-7.53604E-03 0.00000E+00
 -1        96 8.01559E-02-1.03850E-02 0.00000E+00
 -1        97 9.82367E-02-1.37452E-02 0.00000E+00
 -1        98 1.17680E-01-1.76519E-02 0.00000E+00
 -1        99 1.38383E-01-2.21068E-02 0.00000E+00
 -1       100 1.60114E-01-2.70409E-02 0.00000E+00
 -1       101 1.82560E-01-3.23244E-02 0.00000E+00
 -1       102 2.05428E-01-3.78202E-02 0.00000E+00
 -1       103 2.28514E-01-4.34304E-02 0.00000E+00
 -1       104 2.51696E-01-4.90959E-02 0.00000E+00
 -1       105 2.74889E-01-5.47728E-02 0.00000E+00
 -1       106 2.98030E-01-6.04279E-02 0.00000E+00
 -1       107 3.21099E-01-6.60536E-02 0.00000E+00
 -1       108 3.21099E-01-6.60536E-02 0.00000E+00
 -1       109 2.98030E-01-6.04279E-02 0.00000E+00
 -1       110 2.74889E-01-5.47728E-02 0.00000E+00
 -1       111 2.51696E-01-4.90959E-02 0.00000E+00
 -1       112 2.28514E-01-4.34304E-02 0.00000E+00
 -1       113 2.05428E-01-3.78202E-02 0.00000E+00
 -1       114 1.82560E-01-3.23244E-02 0.00000E+00
 -1       115 1.60114E-01-2.70409E-02 0.00000E+00
 -1       116 1.38383E-01-2.21068E-02 0.00000E+00
 -1       117 1.17680E-01-1.76519E-02 0.00000E+00
 -1       118 9.82367E-02-1.37452E-02 0.00000E+00
 -1       119 8.01559E-02-1.03850E-02 0.00000E+00
 -1       120 6.34657E-02-7.53604E-03 0.00000E+00
 -1       121 4.82233E-02-5.16999E-03 0.00000E+00
 -1       122 3.45835E-02-3.27842E-03 0.00000E+00
 -1       123 2.27891E-02-1.85951E-03 0.00000E+00
 -1       124 1.31231E-02-8.95685E-04 0.00000E+00
 -1       125 5.89162E-03-3.39557E-04 0.00000E+00
 -1       126 1.28633E-03-9.32220E-05 0.00000E+00
 -3
    1PSTEP                       350          88           1          
  100CL  188 8.80000E-01         126                     1   88           1
 -4  STRESS      6    1
 -5  SXX         1    4    1    1
 -5  SYY         1    4    2    2
 -5  SZZ         1    4    3    3
 -5  SXY         1    4    1    2
 -5  SYZ         1    4    2    3
 -5  SZX         1    4    3    1
 -1         1 1.29390E+04 3.17101E+04 1.24843E+04 7.74805E+03-3.82809E-10-3.18170E-10
 -1         2 1.29390E+04 3.17101E+04 1.24843E+04 7.74805E+03-3.82809E-10-3.18170E-10
 -1         3-1.35074E+02-7.33832E+01-6.25561E+01-1.76795E+01-3.61447E-08 4.17992E-08
 -1         4-1.35074E+02-7.33832E+01-6.25561E+01-1.76795E+01-3.61447E-08 4.17844E-08
 -1         5 4.11853E+00 1.14120E+02 3.54471E+01 5.87184E+01-7.65571E-08 5.19513E-09
 -1         6 4.11853E+00 1.14120E+02 3.54471E+01 5.87184E+01-7.65443E-08 5.24663E-09
 -1         7-1.36826E+04-2.95305E+04-1.39915E+04 4.85359E+03-5.01859E-10 4.41249E-10
 -1         8-1.36826E+04-2.95305E+04-1.39915E+04 4.85359E+03-5.01867E-10 4.41249E-10
 -1         9-7.99844E+01 1.90059E+01-1.83006E+01 1.19954E+01-6.27801E-08 2.35631E-08
 -1        10-7.99844E+01 1.90059E+01-1.83006E+01 1.19954E+01-6.27817E-08 2.35838E-08
 -1        11-2.80994E+02-1.49708E+03-3.53645E+02 3.91102E+03-4.20868E-10-1.33329E-11
 -1        12-2.80994E+02-1.49708E+03-3.53645E+02 3.91102E+03-4.20854E-10-1.33332E-11
 -1        13 4.78365E+03 2.79804E+04 9.16468E+03 2.63639E+03-4.98788E-09-4.32107E-08
 -1        14 6.17955E+03 2.69470E+04 9.29060E+03 2.87492E+03 1.51149E-08-6.41784E-08
 -1        15 5.82858E+03 2.39424E+04 8.39904E+03 3.76478E+03 3.52894E-08-4.53303E-08
 -1        16 5.66215E+03 2.11370E+04 7.60565E+03 4.14464E+03 3.89019E-08-6.82003E-09
 -1        17 5.37674E+03 1.84627E+04 6.80490E+03 4.25450E+03 2.38260E-08 2.83498E-08
 -1        18 5.04646E+03 1.62561E+04 6.11116E+03 4.18331E+03 9.78107E-09 2.72870E-08
 -1        19 4.86046E+03 1.47068E+04 5.63347E+03 4.07738E+03 7.88450E-09 1.47492E-08
 -1        20 4.75969E+03 1.36100E+04 5.29979E+03 4.07176E+03 1.05624E-08 1.83525E-08
 -1        21 4.72370E+03 1.25368E+04 4.98808E+03 4.11944E+03-9.23440E-10 3.15079E-08
 -1        22 4.55313E+03 1.09983E+04 4.50709E+03 4.04080E+03-2.31118E-08 3.65680E-08
 -1        23 4.16380E+03 8.90097E+03 3.80530E+03 3.63961E+03-4.11616E-08 2.26017E-08
 -1        24 3.40297E+03 6.47646E+03 2.89640E+03 2.94176E+03-4.61833E-08-2.23225E-08
 -1        25 2.44793E+03 4.23502E+03 1.97239E+03 2.11748E+03-3.30140E-08-7.27682E-08
 -1        26 1.51446E+03 2.48588E+03 1.18722E+03 1.38216E+03-3.86009E-09-1.11391E-07
 -1        27 8.42915E+02 1.28987E+03 6.35553E+02 8.13073E+02 2.96059E-08-1.20948E-07
 -1        28 3.50539E+02 4.55555E+02 2.40781E+02 4.17097E+02 3.96565E-08-9.46189E-08
 -1        29 1.39692E+01-5.50164E+01-1.24875E+01 1.44251E+02 2.93574E-08-5.63810E-08
 -1        30-1.83988E+02-2.41546E+02-1.27756E+02-4.60336E-01 2.14330E-09-3.74075E-10
 -1        31-1.86544E+02-1.63511E+02-1.05064E+02-2.72096E+01-2.08741E-08 2.23616E-08
 -1        32 4.78365E+03 2.79804E+04 9.16468E+03 2.63639E+03-4.98788E-09-4.32107E-08
 -1        33 6.17955E+03 2.69470E+04 9.29060E+03 2.87492E+03 1.51150E-08-6.41784E-08
 -1        34 5.82858E+03 2.39424E+04 8.39904E+03 3.76478E+03 3.52894E-08-4.53301E-08
 -1        35 5.66215E+03 2.11370E+04 7.60565E+03 4.14464E+03 3.89019E-08-6.82012E-09
 -1        36 5.37674E+03 1.84627E+04 6.80490E+03 4.25450E+03 2.38260E-08 2.83503E-08
 -1        37 5.04646E+03 1.62561E+04 6.11116E+03 4.18331E+03 9.78093E-09 2.72857E-08
 -1        38 4.86046E+03 1.47068E+04 5.63347E+03 4.07738E+03 7.88538E-09 1.47474E-08
 -1        39 4.75969E+03 1.36100E+04 5.29979E+03 4.07176E+03 1.05624E-08 1.83525E-08
 -1        40 4.72370E+03 1.25368E+04 4.98808E+03 4.11944E+03-9.23461E-10 3.15060E-08
 -1        41 4.55313E+03 1.09983E+04 4.50709E+03 4.04080E+03-2.31123E-08 3.65685E-08
 -1        42 4.16380E+03 8.90097E+03 3.80530E+03 3.63961E+03-4.11616E-08 2.26054E-08
 -1        43 3.40297E+03 6.47646E+03 2.89640E+03 2.94176E+03-4.61827E-08-2.23235E-08
 -1        44 2.44793E+03 4.23502E+03 1.97239E+03 2.11748E+03-3.30149E-08-7.27666E-08
 -1        45 1.51446E+03 2.48588E+03 1.18722E+03 1.38216E+03-3.85984E-09-1.11388E-07
 -1        46 8.42915E+02 1.28987E+03 6.35553E+02 8.13073E+02 2.96061E-08-1.20944E-07
 -1        47 3.50539E+02 4.55555E+02 2.40781E+02 4.17097E+02 3.96565E-08-9.46199E-08
 -1        48 1.39692E+01-5.50164E+01-1.24875E+01 1.44251E+02 2.93578E-08-5.63943E-08
 -1        49-1.83988E+02-2.41546E+02-1.27756E+02-4.60336E-01 2.14778E-09-3.61171E-10
 -1        50-1.86544E+02-1.63511E+02-1.05064E+02-2.72096E+01-2.08774E-08 2.23286E-08
 -1        51 1.67772E+01 2.01268E+02 6.52915E+01 1.18663E+02-8.07542E-08-7.35847E-09
 -1        52 7.86569E+01 2.79872E+02 1.07299E+02 2.02332E+02-7.22943E-08-4.17122E-08
 -1        53 7.25970E+01 5.89833E+01 3.92644E+01 1.93494E+02-4.82859E-08-9.13481E-08
 -1        54-1.03745E+02-5.15113E+02-1.86051E+02 5.88640E+01-1.24649E-08-1.20657E-07
 -1        55-4.42502E+02-1.43246E+03-5.64718E+02-1.93916E+02 2.49569E-08-1.22150E-07
 -1        56-9.68382E+02-2.78656E+03-1.13522E+03-5.70264E+02 4.26809E-08-8.52051E-08
 -1        57-1.66752E+03-4.62821E+03-1.91407E+03-1.11547E+03 3.92675E-08-2.90005E-08
 -1        58-2.57418E+03-6.85731E+03-2.88737E+03-1.79224E+03 1.53785E-08 2.22678E-08
 -1        59-3.52122E+03-9.07008E+03-3.88117E+03-2.47222E+03-4.13358E-09 4.12604E-08
 -1        60-4.28759E+03-1.08522E+04-4.69152E+03-2.97601E+03-2.09868E-08 4.63794E-08
 -1        61-4.68120E+03-1.20458E+04-5.20010E+03-3.21615E+03-1.94321E-08 2.90730E-08
 -1        62-4.82865E+03-1.29579E+04-5.54072E+03-3.21726E+03-9.05440E-09 1.68248E-08
 -1        63-4.92185E+03-1.40441E+04-5.92289E+03-3.10764E+03 2.22587E-09 1.40715E-08
 -1        64-5.14713E+03-1.56334E+04-6.51723E+03-2.98619E+03-2.29757E-09 2.47290E-08
 -1        65-5.48625E+03-1.77188E+04-7.32159E+03-2.86243E+03-1.25128E-08 5.14588E-09
 -1        66-5.96283E+03-2.01522E+04-8.29806E+03-2.65189E+03-2.13203E-08-1.92023E-08
 -1        67-6.39639E+03-2.26292E+04-9.28905E+03-2.23790E+03-1.35721E-08-6.16996E-08
 -1        68-7.35670E+03-2.53441E+04-1.05428E+04-1.71878E+03 6.12260E-09-7.65563E-08
 -1        69-5.71479E+03-2.60508E+04-1.02867E+04-1.61723E+02 1.50744E-08-4.54712E-08
 -1        70 1.67772E+01 2.01268E+02 6.52915E+01 1.18663E+02-8.07592E-08-7.36095E-09
 -1        71 7.86569E+01 2.79872E+02 1.07299E+02 2.02332E+02-7.22911E-08-4.16975E-08
 -1        72 7.25970E+01 5.89833E+01 3.92644E+01 1.93494E+02-4.82869E-08-9.13520E-08
 -1        73-1.03745E+02-5.15113E+02-1.86051E+02 5.88640E+01-1.24640E-08-1.20656E-07
 -1        74-4.42502E+02-1.43246E+03-5.64718E+02-1.93916E+02 2.49553E-08-1.22149E-07
 -1        75-9.68382E+02-2.78656E+03-1.13522E+03-5.70264E+02 4.26819E-08-8.52036E-08
 -1        76-1.66752E+03-4.62821E+03-1.91407E+03-1.11547E+03 3.92644E-08-2.90073E-08
 -1        77-2.57418E+03-6.85731E+03-2.88737E+03-1.79224E+03 1.53818E-08 2.22692E-08
 -1        78-3.52122E+03-9.07008E+03-3.88117E+03-2.47222E+03-4.13399E-09 4.12551E-08
 -1        79-4.28759E+03-1.08522E+04-4.69152E+03-2.97601E+03-2.09905E-08 4.63799E-08
 -1        80-4.68120E+03-1.20458E+04-5.20010E+03-3.21615E+03-1.94299E-08 2.90721E-08
 -1        81-4.82865E+03-1.29579E+04-5.54072E+03-3.21726E+03-9.05447E-09 1.68249E-08
 -1        82-4.92185E+03-1.40441E+04-5.92289E+03-3.10764E+03 2.22590E-09 1.40717E-08
 -1        83-5.14713E+03-1.56334E+04-6.51723E+03-2.98619E+03-2.29767E-09 2.47319E-08
 -1        84-5.48625E+03-1.77188E+04-7.32159E+03-2.86243E+03-1.25132E-08 5.14490E-09
 -1        85-5.96283E+03-2.01522E+04-8.29806E+03-2.65189E+03-2.13203E-08-1.92020E-08
 -1        86-6.39639E+03-2.26292E+04-9.28905E+03-2.23790E+03-1.35722E-08-6.17009E-08
 -1        87-7.35670E+03-2.53441E+04-1.05428E+04-1.71878E+03 6.12261E-09-7.65564E-08
 -1        88-5.71479E+03-2.60508E+04-1.02867E+04-1.61723E+02 1.50745E-08-4.54713E-08
 -1        89-1.66303E+02-1.46627E+03-4.32383E+02 2.16545E+02 2.24846E-09-4.41013E-08
 -1        90-2.07737E+02-1.31188E+03-3.60627E+02 6.26240E+02 8.38269E-09-7.46565E-08
 -1        91-5.07609E+01-1.14469E+03-2.88025E+02 5.62135E+02 1.14870E-08-5.60495E-08
 -1        92 3.26915E+01-9.83067E+02-2.26408E+02 5.62885E+02 6.05308E-09-1.25263E-08
 -1        93 8.11429E+01-7.85827E+02-1.64021E+02 5.08171E+02 3.83695E-09 1.91452E-08
 -1        94 4.64870E+01-5.98594E+02-1.26558E+02 4.11521E+02 5.31095E-09 2.85547E-08
 -1        95 2.47603E+01-4.10997E+02-8.27432E+01 2.85724E+02 7.71555E-09 1.31393E-08
 -1        96-5.54019E+00-3.04248E+02-6.50073E+01 2.18744E+02 7.21653E-10 1.54355E-08
 -1        97 5.86007E+01-2.97399E+02-4.91089E+01 2.66090E+02-1.24066E-08 3.24853E-08
 -1        98 2.05667E+02-3.96475E+02-4.05893E+01 4.09421E+02-2.36889E-08 4.64125E-08
 -1        99 4.28178E+02-4.82514E+02-5.27205E+00 5.39652E+02-2.23591E-08 3.46963E-08
 -1       100 5.36333E+02-4.98827E+02 1.74035E+01 5.94006E+02-1.39794E-08 3.50286E-09
 -1       101 5.08124E+02-4.02263E+02 3.44218E+01 5.52710E+02 4.08710E-09-5.26557E-08
 -1       102 3.71101E+02-2.73153E+02 3.00872E+01 4.61816E+02 2.37385E-08-1.02189E-07
 -1       103 2.70018E+02-1.49424E+02 3.61250E+01 3.54543E+02 2.89531E-08-1.27461E-07
 -1       104 1.67883E+02-8.13962E+01 2.57345E+01 2.68764E+02 1.63906E-08-1.11976E-07
 -1       105 6.85125E+01-2.17501E+01 1.38735E+01 1.86130E+02-7.14424E-09-7.20048E-08
 -1       106-4.63839E+01 2.09146E+01-7.72004E+00 1.04303E+02-3.49499E-08-2.18459E-08
 -1       107-9.36051E+01 2.40915E+01-2.08694E+01 3.98787E+01-5.24137E-08 8.51176E-09
 -1       108-9.36051E+01 2.40915E+01-2.08694E+01 3.98787E+01-5.24165E-08 8.51329E-09
 -1       109-4.63839E+01 2.09146E+01-7.72004E+00 1.04303E+02-3.49543E-08-2.18632E-08
 -1       110 6.85125E+01-2.17501E+01 1.38735E+01 1.86130E+02-7.14168E-09-7.19956E-08
 -1       111 1.67883E+02-8.13962E+01 2.57345E+01 2.68764E+02 1.63899E-08-1.11976E-07
 -1       112 2.70018E+02-1.49424E+02 3.61250E+01 3.54543E+02 2.89527E-08-1.27469E-07
 -1       113 3.71101E+02-2.73153E+02 3.00872E+01 4.61816E+02 2.37366E-08-1.02192E-07
 -1       114 5.08124E+02-4.02263E+02 3.44218E+01 5.52710E+02 4.08780E-09-5.26433E-08
 -1       115 5.36333E+02-4.98827E+02 1.74035E+01 5.94006E+02-1.39807E-08 3.50365E-09
 -1       116 4.28178E+02-4.82514E+02-5.27205E+00 5.39652E+02-2.23599E-08 3.46933E-08
 -1       117 2.05667E+02-3.96475E+02-4.05893E+01 4.09421E+02-2.36874E-08 4.64109E-08
 -1       118 5.86007E+01-2.97399E+02-4.91089E+01 2.66090E+02-1.24077E-08 3.24905E-08
 -1       119-5.54019E+00-3.04248E+02-6.50073E+01 2.18744E+02 7.21771E-10 1.54352E-08
 -1       120 2.47603E+01-4.10997E+02-8.27432E+01 2.85724E+02 7.71539E-09 1.31423E-08
 -1       121 4.64870E+01-5.98594E+02-1.26558E+02 4.11521E+02 5.31121E-09 2.85576E-08
 -1       122 8.11429E+01-7.85827E+02-1.64021E+02 5.08171E+02 3.83694E-09 1.91445E-08
 -1       123 3.26915E+01-9.83067E+02-2.26408E+02 5.62885E+02 6.05317E-09-1.25262E-08
 -1       124-5.07609E+01-1.14469E+03-2.88025E+02 5.62135E+02 1.14872E-08-5.60495E-08
 -1       125-2.07737E+02-1.31188E+03-3.60627E+02 6.26240E+02 8.38262E-09-7.46565E-08
 -1       126-1.66303E+02-1.46627E+03-4.32383E+02 2.16545E+02 2.24840E-09-4.41012E-08
 -3
    1PSTEP                       351          88           1          
  100CL  188 8.80000E-01         126                     1   88           1
 -4  TOSTRAIN    6    1
 -5  EXX         1    4    1    1
 -5  EYY         1    4    2    2
 -5  EZZ         1    4    3    3
 -5  EXY         1    4    1    2
 -5  EYZ         1    4    2    3
 -5  EZX         1    4    3    1
 -1         1-2.90738E-04 5.67853E-02-6.63634E-27 2.14803E-02 1.25035E-19-5.14751E-16
 -1         2-2.90738E-04 5.67853E-02-6.63634E-27 2.14803E-02 1.25035E-19-5.14751E-16
 -1         3-1.46193E-04-1.24817E-04 5.87539E-26-1.15128E-04-4.16420E-14 1.74742E-13
 -1         4-1.46193E-04-1.24817E-04 5.87388E-26-1.15128E-04-4.16642E-14 1.74699E-13
 -1         5-1.82022E-04 3.35635E-04 1.21923E-25-3.64603E-05-2.12929E-13 1.29676E-13
 -1         6-1.82022E-04 3.35635E-04 1.21898E-25-3.64603E-05-2.12815E-13 1.29805E-13
 -1         7-2.90923E-04-5.73339E-02-8.09097E-27 1.91907E-02-4.41915E-19 8.58310E-16
 -1         8-2.90923E-04-5.73339E-02-8.09097E-27 1.91907E-02-4.66719E-19 8.58311E-16
 -1         9-1.64108E-04 8.48004E-05 9.11228E-26-1.09168E-04-1.45761E-13 1.62012E-13
 -1        10-1.64108E-04 8.48004E-05 9.11540E-26-1.09168E-04-1.45734E-13 1.62074E-13
 -1        11-2.90831E-04-1.82258E-03-6.80793E-27 1.28631E-02-1.60354E-19 2.31103E-17
 -1        12-2.90831E-04-1.82258E-03-6.80793E-27 1.28631E-02-1.14068E-19 2.31082E-17
 -1        13-1.57626E-02 5.64573E-02 3.51933E-26 3.73796E-03-2.20123E-14-1.37707E-13
 -1        14-1.22488E-02 5.36326E-02 8.91971E-26 1.31649E-03 2.38365E-14-2.10200E-13
 -1        15-1.14451E-02 4.87576E-02 6.19886E-26 1.82116E-03 8.37824E-14-1.62701E-13
 -1        16-1.01941E-02 4.39122E-02 2.02095E-26 1.77477E-03 1.12667E-13-4.81836E-14
 -1        17-9.11138E-03 3.92126E-02 2.19287E-26 1.64332E-03 9.33797E-14 6.90400E-14
 -1        18-8.26185E-03 3.52399E-02 1.63507E-26 1.30131E-03 5.34528E-14 7.52408E-14
 -1        19-7.53985E-03 3.23754E-02 5.20086E-27 8.95317E-04 3.79479E-14 3.70533E-14
 -1        20-7.15654E-03 3.04976E-02 7.95045E-27 6.76083E-04 5.08588E-14 4.37611E-14
 -1        21-6.83778E-03 2.87856E-02 1.90152E-26 8.11533E-04 3.41233E-14 9.55271E-14
 -1        22-6.33528E-03 2.61391E-02 3.78721E-26 1.24149E-03-2.09541E-14 1.38293E-13
 -1        23-5.28974E-03 2.19790E-02 3.98982E-26 1.70632E-03-8.80908E-14 1.22659E-13
 -1        24-4.04802E-03 1.67193E-02 3.80669E-26 1.91180E-03-1.63155E-13 8.82246E-16
 -1        25-2.84409E-03 1.14496E-02 1.15475E-25 1.73278E-03-1.99005E-13-1.62264E-13
 -1        26-1.94191E-03 7.10885E-03 2.51226E-25 1.31744E-03-1.74629E-13-3.15768E-13
 -1        27-1.18355E-03 3.94472E-03 3.24195E-25 9.20237E-04-9.49324E-14-3.93004E-13
 -1        28-6.83435E-04 1.72834E-03 2.15772E-25 6.33891E-04-2.76912E-14-3.32282E-13
 -1        29-3.47238E-04 2.93351E-04 7.04055E-26 3.59720E-04-1.03111E-16-2.06664E-13
 -1        30-2.22118E-04-3.31246E-04-1.50117E-26 7.57745E-05 5.61417E-15-4.29636E-15
 -1        31-1.76728E-04-2.78363E-04 1.27292E-26-8.14684E-05-2.67037E-14 9.58054E-14
 -1        32-1.57626E-02 5.64573E-02 3.51933E-26 3.73796E-03-2.20123E-14-1.37707E-13
 -1        33-1.22488E-02 5.36326E-02 8.91970E-26 1.31649E-03 2.38367E-14-2.10200E-13
 -1        34-1.14451E-02 4.87576E-02 6.19885E-26 1.82116E-03 8.37825E-14-1.62701E-13
 -1        35-1.01941E-02 4.39122E-02 2.02096E-26 1.77477E-03 1.12667E-13-4.81839E-14
 -1        36-9.11138E-03 3.92126E-02 2.19293E-26 1.64332E-03 9.33803E-14 6.90416E-14
 -1        37-8.26185E-03 3.52399E-02 1.63489E-26 1.30131E-03 5.34512E-14 7.52367E-14
 -1        38-7.53985E-03 3.23754E-02 5.19982E-27 8.95317E-04 3.79487E-14 3.70468E-14
 -1        39-7.15654E-03 3.04976E-02 7.95045E-27 6.76083E-04 5.08588E-14 4.37611E-14
 -1        40-6.83778E-03 2.87856E-02 1.90124E-26 8.11533E-04 3.41210E-14 9.55216E-14
 -1        41-6.33528E-03 2.61391E-02 3.78732E-26 1.24149E-03-2.09548E-14 1.38295E-13
 -1        42-5.28974E-03 2.19790E-02 3.99021E-26 1.70632E-03-8.80856E-14 1.22670E-13
 -1        43-4.04802E-03 1.67193E-02 3.80653E-26 1.91180E-03-1.63154E-13 8.78409E-16
 -1        44-2.84409E-03 1.14496E-02 1.15471E-25 1.73278E-03-1.99005E-13-1.62257E-13
 -1        45-1.94191E-03 7.10885E-03 2.51213E-25 1.31744E-03-1.74624E-13-3.15760E-13
 -1        46-1.18355E-03 3.94472E-03 3.24176E-25 9.20237E-04-9.49261E-14-3.92994E-13
 -1        47-6.83435E-04 1.72834E-03 2.15777E-25 6.33891E-04-2.76928E-14-3.32285E-13
 -1        48-3.47238E-04 2.93351E-04 7.04429E-26 3.59720E-04-1.21875E-16-2.06703E-13
 -1        49-2.22118E-04-3.31246E-04-1.50040E-26 7.57745E-05 5.64644E-15-4.26579E-15
 -1        50-1.76728E-04-2.78363E-04 1.27169E-26-8.14684E-05-2.67625E-14 9.57150E-14
 -1        51-3.46025E-04 6.29074E-04 1.32492E-25-2.38355E-05-2.43719E-13 9.98313E-14
 -1        52-4.93164E-04 9.58274E-04 1.32775E-25 1.08950E-04-2.70690E-13-1.16883E-14
 -1        53-4.17824E-04 5.88120E-04 2.08650E-25 3.77977E-04-2.76220E-13-1.90552E-13
 -1        54-1.76574E-04-6.28708E-04 3.01512E-25 6.59017E-04-2.17319E-13-3.28955E-13
 -1        55 2.25929E-04-2.66767E-03 3.23212E-25 9.58483E-04-1.11107E-13-3.89946E-13
 -1        56 8.04360E-04-5.70366E-03 1.81462E-25 1.33658E-03-2.87784E-15-3.10189E-13
 -1        57 1.73806E-03-9.97766E-03 3.34704E-26 1.73670E-03 7.27374E-14-1.42071E-13
 -1        58 2.86441E-03-1.52556E-02 4.80706E-27 1.93896E-03 7.81645E-14 4.30789E-14
 -1        59 3.98306E-03-2.05884E-02 3.32888E-26 1.75463E-03 4.53329E-14 1.27674E-13
 -1        60 4.81541E-03-2.48375E-02 5.36192E-26 1.26318E-03-2.73126E-15 1.66180E-13
 -1        61 5.39001E-03-2.75469E-02 2.48003E-26 8.00080E-04-2.43680E-14 1.11804E-13
 -1        62 5.73354E-03-2.93146E-02 6.68504E-27 6.74366E-04-9.03341E-15 6.17752E-14
 -1        63 6.12560E-03-3.12997E-02 3.88629E-27 9.16098E-04 2.25672E-14 4.12384E-14
 -1        64 6.71738E-03-3.43592E-02 1.17166E-26 1.31274E-03 1.68127E-14 7.95765E-14
 -1        65 7.63837E-03-3.86046E-02 4.50548E-28 1.64588E-03-3.70724E-14 2.67316E-14
 -1        66 8.64871E-03-4.36251E-02 1.23881E-26 1.80143E-03-8.61561E-14-4.64470E-14
 -1        67 9.78487E-03-4.88057E-02 7.89744E-26 1.90320E-03-8.21670E-14-1.91520E-13
 -1        68 1.01641E-02-5.42472E-02 1.20594E-25 1.33542E-03-8.84766E-15-2.51470E-13
 -1        69 1.41132E-02-5.72390E-02 4.26495E-26 3.70319E-03 4.49829E-14-1.51366E-13
 -1        70-3.46025E-04 6.29074E-04 1.32509E-25-2.38355E-05-2.43737E-13 9.98317E-14
 -1        71-4.93164E-04 9.58274E-04 1.32746E-25 1.08950E-04-2.70659E-13-1.16505E-14
 -1        72-4.17824E-04 5.88120E-04 2.08661E-25 3.77977E-04-2.76228E-13-1.90562E-13
 -1        73-1.76574E-04-6.28708E-04 3.01510E-25 6.59017E-04-2.17316E-13-3.28954E-13
 -1        74 2.25929E-04-2.66767E-03 3.23206E-25 9.58483E-04-1.11110E-13-3.89941E-13
 -1        75 8.04360E-04-5.70366E-03 1.81459E-25 1.33658E-03-2.87270E-15-3.10186E-13
 -1        76 1.73806E-03-9.97766E-03 3.34819E-26 1.73670E-03 7.27182E-14-1.42086E-13
 -1        77 2.86441E-03-1.52556E-02 4.80981E-27 1.93896E-03 7.81761E-14 4.30784E-14
 -1        78 3.98306E-03-2.05884E-02 3.32804E-26 1.75463E-03 4.53242E-14 1.27659E-13
 -1        79 4.81541E-03-2.48375E-02 5.36231E-26 1.26318E-03-2.74193E-15 1.66186E-13
 -1        80 5.39001E-03-2.75469E-02 2.47973E-26 8.00080E-04-2.43624E-14 1.11798E-13
 -1        81 5.73354E-03-2.93146E-02 6.68522E-27 6.74366E-04-9.03345E-15 6.17756E-14
 -1        82 6.12560E-03-3.12997E-02 3.88649E-27 9.16098E-04 2.25675E-14 4.12390E-14
 -1        83 6.71738E-03-3.43592E-02 1.17193E-26 1.31274E-03 1.68152E-14 7.95860E-14
 -1        84 7.63837E-03-3.86046E-02 4.49770E-28 1.64588E-03-3.70745E-14 2.67289E-14
 -1        85 8.64871E-03-4.36251E-02 1.23874E-26 1.80143E-03-8.61560E-14-4.64459E-14
 -1        86 9.78487E-03-4.88057E-02 7.89772E-26 1.90320E-03-8.21681E-14-1.91524E-13
 -1        87 1.01641E-02-5.42472E-02 1.20594E-25 1.33542E-03-8.84763E-15-2.51470E-13
 -1        88 1.41132E-02-5.72390E-02 4.26495E-26 3.70319E-03 4.49830E-14-1.51366E-13
 -1        89-8.24716E-04-1.38242E-03 3.57963E-26 9.33681E-04-2.23118E-16-1.43556E-13
 -1        90-1.04237E-03-8.81724E-04 1.17375E-25 2.39805E-03-7.98320E-17-2.44373E-13
 -1        91-8.30120E-04-7.02526E-04 6.32097E-26 2.30706E-03 7.07665E-15-1.85974E-13
 -1        92-7.72715E-04-4.39783E-04-4.20173E-27 2.34710E-03 1.08783E-14-4.40309E-14
 -1        93-7.36506E-04-1.57186E-04 4.71993E-27 2.12705E-03 2.78510E-14 5.71156E-14
 -1        94-7.72235E-04 7.76843E-05 1.71738E-26 1.69211E-03 4.32548E-14 8.39276E-14
 -1        95-7.07123E-04 2.26206E-04 4.37518E-27 1.16655E-03 3.74750E-14 3.24772E-14
 -1        96-7.11504E-04 3.22311E-04 3.85106E-27 8.54970E-04 1.95752E-14 4.62272E-14
 -1        97-7.23887E-04 4.16181E-04 2.39656E-26 1.02333E-03 1.90914E-15 1.13043E-13
 -1        98-7.59940E-04 5.06398E-04 5.67403E-26 1.62136E-03-1.06441E-14 1.69141E-13
 -1        99-6.53339E-04 5.75344E-04 3.28395E-26 2.25979E-03-1.86937E-14 1.33010E-13
 -1       100-5.91802E-04 6.35091E-04-8.32294E-27 2.51158E-03-3.59759E-14 3.02655E-14
 -1       101-5.53017E-04 6.87145E-04 4.15073E-26 2.25557E-03-6.49205E-14-1.58675E-13
 -1       102-5.68775E-04 6.93559E-04 2.23786E-25 1.72358E-03-8.27638E-14-3.30619E-13
 -1       103-4.78812E-04 6.33736E-04 3.58993E-25 1.21929E-03-1.07001E-13-4.10980E-13
 -1       104-4.30005E-04 5.41220E-04 2.62991E-25 8.31475E-04-1.20815E-13-3.47291E-13
 -1       105-3.82531E-04 4.42609E-04 9.45602E-26 4.66091E-04-1.28715E-13-1.96720E-13
 -1       106-3.57641E-04 3.24140E-04 2.15760E-26 1.04703E-04-1.33502E-13-1.05013E-14
 -1       107-2.61376E-04 1.70920E-04 5.29409E-26-8.20516E-05-1.38379E-13 1.03112E-13
 -1       108-2.61376E-04 1.70920E-04 5.29458E-26-8.20516E-05-1.38385E-13 1.03121E-13
 -1       109-3.57641E-04 3.24140E-04 2.16004E-26 1.04703E-04-1.33541E-13-1.05447E-14
 -1       110-3.82531E-04 4.42609E-04 9.45339E-26 4.66091E-04-1.28694E-13-1.96697E-13
 -1       111-4.30005E-04 5.41220E-04 2.62986E-25 8.31475E-04-1.20816E-13-3.47289E-13
 -1       112-4.78812E-04 6.33736E-04 3.59037E-25 1.21929E-03-1.07015E-13-4.11004E-13
 -1       113-5.68775E-04 6.93559E-04 2.23793E-25 1.72358E-03-8.27740E-14-3.30625E-13
 -1       114-5.53017E-04 6.87145E-04 4.14796E-26 2.25557E-03-6.49003E-14-1.58640E-13
 -1       115-5.91802E-04 6.35091E-04-8.32021E-27 2.51158E-03-3.59787E-14 3.02698E-14
 -1       116-6.53339E-04 5.75344E-04 3.28386E-26 2.25979E-03-1.87003E-14 1.33002E-13
 -1       117-7.59940E-04 5.06398E-04 5.67365E-26 1.62136E-03-1.06417E-14 1.69135E-13
 -1       118-7.23887E-04 4.16181E-04 2.39737E-26 1.02333E-03 1.91229E-15 1.13060E-13
 -1       119-7.11504E-04 3.22311E-04 3.85073E-27 8.54970E-04 1.95752E-14 4.62264E-14
 -1       120-7.07123E-04 2.26206E-04 4.37718E-27 1.16655E-03 3.74776E-14 3.24869E-14
 -1       121-7.72235E-04 7.76843E-05 1.71775E-26 1.69211E-03 4.32582E-14 8.39365E-14
 -1       122-7.36506E-04-1.57186E-04 4.71909E-27 2.12705E-03 2.78504E-14 5.71135E-14
 -1       123-7.72715E-04-4.39783E-04-4.20195E-27 2.34710E-03 1.08787E-14-4.40306E-14
 -1       124-8.30120E-04-7.02526E-04 6.32096E-26 2.30706E-03 7.07710E-15-1.85974E-13
 -1       125-1.04237E-03-8.81724E-04 1.17375E-25 2.39805E-03-8.01067E-17-2.44373E-13
 -1       126-8.24716E-04-1.38242E-03 3.57962E-26 9.33681E-04-2.23286E-16-1.43556E-13
 -3
    1PSTEP                       352          88           1          
  100CL  188 8.80000E-01         126                     1   88           1
 -4  ERROR       1    1
 -5  STR(%)      1    1    0    0
 -1         1 6.45996E+01
 -1         2 6.45996E+01
 -1         3 2.73196E+01
 -1         4 2.73196E+01
 -1         5 4.72892E+01
 -1         6 4.72892E+01
 -1         7 5.75265E+01
 -1         8 5.75265E+01
 -1         9 4.72892E+01
 -1        10 4.72892E+01
 -1        11 6.45996E+01
 -1        12 6.45996E+01
 -1        13 6.45996E+01
 -1        14 6.38085E+01
 -1        15 6.38085E+01
 -1        16 6.36414E+01
 -1        17 6.32511E+01
 -1        18 6.27128E+01
 -1        19 6.18603E+01
 -1        20 6.11326E+01
 -1        21 6.10180E+01
 -1        22 6.11407E+01
 -1        23 6.11407E+01
 -1        24 6.05184E+01
 -1        25 5.83675E+01
 -1        26 5.50179E+01
 -1        27 4.94198E+01
 -1        28 3.88554E+01
 -1        29 3.00696E+01
 -1        30 5.21904E+01
 -1        31 5.21904E+01
 -1        32 6.45996E+01
 -1        33 6.38085E+01
 -1        34 6.38085E+01
 -1        35 6.36414E+01
 -1        36 6.32511E+01
 -1        37 6.27128E+01
 -1        38 6.18603E+01
 -1        39 6.11326E+01
 -1        40 6.10180E+01
 -1        41 6.11407E+01
 -1        42 6.11407E+01
 -1        43 6.05184E+01
 -1        44 5.83675E+01
 -1        45 5.50179E+01
 -1        46 4.94198E+01
 -1        47 3.88554E+01
 -1        48 3.00696E+01
 -1        49 5.21904E+01
 -1        50 5.21904E+01
 -1        51 4.72892E+01
 -1        52 4.58032E+01
 -1        53 3.39666E+01
 -1        54 4.92696E+01
 -1        55 6.11911E+01
 -1        56 6.31076E+01
 -1        57 6.38152E+01
 -1        58 6.38152E+01
 -1        59 6.38148E+01
 -1        60 6.28239E+01
 -1        61 6.12926E+01
 -1        62 6.03681E+01
 -1        63 6.04063E+01
 -1        64 6.04063E+01
 -1        65 6.01421E+01
 -1        66 5.96048E+01
 -1        67 5.89403E+01
 -1        68 5.84210E+01
 -1        69 5.80759E+01
 -1        70 4.72892E+01
 -1        71 4.58032E+01
 -1        72 3.39666E+01
 -1        73 4.92696E+01
 -1        74 6.11911E+01
 -1        75 6.31076E+01
 -1        76 6.38152E+01
 -1        77 6.38152E+01
 -1        78 6.38148E+01
 -1        79 6.28239E+01
 -1        80 6.12926E+01
 -1        81 6.03681E+01
 -1        82 6.04063E+01
 -1        83 6.04063E+01
 -1        84 6.01421E+01
 -1        85 5.96048E+01
 -1        86 5.89403E+01
 -1        87 5.84210E+01
 -1        88 5.80759E+01
 -1        89 6.45996E+01
 -1        90 6.38085E+01
 -1        91 6.38085E+01
 -1        92 6.36414E+01
 -1        93 6.32511E+01
 -1        94 6.27128E+01
 -1        95 6.18603E+01
 -1        96 6.11326E+01
 -1        97 6.12926E+01
 -1        98 6.28239E+01
 -1        99 6.38148E+01
 -1       100 6.38152E+01
 -1       101 6.38152E+01
 -1       102 6.31076E+01
 -1       103 6.11911E+01
 -1       104 4.92696E+01
 -1       105 3.39666E+01
 -1       106 5.21904E+01
 -1       107 5.21904E+01
 -1       108 5.21904E+01
 -1       109 5.21904E+01
 -1       110 3.39666E+01
 -1       111 4.92696E+01
 -1       112 6.11911E+01
 -1       113 6.31076E+01
 -1       114 6.38152E+01
 -1       115 6.38152E+01
 -1       116 6.38148E+01
 -1       117 6.28239E+01
 -1       118 6.12926E+01
 -1       119 6.11326E+01
 -1       120 6.18603E+01
 -1       121 6.27128E+01
 -1       122 6.32511E+01
 -1       123 6.36414E+01
 -1       124 6.38085E+01
 -1       125 6.38085E+01
 -1       126 6.45996E+01
 -3
    1PSTEP                       353          89           1          
  100CL  189 8.90000E-01         126                     1   89           1
 -4  DISP        4    1
 -5  D1          1    2    1    0
 -5  D2          1    2    2    0
 -5  D3          1    2    3    0
 -5  ALL         1    2    0    0    1ALL
 -1         1 0.00000E+00 0.00000E+00 0.00000E+00
 -1         2 0.00000E+00 0.00000E+00 0.00000E+00
 -1         3 3.53719E-01-5.01136E-02 0.00000E+00
 -1         4 3.53719E-01-5.01136E-02 0.00000E+00
 -1         5 3.42237E-01-9.66032E-02 0.00000E+00
 -1         6 3.42237E-01-9.66032E-02 0.00000E+00
 -1         7 0.00000E+00 0.00000E+00 0.00000E+00
 -1         8 0.00000E+00 0.00000E+00 0.00000E+00
 -1         9 3.47979E-01-7.33581E-02 0.00000E+00
 -1        10 3.47979E-01-7.33581E-02 0.00000E+00
 -1        11 0.00000E+00 0.00000E+00 0.00000E+00
 -1        12 0.00000E+00 0.00000E+00 0.00000E+00
 -1        13 2.28565E-03 2.83104E-03 0.00000E+00
 -1        14 7.19210E-03 5.41305E-03 0.00000E+00
 -1        15 1.50444E-02 7.34848E-03 0.00000E+00
 -1        16 2.53920E-02 8.56768E-03 0.00000E+00
 -1        17 3.78624E-02 9.03555E-03 0.00000E+00
 -1        18 5.21323E-02 8.80286E-03 0.00000E+00
 -1        19 6.79978E-02 7.94071E-03 0.00000E+00
 -1        20 8.53878E-02 6.47103E-03 0.00000E+00
 -1        21 1.04243E-01 4.36296E-03 0.00000E+00
 -1        22 1.24451E-01 1.56042E-03 0.00000E+00
 -1        23 1.45795E-01-1.95844E-03 0.00000E+00
 -1        24 1.68003E-01-6.15493E-03 0.00000E+00
 -1        25 1.90773E-01-1.09102E-02 0.00000E+00
 -1        26 2.13873E-01-1.60718E-02 0.00000E+00
 -1        27 2.37146E-01-2.15018E-02 0.00000E+00
 -1        28 2.60514E-01-2.71154E-02 0.00000E+00
 -1        29 2.83896E-01-3.28446E-02 0.00000E+00
 -1        30 3.07226E-01-3.86198E-02 0.00000E+00
 -1        31 3.30484E-01-4.43795E-02 0.00000E+00
 -1        32 2.28565E-03 2.83104E-03 0.00000E+00
 -1        33 7.19210E-03 5.41305E-03 0.00000E+00
 -1        34 1.50444E-02 7.34848E-03 0.00000E+00
 -1        35 2.53920E-02 8.56768E-03 0.00000E+00
 -1        36 3.78624E-02 9.03555E-03 0.00000E+00
 -1        37 5.21323E-02 8.80286E-03 0.00000E+00
 -1        38 6.79978E-02 7.94071E-03 0.00000E+00
 -1        39 8.53878E-02 6.47103E-03 0.00000E+00
 -1        40 1.04243E-01 4.36296E-03 0.00000E+00
 -1        41 1.24451E-01 1.56042E-03 0.00000E+00
 -1        42 1.45795E-01-1.95844E-03 0.00000E+00
 -1        43 1.68003E-01-6.15493E-03 0.00000E+00
 -1        44 1.90773E-01-1.09102E-02 0.00000E+00
 -1        45 2.13873E-01-1.60718E-02 0.00000E+00
 -1        46 2.37146E-01-2.15018E-02 0.00000E+00
 -1        47 2.60514E-01-2.71154E-02 0.00000E+00
 -1        48 2.83896E-01-3.28446E-02 0.00000E+00
 -1        49 3.07226E-01-3.86198E-02 0.00000E+00
 -1        50 3.30484E-01-4.43795E-02 0.00000E+00
 -1        51 3.18982E-01-9.08853E-02 0.00000E+00
 -1        52 2.95686E-01-8.51758E-02 0.00000E+00
 -1        53 2.72339E-01-7.94303E-02 0.00000E+00
 -1        54 2.48994E-01-7.36233E-02 0.00000E+00
 -1        55 2.25749E-01-6.77681E-02 0.00000E+00
 -1        56 2.02703E-01-6.18857E-02 0.00000E+00
 -1        57 1.79982E-01-5.59924E-02 0.00000E+00
 -1        58 1.57772E-01-5.01111E-02 0.00000E+00
 -1        59 1.36330E-01-4.43125E-02 0.00000E+00
 -1        60 1.15924E-01-3.87106E-02 0.00000E+00
 -1        61 9.67724E-02-3.34320E-02 0.00000E+00
 -1        62 7.89982E-02-2.85662E-02 0.00000E+00
 -1        63 6.26615E-02-2.41441E-02 0.00000E+00
 -1        64 4.78018E-02-2.01279E-02 0.00000E+00
 -1        65 3.45174E-02-1.64325E-02 0.00000E+00
 -1        66 2.29984E-02-1.29592E-02 0.00000E+00
 -1        67 1.35391E-02-9.63342E-03 0.00000E+00
 -1        68 6.42100E-03-6.40196E-03 0.00000E+00
 -1        69 2.05880E-03-3.14768E-03 0.00000E+00
 -1        70 3.18982E-01-9.08853E-02 0.00000E+00
 -1        71 2.95686E-01-8.51758E-02 0.00000E+00
 -1        72 2.72339E-01-7.94303E-02 0.00000E+00
 -1        73 2.48994E-01-7.36233E-02 0.00000E+00
 -1        74 2.25749E-01-6.77681E-02 0.00000E+00
 -1        75 2.02703E-01-6.18857E-02 0.00000E+00
 -1        76 1.79982E-01-5.59924E-02 0.00000E+00
 -1        77 1.57772E-01-5.01111E-02 0.00000E+00
 -1        78 1.36330E-01-4.43125E-02 0.00000E+00
 -1        79 1.15924E-01-3.87106E-02 0.00000E+00
 -1        80 9.67724E-02-3.34320E-02 0.00000E+00
 -1        81 7.89982E-02-2.85662E-02 0.00000E+00
 -1        82 6.26615E-02-2.41441E-02 0.00000E+00
 -1        83 4.78018E-02-2.01279E-02 0.00000E+00
 -1        84 3.45174E-02-1.64325E-02 0.00000E+00
 -1        85 2.29984E-02-1.29592E-02 0.00000E+00
 -1        86 1.35391E-02-9.63342E-03 0.00000E+00
 -1        87 6.42100E-03-6.40196E-03 0.00000E+00
 -1        88 2.05880E-03-3.14768E-03 0.00000E+00
 -1        89 1.39389E-03-1.22987E-04 0.00000E+00
 -1        90 6.23709E-03-4.17739E-04 0.00000E+00
 -1        91 1.37657E-02-1.04104E-03 0.00000E+00
 -1        92 2.37415E-02-2.08755E-03 0.00000E+00
 -1        93 3.57941E-02-3.58942E-03 0.00000E+00
 -1        94 4.96123E-02-5.55236E-03 0.00000E+00
 -1        95 6.50018E-02-7.98849E-03 0.00000E+00
 -1        96 8.18844E-02-1.09309E-02 0.00000E+00
 -1        97 1.00224E-01-1.44171E-02 0.00000E+00
 -1        98 1.19940E-01-1.84628E-02 0.00000E+00
 -1        99 1.40865E-01-2.30386E-02 0.00000E+00
 -1       100 1.62741E-01-2.80590E-02 0.00000E+00
 -1       101 1.85279E-01-3.34003E-02 0.00000E+00
 -1       102 2.08224E-01-3.89451E-02 0.00000E+00
 -1       103 2.31411E-01-4.46143E-02 0.00000E+00
 -1       104 2.54737E-01-5.03595E-02 0.00000E+00
 -1       105 2.78115E-01-5.61356E-02 0.00000E+00
 -1       106 3.01461E-01-6.18991E-02 0.00000E+00
 -1       107 3.24737E-01-6.76326E-02 0.00000E+00
 -1       108 3.24737E-01-6.76326E-02 0.00000E+00
 -1       109 3.01461E-01-6.18991E-02 0.00000E+00
 -1       110 2.78115E-01-5.61356E-02 0.00000E+00
 -1       111 2.54737E-01-5.03595E-02 0.00000E+00
 -1       112 2.31411E-01-4.46143E-02 0.00000E+00
 -1       113 2.08224E-01-3.89451E-02 0.00000E+00
 -1       114 1.85279E-01-3.34003E-02 0.00000E+00
 -1       115 1.62741E-01-2.80590E-02 0.00000E+00
 -1       116 1.40865E-01-2.30386E-02 0.00000E+00
 -1       117 1.19940E-01-1.84628E-02 0.00000E+00
 -1       118 1.00224E-01-1.44171E-02 0.00000E+00
 -1       119 8.18844E-02-1.09309E-02 0.00000E+00
 -1       120 6.50018E-02-7.98849E-03 0.00000E+00
 -1       121 4.96123E-02-5.55236E-03 0.00000E+00
 -1       122 3.57941E-02-3.58942E-03 0.00000E+00
 -1       123 2.37415E-02-2.08755E-03 0.00000E+00
 -1       124 1.37657E-02-1.04104E-03 0.00000E+00
 -1       125 6.23709E-03-4.17739E-04 0.00000E+00
 -1       126 1.39389E-03-1.22987E-04 0.00000E+00
 -3
    1PSTEP                       354          89           1          
  100CL  189 8.90000E-01         126                     1   89           1
 -4  STRESS      6    1
 -5  SXX         1    4    1    1
 -5  SYY         1    4    2    2
 -5  SZZ         1    4    3    3
 -5  SXY         1    4    1    2
 -5  SYZ         1    4    2    3
 -5  SZX         1    4    3    1
 -1         1 1.34618E+04 3.29505E+04 1.29391E+04 8.29427E+03-3.45922E-10-3.16323E-10
 -1         2 1.34618E+04 3.29505E+04 1.29391E+04 8.29427E+03-3.45922E-10-3.16323E-10
 -1         3-1.34588E+02-7.70500E+01-6.35098E+01-1.61021E+01 8.81199E-10-1.08549E-07
 -1         4-1.34588E+02-7.70500E+01-6.35098E+01-1.61021E+01 8.77500E-10-1.08553E-07
 -1         5 5.88687E+00 1.11256E+02 3.51177E+01 6.25713E+01 1.34385E-08-8.65749E-08
 -1         6 5.88687E+00 1.11256E+02 3.51177E+01 6.25713E+01 1.34246E-08-8.65749E-08
 -1         7-1.44395E+04-3.10413E+04-1.47996E+04 5.14188E+03-3.98650E-10 2.81083E-10
 -1         8-1.44395E+04-3.10413E+04-1.47996E+04 5.14188E+03-3.98643E-10 2.81083E-10
 -1         9-7.88306E+01 1.45792E+01-1.92818E+01 1.49576E+01 1.04410E-08-1.02937E-07
 -1        10-7.88306E+01 1.45792E+01-1.92818E+01 1.49576E+01 1.04499E-08-1.02930E-07
 -1        11-3.81779E+02-1.84878E+03-4.77752E+02 4.23074E+03-3.82318E-10-1.46150E-11
 -1        12-3.81779E+02-1.84878E+03-4.77752E+02 4.23074E+03-3.82332E-10-1.46147E-11
 -1        13 4.98895E+03 2.88743E+04 9.45448E+03 2.90013E+03-8.19203E-09-3.74175E-08
 -1        14 6.38837E+03 2.73854E+04 9.46397E+03 3.11639E+03 9.04892E-09-4.63785E-08
 -1        15 5.94548E+03 2.38699E+04 8.41341E+03 3.95533E+03 2.94773E-08-2.40941E-08
 -1        16 5.69090E+03 2.06964E+04 7.49831E+03 4.21266E+03 3.38114E-08 2.72582E-08
 -1        17 5.33140E+03 1.79371E+04 6.65373E+03 4.19388E+03 1.97846E-08 7.99732E-08
 -1        18 4.99642E+03 1.59531E+04 6.01747E+03 4.08755E+03-7.07822E-09 1.33311E-07
 -1        19 4.88596E+03 1.46801E+04 5.63477E+03 4.05844E+03-3.67853E-08 1.56344E-07
 -1        20 4.86027E+03 1.36163E+04 5.33047E+03 4.13270E+03-5.80428E-08 1.36778E-07
 -1        21 4.80430E+03 1.23060E+04 4.94762E+03 4.15407E+03-6.39143E-08 9.36115E-08
 -1        22 4.51811E+03 1.04964E+04 4.35808E+03 3.95920E+03-5.39564E-08 2.91800E-08
 -1        23 4.01158E+03 8.32267E+03 3.59959E+03 3.45864E+03-3.31311E-08-1.47212E-08
 -1        24 3.22004E+03 6.04948E+03 2.72226E+03 2.75440E+03-1.60449E-08-4.05587E-08
 -1        25 2.33180E+03 4.07289E+03 1.89219E+03 2.00582E+03-1.60469E-09-5.89294E-08
 -1        26 1.50838E+03 2.56577E+03 1.20941E+03 1.37145E+03-1.18792E-10-6.59271E-08
 -1        27 9.27468E+02 1.50197E+03 7.23718E+02 8.78573E+02 1.99423E-09-8.38463E-08
 -1        28 4.68882E+02 6.69251E+02 3.39854E+02 5.09686E+02 7.09784E-09-1.06484E-07
 -1        29 1.09394E+02 7.71343E+01 5.56539E+01 2.17839E+02 5.65063E-09-1.01327E-07
 -1        30-1.36631E+02-1.95131E+02-9.96196E+01 3.55465E+01 3.12983E-09-1.00616E-07
 -1        31-1.74973E+02-1.59214E+02-1.00300E+02-1.78234E+01-2.75393E-09-1.00812E-07
 -1        32 4.98895E+03 2.88743E+04 9.45448E+03 2.90013E+03-8.19203E-09-3.74175E-08
 -1        33 6.38837E+03 2.73854E+04 9.46397E+03 3.11639E+03 9.04890E-09-4.63784E-08
 -1        34 5.94548E+03 2.38699E+04 8.41341E+03 3.95533E+03 2.94773E-08-2.40941E-08
 -1        35 5.69090E+03 2.06964E+04 7.49831E+03 4.21266E+03 3.38113E-08 2.72573E-08
 -1        36 5.33140E+03 1.79371E+04 6.65373E+03 4.19388E+03 1.97845E-08 7.99726E-08
 -1        37 4.99642E+03 1.59531E+04 6.01747E+03 4.08755E+03-7.07683E-09 1.33310E-07
 -1        38 4.88596E+03 1.46801E+04 5.63477E+03 4.05844E+03-3.67865E-08 1.56344E-07
 -1        39 4.86027E+03 1.36163E+04 5.33047E+03 4.13270E+03-5.80428E-08 1.36778E-07
 -1        40 4.80430E+03 1.23060E+04 4.94762E+03 4.15407E+03-6.39145E-08 9.36115E-08
 -1        41 4.51811E+03 1.04964E+04 4.35808E+03 3.95920E+03-5.39568E-08 2.91800E-08
 -1        42 4.01158E+03 8.32267E+03 3.59959E+03 3.45864E+03-3.31311E-08-1.47175E-08
 -1        43 3.22004E+03 6.04948E+03 2.72226E+03 2.75440E+03-1.60452E-08-4.05631E-08
 -1        44 2.33180E+03 4.07289E+03 1.89219E+03 2.00582E+03-1.60371E-09-5.89269E-08
 -1        45 1.50838E+03 2.56577E+03 1.20941E+03 1.37145E+03-1.19588E-10-6.59245E-08
 -1        46 9.27468E+02 1.50197E+03 7.23718E+02 8.78573E+02 1.99515E-09-8.38462E-08
 -1        47 4.68882E+02 6.69251E+02 3.39854E+02 5.09686E+02 7.09760E-09-1.06484E-07
 -1        48 1.09394E+02 7.71343E+01 5.56539E+01 2.17839E+02 5.65491E-09-1.01352E-07
 -1        49-1.36631E+02-1.95131E+02-9.96196E+01 3.55465E+01 3.12961E-09-1.00611E-07
 -1        50-1.74973E+02-1.59214E+02-1.00300E+02-1.78234E+01-2.75688E-09-1.00798E-07
 -1        51 1.50838E+01 1.79239E+02 5.81835E+01 1.21400E+02 1.61006E-08-9.29155E-08
 -1        52 5.80005E+01 1.88558E+02 7.37658E+01 1.89992E+02 1.16628E-08-9.41092E-08
 -1        53 7.64120E+00-1.38649E+02-3.94807E+01 1.40821E+02 1.80060E-08-9.28761E-08
 -1        54-2.21870E+02-7.88581E+02-3.03867E+02-4.13510E+01 2.41049E-08-8.82852E-08
 -1        55-5.83384E+02-1.68090E+03-6.82402E+02-3.15015E+02 2.25231E-08-7.06303E-08
 -1        56-1.07458E+03-2.89240E+03-1.19966E+03-6.65388E+02 2.16387E-08-5.83200E-08
 -1        57-1.68626E+03-4.52175E+03-1.88685E+03-1.14694E+03 2.32558E-08-3.91680E-08
 -1        58-2.49241E+03-6.57245E+03-2.77301E+03-1.75522E+03 3.28589E-08-1.47566E-08
 -1        59-3.38778E+03-8.76558E+03-3.74336E+03-2.40577E+03 3.14524E-08 3.06087E-08
 -1        60-4.19784E+03-1.07458E+04-4.63064E+03-2.94882E+03 2.35901E-08 7.49169E-08
 -1        61-4.70932E+03-1.22486E+04-5.27799E+03-3.28280E+03 4.17373E-09 1.22144E-07
 -1        62-4.95886E+03-1.33402E+04-5.71125E+03-3.37053E+03-2.28048E-08 1.59544E-07
 -1        63-5.05255E+03-1.43135E+04-6.05699E+03-3.27674E+03-4.87871E-08 1.55540E-07
 -1        64-5.18528E+03-1.56162E+04-6.52598E+03-3.09656E+03-6.76358E-08 1.18416E-07
 -1        65-5.44001E+03-1.75432E+04-7.24930E+03-2.90486E+03-7.09071E-08 6.34406E-08
 -1        66-5.92994E+03-2.01207E+04-8.27962E+03-2.67932E+03-5.24570E-08-3.82438E-09
 -1        67-6.45724E+03-2.29575E+04-9.42779E+03-2.29147E+03-2.65731E-08-3.26014E-08
 -1        68-7.56788E+03-2.61114E+04-1.08896E+04-1.78701E+03-7.18476E-09-4.55373E-08
 -1        69-5.92017E+03-2.71778E+04-1.07633E+04-1.39865E+02 4.86732E-09-3.58852E-08
 -1        70 1.50838E+01 1.79239E+02 5.81835E+01 1.21400E+02 1.60971E-08-9.29137E-08
 -1        71 5.80005E+01 1.88558E+02 7.37658E+01 1.89992E+02 1.16620E-08-9.41086E-08
 -1        72 7.64120E+00-1.38649E+02-3.94807E+01 1.40821E+02 1.80087E-08-9.28785E-08
 -1        73-2.21870E+02-7.88581E+02-3.03867E+02-4.13510E+01 2.41049E-08-8.82852E-08
 -1        74-5.83384E+02-1.68090E+03-6.82402E+02-3.15015E+02 2.25226E-08-7.06303E-08
 -1        75-1.07458E+03-2.89240E+03-1.19966E+03-6.65388E+02 2.16386E-08-5.83205E-08
 -1        76-1.68626E+03-4.52175E+03-1.88685E+03-1.14694E+03 2.32560E-08-3.91670E-08
 -1        77-2.49241E+03-6.57245E+03-2.77301E+03-1.75522E+03 3.28589E-08-1.47536E-08
 -1        78-3.38778E+03-8.76558E+03-3.74336E+03-2.40577E+03 3.14522E-08 3.05983E-08
 -1        79-4.19784E+03-1.07458E+04-4.63064E+03-2.94882E+03 2.35935E-08 7.49187E-08
 -1        80-4.70932E+03-1.22486E+04-5.27799E+03-3.28280E+03 4.17247E-09 1.22137E-07
 -1        81-4.95886E+03-1.33402E+04-5.71125E+03-3.37053E+03-2.28047E-08 1.59544E-07
 -1        82-5.05255E+03-1.43135E+04-6.05699E+03-3.27674E+03-4.87873E-08 1.55540E-07
 -1        83-5.18528E+03-1.56162E+04-6.52598E+03-3.09656E+03-6.76356E-08 1.18416E-07
 -1        84-5.44001E+03-1.75432E+04-7.24930E+03-2.90486E+03-7.09077E-08 6.34413E-08
 -1        85-5.92994E+03-2.01207E+04-8.27962E+03-2.67932E+03-5.24548E-08-3.82785E-09
 -1        86-6.45724E+03-2.29575E+04-9.42779E+03-2.29147E+03-2.65743E-08-3.26012E-08
 -1        87-7.56788E+03-2.61114E+04-1.08896E+04-1.78701E+03-7.18477E-09-4.55373E-08
 -1        88-5.92017E+03-2.71778E+04-1.07633E+04-1.39865E+02 4.86729E-09-3.58852E-08
 -1        89-1.42285E+02-1.77833E+03-5.15059E+02 3.20194E+02 1.42588E-09-3.82353E-08
 -1        90-1.85448E+02-1.60060E+03-4.35994E+02 7.26171E+02 1.53100E-09-5.10750E-08
 -1        91-1.25298E+01-1.38623E+03-3.48297E+02 6.39950E+02-3.48963E-09-3.40642E-08
 -1        92 6.45736E+01-1.17845E+03-2.75589E+02 5.96911E+02-1.02628E-08 8.89569E-09
 -1        93 7.13092E+01-9.30125E+02-2.10127E+02 4.57888E+02-2.58015E-08 7.51952E-08
 -1        94-1.29492E+01-7.17614E+02-1.79871E+02 2.91426E+02-4.06965E-08 1.30354E-07
 -1        95-3.69103E+01-5.58893E+02-1.45663E+02 1.69724E+02-4.66707E-08 1.61866E-07
 -1        96-1.60882E+01-5.11816E+02-1.30722E+02 1.64270E+02-4.12326E-08 1.50930E-07
 -1        97 9.82336E+01-5.33116E+02-1.08282E+02 2.60504E+02-2.73409E-08 1.11507E-07
 -1        98 2.44233E+02-5.95241E+02-8.90643E+01 4.00571E+02-8.95062E-09 5.50750E-08
 -1        99 4.19559E+02-6.02134E+02-4.41721E+01 4.94319E+02-9.65335E-11 6.59029E-09
 -1       100 4.76241E+02-5.44971E+02-1.46639E+01 5.18455E+02 8.76247E-09-3.20101E-08
 -1       101 4.26851E+02-4.08272E+02 8.37570E+00 4.72370E+02 1.04062E-08-5.15470E-08
 -1       102 3.03512E+02-2.73033E+02 1.01206E+01 3.99251E+02 9.34205E-09-6.33313E-08
 -1       103 2.37561E+02-1.63975E+02 2.22097E+01 3.21860E+02 1.43732E-08-7.62730E-08
 -1       104 1.71727E+02-1.14616E+02 1.69826E+01 2.66260E+02 1.70922E-08-9.45383E-08
 -1       105 9.16112E+01-6.03274E+01 9.22647E+00 2.01362E+02 1.16367E-08-9.96850E-08
 -1       106-2.67968E+01-5.73787E+00-9.85746E+00 1.20220E+02 5.00995E-09-9.56528E-08
 -1       107-8.66146E+01 1.33436E+01-2.20013E+01 4.74505E+01 6.08854E-09-9.51144E-08
 -1       108-8.66146E+01 1.33436E+01-2.20013E+01 4.74505E+01 6.08595E-09-9.51325E-08
 -1       109-2.67968E+01-5.73787E+00-9.85746E+00 1.20220E+02 5.01393E-09-9.56537E-08
 -1       110 9.16112E+01-6.03274E+01 9.22647E+00 2.01362E+02 1.16341E-08-9.96802E-08
 -1       111 1.71727E+02-1.14616E+02 1.69826E+01 2.66260E+02 1.70926E-08-9.45383E-08
 -1       112 2.37561E+02-1.63975E+02 2.22097E+01 3.21860E+02 1.43723E-08-7.62730E-08
 -1       113 3.03512E+02-2.73033E+02 1.01206E+01 3.99251E+02 9.34228E-09-6.33307E-08
 -1       114 4.26851E+02-4.08272E+02 8.37570E+00 4.72370E+02 1.04040E-08-5.15491E-08
 -1       115 4.76241E+02-5.44971E+02-1.46639E+01 5.18455E+02 8.76300E-09-3.20027E-08
 -1       116 4.19559E+02-6.02134E+02-4.41721E+01 4.94319E+02-9.61986E-11 6.58465E-09
 -1       117 2.44233E+02-5.95241E+02-8.90643E+01 4.00571E+02-8.95060E-09 5.50747E-08
 -1       118 9.82336E+01-5.33116E+02-1.08282E+02 2.60504E+02-2.73395E-08 1.11508E-07
 -1       119-1.60882E+01-5.11816E+02-1.30722E+02 1.64270E+02-4.12327E-08 1.50929E-07
 -1       120-3.69103E+01-5.58893E+02-1.45663E+02 1.69724E+02-4.66703E-08 1.61866E-07
 -1       121-1.29492E+01-7.17614E+02-1.79871E+02 2.91426E+02-4.06972E-08 1.30353E-07
 -1       122 7.13092E+01-9.30125E+02-2.10127E+02 4.57888E+02-2.58012E-08 7.51957E-08
 -1       123 6.45736E+01-1.17845E+03-2.75589E+02 5.96911E+02-1.02629E-08 8.89793E-09
 -1       124-1.25298E+01-1.38623E+03-3.48297E+02 6.39950E+02-3.48951E-09-3.40644E-08
 -1       125-1.85448E+02-1.60060E+03-4.35994E+02 7.26171E+02 1.53107E-09-5.10751E-08
 -1       126-1.42285E+02-1.77833E+03-5.15059E+02 3.20194E+02 1.42593E-09-3.82353E-08
 -3
    1PSTEP                       355          89           1          
  100CL  189 8.90000E-01         126                     1   89           1
 -4  TOSTRAIN    6    1
 -5  EXX         1    4    1    1
 -5  EYY         1    4    2    2
 -5  EZZ         1    4    3    3
 -5  EXY         1    4    1    2
 -5  EYZ         1    4    2    3
 -5  EZX         1    4    3    1
 -1         1-3.17102E-04 5.89499E-02-5.04957E-27 2.28562E-02 1.02172E-19-5.72371E-16
 -1         2-3.17102E-04 5.89499E-02-5.04957E-27 2.28562E-02 1.02172E-19-5.72371E-16
 -1         3-1.47601E-04-1.27540E-04 2.48547E-25-1.06748E-04-1.61537E-13-3.13788E-13
 -1         4-1.47601E-04-1.27540E-04 2.48562E-25-1.06748E-04-1.61554E-13-3.13793E-13
 -1         5-1.88430E-04 3.40615E-04 1.61226E-25-2.55072E-05-9.21259E-14-2.69441E-13
 -1         6-1.88430E-04 3.40615E-04 1.61218E-25-2.55072E-05-9.21658E-14-2.69420E-13
 -1         7-3.19940E-04-6.04426E-02-4.54112E-27 2.05878E-02-1.00505E-19 4.48278E-16
 -1         8-3.19940E-04-6.04426E-02-4.54112E-27 2.05878E-02-7.57310E-20 4.48277E-16
 -1         9-1.68016E-04 8.44574E-05 2.25439E-25-9.73604E-05-1.25507E-13-3.12049E-13
 -1        10-1.68016E-04 8.44574E-05 2.25411E-25-9.73604E-05-1.25470E-13-3.12041E-13
 -1        11-3.18521E-04-2.38659E-03-5.13673E-27 1.39387E-02 1.88865E-19 7.68463E-18
 -1        12-3.18521E-04-2.38659E-03-5.13673E-27 1.39387E-02 1.42634E-19 7.68686E-18
 -1        13-1.62271E-02 5.82304E-02 2.72687E-26 4.17970E-03-3.12478E-14-1.18268E-13
 -1        14-1.23665E-02 5.45387E-02 4.54393E-26 1.63310E-03 1.08386E-14-1.51241E-13
 -1        15-1.13684E-02 4.87428E-02 1.93876E-26 2.13043E-03 7.66210E-14-9.27180E-14
 -1        16-9.91340E-03 4.31433E-02 1.80158E-26 1.97426E-03 1.19934E-13 6.19627E-14
 -1        17-8.75442E-03 3.81715E-02 1.20396E-25 1.62389E-03 1.22409E-13 2.32702E-13
 -1        18-8.01299E-03 3.45664E-02 3.62281E-25 1.10189E-03 9.89039E-14 4.18290E-13
 -1        19-7.46126E-03 3.22983E-02 5.42241E-25 7.36590E-04 4.78299E-14 5.16236E-13
 -1        20-7.12359E-03 3.05980E-02 4.62320E-25 7.33861E-04-2.01143E-14 4.79625E-13
 -1        21-6.68108E-03 2.84457E-02 2.55699E-25 1.03777E-03-7.45524E-14 3.58434E-13
 -1        22-6.01391E-03 2.51534E-02 5.69782E-26 1.44417E-03-1.18536E-13 1.57046E-13
 -1        23-4.90830E-03 2.06846E-02 1.47808E-26 1.74663E-03-1.14781E-13 2.63044E-15
 -1        24-3.74911E-03 1.56508E-02 3.37911E-26 1.79322E-03-1.02712E-13-9.48470E-14
 -1        25-2.70364E-03 1.09557E-02 7.07699E-26 1.54791E-03-8.97274E-14-1.68050E-13
 -1        26-1.95315E-03 7.21597E-03 9.00609E-26 1.16327E-03-9.76159E-14-1.89884E-13
 -1        27-1.28771E-03 4.43226E-03 1.45638E-25 8.56422E-04-1.19674E-13-2.44280E-13
 -1        28-8.06903E-04 2.28197E-03 2.38284E-25 6.67264E-04-1.40179E-13-3.16905E-13
 -1        29-4.33064E-04 6.74623E-04 2.17287E-25 4.42581E-04-1.37111E-13-2.99894E-13
 -1        30-2.57506E-04-1.73999E-04 2.14125E-25 1.43697E-04-1.43340E-13-2.94212E-13
 -1        31-1.84122E-04-2.50345E-04 2.14597E-25-5.39274E-05-1.60395E-13-2.86006E-13
 -1        32-1.62271E-02 5.82304E-02 2.72687E-26 4.17970E-03-3.12478E-14-1.18268E-13
 -1        33-1.23665E-02 5.45387E-02 4.54391E-26 1.63310E-03 1.08386E-14-1.51241E-13
 -1        34-1.13684E-02 4.87428E-02 1.93878E-26 2.13043E-03 7.66210E-14-9.27181E-14
 -1        35-9.91340E-03 4.31433E-02 1.80152E-26 1.97426E-03 1.19933E-13 6.19599E-14
 -1        36-8.75442E-03 3.81715E-02 1.20394E-25 1.62389E-03 1.22408E-13 2.32700E-13
 -1        37-8.01299E-03 3.45664E-02 3.62275E-25 1.10189E-03 9.89075E-14 4.18287E-13
 -1        38-7.46126E-03 3.22983E-02 5.42244E-25 7.36590E-04 4.78266E-14 5.16238E-13
 -1        39-7.12359E-03 3.05980E-02 4.62320E-25 7.33861E-04-2.01143E-14 4.79625E-13
 -1        40-6.68108E-03 2.84457E-02 2.55699E-25 1.03777E-03-7.45531E-14 3.58434E-13
 -1        41-6.01391E-03 2.51534E-02 5.69785E-26 1.44417E-03-1.18537E-13 1.57046E-13
 -1        42-4.90830E-03 2.06846E-02 1.47791E-26 1.74663E-03-1.14776E-13 2.64144E-15
 -1        43-3.74911E-03 1.56508E-02 3.37953E-26 1.79322E-03-1.02719E-13-9.48596E-14
 -1        44-2.70364E-03 1.09557E-02 7.07641E-26 1.54791E-03-8.97208E-14-1.68044E-13
 -1        45-1.95315E-03 7.21597E-03 9.00538E-26 1.16327E-03-9.76144E-14-1.89876E-13
 -1        46-1.28771E-03 4.43226E-03 1.45638E-25 8.56422E-04-1.19671E-13-2.44281E-13
 -1        47-8.06903E-04 2.28197E-03 2.38283E-25 6.67264E-04-1.40179E-13-3.16904E-13
 -1        48-4.33064E-04 6.74623E-04 2.17398E-25 4.42581E-04-1.37138E-13-2.99975E-13
 -1        49-2.57506E-04-1.73999E-04 2.14103E-25 1.43697E-04-1.43333E-13-2.94197E-13
 -1        50-1.84122E-04-2.50345E-04 2.14537E-25-5.39274E-05-1.60382E-13-2.85960E-13
 -1        51-3.49855E-04 6.02076E-04 1.87588E-25 3.94794E-06-9.40922E-14-2.91715E-13
 -1        52-4.69053E-04 7.88770E-04 1.89799E-25 1.74432E-04-1.08805E-13-2.88361E-13
 -1        53-3.28656E-04 1.57832E-04 1.88671E-25 4.55193E-04-8.88935E-14-2.94377E-13
 -1        54-2.37964E-05-1.29112E-03 1.76058E-25 6.84847E-04-6.42843E-14-2.90536E-13
 -1        55 3.92286E-04-3.34206E-03 1.15014E-25 8.86126E-04-4.15729E-14-2.37538E-13
 -1        56 9.14556E-04-6.09142E-03 8.02698E-26 1.17132E-03-2.46107E-14-2.00955E-13
 -1        57 1.74913E-03-9.87271E-03 4.08963E-26 1.53590E-03 1.01455E-14-1.48068E-13
 -1        58 2.78956E-03-1.46939E-02 2.01818E-26 1.80071E-03 7.63306E-14-9.05860E-14
 -1        59 3.90388E-03-1.99247E-02 3.05981E-26 1.77745E-03 1.38532E-13 4.64285E-14
 -1        60 4.84970E-03-2.46123E-02 1.22233E-25 1.45701E-03 1.74324E-13 1.92239E-13
 -1        61 5.60592E-03-2.80849E-02 3.08431E-25 1.02673E-03 1.69486E-13 3.63739E-13
 -1        62 6.06335E-03-3.03528E-02 5.43268E-25 7.35664E-04 1.17377E-13 5.13973E-13
 -1        63 6.40261E-03-3.21320E-02 5.54476E-25 7.57111E-04 1.25442E-14 5.32464E-13
 -1        64 6.83374E-03-3.45093E-02 3.83330E-25 1.10984E-03-1.04220E-13 4.34702E-13
 -1        65 7.65721E-03-3.83216E-02 1.80119E-25 1.62662E-03-1.80236E-13 2.60230E-13
 -1        66 8.72638E-03-4.36211E-02 5.19110E-26 2.00730E-03-1.80332E-13 2.55215E-14
 -1        67 1.00371E-02-4.96140E-02 3.62231E-26 2.22181E-03-1.10958E-13-8.98879E-14
 -1        68 1.05808E-02-5.60492E-02 4.32331E-26 1.65160E-03-4.40607E-14-1.45314E-13
 -1        69 1.49062E-02-5.99513E-02 2.44911E-26 4.22127E-03 1.04020E-14-1.18079E-13
 -1        70-3.49855E-04 6.02076E-04 1.87578E-25 3.94794E-06-9.40996E-14-2.91704E-13
 -1        71-4.69053E-04 7.88770E-04 1.89796E-25 1.74432E-04-1.08806E-13-2.88358E-13
 -1        72-3.28656E-04 1.57832E-04 1.88682E-25 4.55193E-04-8.88895E-14-2.94388E-13
 -1        73-2.37964E-05-1.29112E-03 1.76058E-25 6.84847E-04-6.42843E-14-2.90536E-13
 -1        74 3.92286E-04-3.34206E-03 1.15013E-25 8.86126E-04-4.15742E-14-2.37537E-13
 -1        75 9.14556E-04-6.09142E-03 8.02708E-26 1.17132E-03-2.46117E-14-2.00957E-13
 -1        76 1.74913E-03-9.87271E-03 4.08942E-26 1.53590E-03 1.01476E-14-1.48066E-13
 -1        77 2.78956E-03-1.46939E-02 2.01833E-26 1.80071E-03 7.63349E-14-9.05771E-14
 -1        78 3.90388E-03-1.99247E-02 3.05908E-26 1.77745E-03 1.38517E-13 4.63983E-14
 -1        79 4.84970E-03-2.46123E-02 1.22243E-25 1.45701E-03 1.74337E-13 1.92240E-13
 -1        80 5.60592E-03-2.80849E-02 3.08399E-25 1.02673E-03 1.69473E-13 3.63720E-13
 -1        81 6.06335E-03-3.03528E-02 5.43268E-25 7.35664E-04 1.17378E-13 5.13973E-13
 -1        82 6.40261E-03-3.21320E-02 5.54475E-25 7.57111E-04 1.25436E-14 5.32464E-13
 -1        83 6.83374E-03-3.45093E-02 3.83329E-25 1.10984E-03-1.04220E-13 4.34702E-13
 -1        84 7.65721E-03-3.83216E-02 1.80122E-25 1.62662E-03-1.80238E-13 2.60232E-13
 -1        85 8.72638E-03-4.36211E-02 5.19061E-26 2.00730E-03-1.80327E-13 2.55090E-14
 -1        86 1.00371E-02-4.96140E-02 3.62251E-26 2.22181E-03-1.10961E-13-8.98866E-14
 -1        87 1.05808E-02-5.60492E-02 4.32332E-26 1.65160E-03-4.40607E-14-1.45314E-13
 -1        88 1.49062E-02-5.99513E-02 2.44911E-26 4.22127E-03 1.04019E-14-1.18079E-13
 -1        89-6.60430E-04-1.93037E-03 2.80299E-26 1.34584E-03-2.29238E-15-1.24395E-13
 -1        90-8.92857E-04-1.37678E-03 5.41757E-26 2.84913E-03-1.43673E-14-1.65552E-13
 -1        91-6.65649E-04-1.13297E-03 1.78072E-26 2.71288E-03-2.96657E-14-1.07125E-13
 -1        92-5.93513E-04-8.28538E-04-1.54155E-26 2.61381E-03-2.60260E-14 3.56296E-14
 -1        93-5.48607E-04-5.39006E-04 1.12076E-25 2.09901E-03-1.86793E-14 2.57895E-13
 -1        94-5.89626E-04-3.33572E-04 3.84022E-25 1.42411E-03-3.93818E-15 4.44117E-13
 -1        95-5.29329E-04-2.26705E-04 5.98558E-25 9.54119E-04 2.51794E-14 5.47189E-13
 -1        96-5.30121E-04-1.47585E-04 5.12955E-25 9.31832E-04 4.63672E-14 5.06544E-13
 -1        97-5.37577E-04-2.72425E-05 2.64249E-25 1.32261E-03 5.46839E-14 3.69151E-13
 -1        98-5.82104E-04 1.21801E-04 4.77790E-26 1.88454E-03 4.53137E-14 1.75446E-13
 -1        99-5.02209E-04 2.60290E-04-1.15931E-26 2.30228E-03 8.62875E-15 1.94680E-14
 -1       100-4.79773E-04 3.87273E-04 1.71574E-26 2.34182E-03-2.02571E-14-1.05912E-13
 -1       101-4.77256E-04 4.99527E-04 5.65381E-26 2.00083E-03-4.53968E-14-1.64673E-13
 -1       102-5.19295E-04 5.57335E-04 8.53677E-26 1.51387E-03-6.73418E-14-1.96737E-13
 -1       103-4.47714E-04 5.41879E-04 1.25668E-25 1.13185E-03-7.32948E-14-2.41286E-13
 -1       104-4.15350E-04 4.88400E-04 1.93588E-25 8.73017E-04-9.37382E-14-2.97763E-13
 -1       105-3.80860E-04 4.20764E-04 2.12288E-25 5.73224E-04-1.17472E-13-3.04243E-13
 -1       106-3.63280E-04 3.20536E-04 1.93676E-25 1.92833E-04-1.30332E-13-2.82740E-13
 -1       107-2.66988E-04 1.71635E-04 1.91614E-25-4.63258E-05-1.26263E-13-2.82945E-13
 -1       108-2.66988E-04 1.71635E-04 1.91688E-25-4.63258E-05-1.26298E-13-2.82993E-13
 -1       109-3.63280E-04 3.20536E-04 1.93681E-25 1.92833E-04-1.30322E-13-2.82749E-13
 -1       110-3.80860E-04 4.20764E-04 2.12267E-25 5.73224E-04-1.17472E-13-3.04226E-13
 -1       111-4.15350E-04 4.88400E-04 1.93588E-25 8.73017E-04-9.37369E-14-2.97763E-13
 -1       112-4.47714E-04 5.41879E-04 1.25667E-25 1.13185E-03-7.32973E-14-2.41284E-13
 -1       113-5.19295E-04 5.57335E-04 8.53667E-26 1.51387E-03-6.73403E-14-1.96735E-13
 -1       114-4.77256E-04 4.99527E-04 5.65424E-26 2.00083E-03-4.54062E-14-1.64676E-13
 -1       115-4.79773E-04 3.87273E-04 1.71502E-26 2.34182E-03-2.02452E-14-1.05891E-13
 -1       116-5.02209E-04 2.60290E-04-1.15888E-26 2.30228E-03 8.62194E-15 1.94510E-14
 -1       117-5.82104E-04 1.21801E-04 4.77770E-26 1.88454E-03 4.53134E-14 1.75445E-13
 -1       118-5.37577E-04-2.72425E-05 2.64252E-25 1.32261E-03 5.46893E-14 3.69153E-13
 -1       119-5.30121E-04-1.47585E-04 5.12955E-25 9.31832E-04 4.63666E-14 5.06544E-13
 -1       120-5.29329E-04-2.26705E-04 5.98558E-25 9.54119E-04 2.51810E-14 5.47190E-13
 -1       121-5.89626E-04-3.33572E-04 3.84022E-25 1.42411E-03-3.94041E-15 4.44116E-13
 -1       122-5.48607E-04-5.39006E-04 1.12079E-25 2.09901E-03-1.86778E-14 2.57897E-13
 -1       123-5.93513E-04-8.28538E-04-1.54135E-26 2.61381E-03-2.60251E-14 3.56369E-14
 -1       124-6.65649E-04-1.13297E-03 1.78068E-26 2.71288E-03-2.96654E-14-1.07126E-13
 -1       125-8.92857E-04-1.37678E-03 5.41760E-26 2.84913E-03-1.43672E-14-1.65552E-13
 -1       126-6.60430E-04-1.93037E-03 2.80299E-26 1.34584E-03-2.29221E-15-1.24395E-13
 -3
    1PSTEP                       356          89           1          
  100CL  189 8.90000E-01         126                     1   89           1
 -4  ERROR       1    1
 -5  STR(%)      1    1    0    0
 -1         1 6.54443E+01
 -1         2 6.54443E+01
 -1         3 2.81381E+01
 -1         4 2.81381E+01
 -1         5 4.66086E+01
 -1         6 4.66086E+01
 -1         7 5.72389E+01
 -1         8 5.72389E+01
 -1         9 4.66086E+01
 -1        10 4.66086E+01
 -1        11 6.54443E+01
 -1        12 6.54443E+01
 -1        13 6.54443E+01
 -1        14 6.47119E+01
 -1        15 6.47119E+01
 -1        16 6.45471E+01
 -1        17 6.41001E+01
 -1        18 6.34281E+01
 -1        19 6.25333E+01
 -1        20 6.22004E+01
 -1        21 6.25337E+01
 -1        22 6.25337E+01
 -1        23 6.23937E+01
 -1        24 6.16121E+01
 -1        25 5.97724E+01
 -1        26 5.73506E+01
 -1        27 5.35221E+01
 -1        28 4.65807E+01
 -1        29 2.43820E+01
 -1        30 4.58809E+01
 -1        31 4.58809E+01
 -1        32 6.54443E+01
 -1        33 6.47119E+01
 -1        34 6.47119E+01
 -1        35 6.45471E+01
 -1        36 6.41001E+01
 -1        37 6.34281E+01
 -1        38 6.25333E+01
 -1        39 6.22004E+01
 -1        40 6.25337E+01
 -1        41 6.25337E+01
 -1        42 6.23937E+01
 -1        43 6.16121E+01
 -1        44 5.97724E+01
 -1        45 5.73506E+01
 -1        46 5.35221E+01
 -1        47 4.65807E+01
 -1        48 2.43820E+01
 -1        49 4.58809E+01
 -1        50 4.58809E+01
 -1        51 4.66086E+01
 -1        52 4.64555E+01
 -1        53 2.45278E+01
 -1        54 5.69207E+01
 -1        55 6.39099E+01
 -1        56 6.39099E+01
 -1        57 6.35856E+01
 -1        58 6.30264E+01
 -1        59 6.26047E+01
 -1        60 6.17947E+01
 -1        61 6.04905E+01
 -1        62 5.94250E+01
 -1        63 5.90616E+01
 -1        64 5.92147E+01
 -1        65 5.92147E+01
 -1        66 5.90435E+01
 -1        67 5.84924E+01
 -1        68 5.79636E+01
 -1        69 5.75457E+01
 -1        70 4.66086E+01
 -1        71 4.64555E+01
 -1        72 2.45278E+01
 -1        73 5.69207E+01
 -1        74 6.39099E+01
 -1        75 6.39099E+01
 -1        76 6.35856E+01
 -1        77 6.30264E+01
 -1        78 6.26047E+01
 -1        79 6.17947E+01
 -1        80 6.04905E+01
 -1        81 5.94250E+01
 -1        82 5.90616E+01
 -1        83 5.92147E+01
 -1        84 5.92147E+01
 -1        85 5.90435E+01
 -1        86 5.84924E+01
 -1        87 5.79636E+01
 -1        88 5.75457E+01
 -1        89 6.54443E+01
 -1        90 6.47119E+01
 -1        91 6.47119E+01
 -1        92 6.45471E+01
 -1        93 6.41001E+01
 -1        94 6.34281E+01
 -1        95 6.25333E+01
 -1        96 6.22004E+01
 -1        97 6.25337E+01
 -1        98 6.25337E+01
 -1        99 6.26047E+01
 -1       100 6.30264E+01
 -1       101 6.35856E+01
 -1       102 6.39099E+01
 -1       103 6.39099E+01
 -1       104 5.69207E+01
 -1       105 2.45278E+01
 -1       106 4.64555E+01
 -1       107 4.66086E+01
 -1       108 4.66086E+01
 -1       109 4.64555E+01
 -1       110 2.45278E+01
 -1       111 5.69207E+01
 -1       112 6.39099E+01
 -1       113 6.39099E+01
 -1       114 6.35856E+01
 -1       115 6.30264E+01
 -1       116 6.26047E+01
 -1       117 6.25337E+01
 -1       118 6.25337E+01
 -1       119 6.22004E+01
 -1       120 6.25333E+01
 -1       121 6.34281E+01
 -1       122 6.41001E+01
 -1       123 6.45471E+01
 -1       124 6.47119E+01
 -1       125 6.47119E+01
 -1       126 6.54443E+01
 -3
    1PSTEP                       357          90           1          
  100CL  190 9.00000E-01         126                     1   90           1
 -4  DISP        4    1
 -5  D1          1    2    1    0
 -5  D2          1    2    2    0
 -5  D3          1    2    3    0
 -5  ALL         1    2    0    0    1ALL
 -1         1 0.00000E+00 0.00000E+00 0.00000E+00
 -1         2 0.00000E+00 0.00000E+00 0.00000E+00
 -1         3 3.57758E-01-5.15960E-02 0.00000E+00
 -1         4 3.57758E-01-5.15960E-02 0.00000E+00
 -1         5 3.45985E-01-9.86382E-02 0.00000E+00
 -1         6 3.45985E-01-9.86382E-02 0.00000E+00
 -1         7 0.00000E+00 0.00000E+00 0.00000E+00
 -1         8 0.00000E+00 0.00000E+00 0.00000E+00
 -1         9 3.51871E-01-7.51162E-02 0.00000E+00
 -1        10 3.51871E-01-7.51162E-02 0.00000E+00
 -1        11 0.00000E+00 0.00000E+00 0.00000E+00
 -1        12 0.00000E+00 0.00000E+00 0.00000E+00
 -1        13 2.46173E-03 2.93727E-03 0.00000E+00
 -1        14 7.62974E-03 5.54683E-03 0.00000E+00
 -1        15 1.57584E-02 7.43487E-03 0.00000E+00
 -1        16 2.63372E-02 8.57751E-03 0.00000E+00
 -1        17 3.90009E-02 8.97647E-03 0.00000E+00
 -1        18 5.34732E-02 8.69080E-03 0.00000E+00
 -1        19 6.95962E-02 7.76759E-03 0.00000E+00
 -1        20 8.73040E-02 6.19142E-03 0.00000E+00
 -1        21 1.06483E-01 3.91483E-03 0.00000E+00
 -1        22 1.26939E-01 9.11786E-04 0.00000E+00
 -1        23 1.48407E-01-2.77693E-03 0.00000E+00
 -1        24 1.70649E-01-7.06898E-03 0.00000E+00
 -1        25 1.93454E-01-1.18591E-02 0.00000E+00
 -1        26 2.16646E-01-1.70470E-02 0.00000E+00
 -1        27 2.40065E-01-2.25291E-02 0.00000E+00
 -1        28 2.63594E-01-2.82119E-02 0.00000E+00
 -1        29 2.87150E-01-3.40080E-02 0.00000E+00
 -1        30 3.10701E-01-3.98574E-02 0.00000E+00
 -1        31 3.34234E-01-4.57239E-02 0.00000E+00
 -1        32 2.46173E-03 2.93727E-03 0.00000E+00
 -1        33 7.62974E-03 5.54683E-03 0.00000E+00
 -1        34 1.57584E-02 7.43487E-03 0.00000E+00
 -1        35 2.63372E-02 8.57751E-03 0.00000E+00
 -1        36 3.90009E-02 8.97647E-03 0.00000E+00
 -1        37 5.34732E-02 8.69080E-03 0.00000E+00
 -1        38 6.95962E-02 7.76759E-03 0.00000E+00
 -1        39 8.73040E-02 6.19142E-03 0.00000E+00
 -1        40 1.06483E-01 3.91483E-03 0.00000E+00
 -1        41 1.26939E-01 9.11786E-04 0.00000E+00
 -1        42 1.48407E-01-2.77693E-03 0.00000E+00
 -1        43 1.70649E-01-7.06898E-03 0.00000E+00
 -1        44 1.93454E-01-1.18591E-02 0.00000E+00
 -1        45 2.16646E-01-1.70470E-02 0.00000E+00
 -1        46 2.40065E-01-2.25291E-02 0.00000E+00
 -1        47 2.63594E-01-2.82119E-02 0.00000E+00
 -1        48 2.87150E-01-3.40080E-02 0.00000E+00
 -1        49 3.10701E-01-3.98574E-02 0.00000E+00
 -1        50 3.34234E-01-4.57239E-02 0.00000E+00
 -1        51 3.22455E-01-9.27570E-02 0.00000E+00
 -1        52 2.98923E-01-8.68738E-02 0.00000E+00
 -1        53 2.75398E-01-8.09764E-02 0.00000E+00
 -1        54 2.51909E-01-7.50479E-02 0.00000E+00
 -1        55 2.28529E-01-6.90811E-02 0.00000E+00
 -1        56 2.05371E-01-6.30877E-02 0.00000E+00
 -1        57 1.82592E-01-5.71081E-02 0.00000E+00
 -1        58 1.60353E-01-5.11926E-02 0.00000E+00
 -1        59 1.38837E-01-4.53977E-02 0.00000E+00
 -1        60 1.18245E-01-3.97853E-02 0.00000E+00
 -1        61 9.88049E-02-3.44363E-02 0.00000E+00
 -1        62 8.07097E-02-2.94377E-02 0.00000E+00
 -1        63 6.40924E-02-2.48573E-02 0.00000E+00
 -1        64 4.90179E-02-2.07014E-02 0.00000E+00
 -1        65 3.55604E-02-1.69090E-02 0.00000E+00
 -1        66 2.38643E-02-1.33772E-02 0.00000E+00
 -1        67 1.41896E-02-1.00051E-02 0.00000E+00
 -1        68 6.82090E-03-6.70517E-03 0.00000E+00
 -1        69 2.23337E-03-3.32911E-03 0.00000E+00
 -1        70 3.22455E-01-9.27570E-02 0.00000E+00
 -1        71 2.98923E-01-8.68738E-02 0.00000E+00
 -1        72 2.75398E-01-8.09764E-02 0.00000E+00
 -1        73 2.51909E-01-7.50479E-02 0.00000E+00
 -1        74 2.28529E-01-6.90811E-02 0.00000E+00
 -1        75 2.05371E-01-6.30877E-02 0.00000E+00
 -1        76 1.82592E-01-5.71081E-02 0.00000E+00
 -1        77 1.60353E-01-5.11926E-02 0.00000E+00
 -1        78 1.38837E-01-4.53977E-02 0.00000E+00
 -1        79 1.18245E-01-3.97853E-02 0.00000E+00
 -1        80 9.88049E-02-3.44363E-02 0.00000E+00
 -1        81 8.07097E-02-2.94377E-02 0.00000E+00
 -1        82 6.40924E-02-2.48573E-02 0.00000E+00
 -1        83 4.90179E-02-2.07014E-02 0.00000E+00
 -1        84 3.55604E-02-1.69090E-02 0.00000E+00
 -1        85 2.38643E-02-1.33772E-02 0.00000E+00
 -1        86 1.41896E-02-1.00051E-02 0.00000E+00
 -1        87 6.82090E-03-6.70517E-03 0.00000E+00
 -1        88 2.23337E-03-3.32911E-03 0.00000E+00
 -1        89 1.53811E-03-1.53036E-04 0.00000E+00
 -1        90 6.64968E-03-4.96857E-04 0.00000E+00
 -1        91 1.44499E-02-1.18075E-03 0.00000E+00
 -1        92 2.46503E-02-2.29071E-03 0.00000E+00
 -1        93 3.68831E-02-3.85559E-03 0.00000E+00
 -1        94 5.08837E-02-5.89122E-03 0.00000E+00
 -1        95 6.65088E-02-8.42617E-03 0.00000E+00
 -1        96 8.36975E-02-1.15025E-02 0.00000E+00
 -1        97 1.02370E-01-1.51443E-02 0.00000E+00
 -1        98 1.22361E-01-1.93309E-02 0.00000E+00
 -1        99 1.43438E-01-2.39980E-02 0.00000E+00
 -1       100 1.65360E-01-2.90601E-02 0.00000E+00
 -1       101 1.87919E-01-3.44309E-02 0.00000E+00
 -1       102 2.10938E-01-4.00301E-02 0.00000E+00
 -1       103 2.34255E-01-4.57818E-02 0.00000E+00
 -1       104 2.57730E-01-5.16177E-02 0.00000E+00
 -1       105 2.81264E-01-5.74868E-02 0.00000E+00
 -1       106 3.04808E-01-6.33628E-02 0.00000E+00
 -1       107 3.28344E-01-6.92384E-02 0.00000E+00
 -1       108 3.28344E-01-6.92384E-02 0.00000E+00
 -1       109 3.04808E-01-6.33628E-02 0.00000E+00
 -1       110 2.81264E-01-5.74868E-02 0.00000E+00
 -1       111 2.57730E-01-5.16177E-02 0.00000E+00
 -1       112 2.34255E-01-4.57818E-02 0.00000E+00
 -1       113 2.10938E-01-4.00301E-02 0.00000E+00
 -1       114 1.87919E-01-3.44309E-02 0.00000E+00
 -1       115 1.65360E-01-2.90601E-02 0.00000E+00
 -1       116 1.43438E-01-2.39980E-02 0.00000E+00
 -1       117 1.22361E-01-1.93309E-02 0.00000E+00
 -1       118 1.02370E-01-1.51443E-02 0.00000E+00
 -1       119 8.36975E-02-1.15025E-02 0.00000E+00
 -1       120 6.65088E-02-8.42617E-03 0.00000E+00
 -1       121 5.08837E-02-5.89122E-03 0.00000E+00
 -1       122 3.68831E-02-3.85559E-03 0.00000E+00
 -1       123 2.46503E-02-2.29071E-03 0.00000E+00
 -1       124 1.44499E-02-1.18075E-03 0.00000E+00
 -1       125 6.64968E-03-4.96857E-04 0.00000E+00
 -1       126 1.53811E-03-1.53036E-04 0.00000E+00
 -3
    1PSTEP                       358          90           1          
  100CL  190 9.00000E-01         126                     1   90           1
 -4  STRESS      6    1
 -5  SXX         1    4    1    1
 -5  SYY         1    4    2    2
 -5  SZZ         1    4    3    3
 -5  SXY         1    4    1    2
 -5  SYZ         1    4    2    3
 -5  SZX         1    4    3    1
 -1         1 1.40575E+04 3.43202E+04 1.34388E+04 8.99470E+03 1.78681E-10 1.36244E-10
 -1         2 1.40575E+04 3.43202E+04 1.34388E+04 8.99470E+03 1.78681E-10 1.36244E-10
 -1         3-5.55505E+01 1.75396E+01-1.14126E+01 3.41269E+01 5.02463E-08-1.94722E-07
 -1         4-5.55505E+01 1.75396E+01-1.14126E+01 3.41269E+01 5.02500E-08-1.94727E-07
 -1         5-4.85956E+01-4.23678E+01-2.72946E+01 2.65977E+01 1.00752E-07-1.66432E-07
 -1         6-4.85956E+01-4.23678E+01-2.72946E+01 2.65977E+01 1.00762E-07-1.66382E-07
 -1         7-1.52253E+04-3.26231E+04-1.56578E+04 5.50085E+03 2.37926E-10-2.08372E-10
 -1         8-1.52253E+04-3.26231E+04-1.56578E+04 5.50085E+03 2.37918E-10-2.08364E-10
 -1         9-5.74970E+01-2.34865E+01-2.43013E+01 2.82844E+01 8.03910E-08-1.79053E-07
 -1        10-5.74970E+01-2.34865E+01-2.43013E+01 2.82844E+01 8.03829E-08-1.79049E-07
 -1        11-4.62399E+02-2.19646E+03-5.96975E+02 4.66050E+03 2.14177E-10-8.62697E-12
 -1        12-4.62399E+02-2.19646E+03-5.96975E+02 4.66050E+03 2.14192E-10-8.64199E-12
 -1        13 5.19071E+03 2.97342E+04 9.73221E+03 3.24375E+03 9.39447E-10 1.86115E-08
 -1        14 6.56808E+03 2.76067E+04 9.57350E+03 3.36066E+03-6.34723E-09 1.56584E-08
 -1        15 6.01520E+03 2.36498E+04 8.37783E+03 4.06805E+03-5.43652E-09 2.03016E-08
 -1        16 5.70608E+03 2.04283E+04 7.43418E+03 4.21303E+03 6.11521E-10 4.72923E-08
 -1        17 5.35785E+03 1.78637E+04 6.64378E+03 4.17948E+03 4.00763E-09 9.07059E-08
 -1        18 5.08527E+03 1.60750E+04 6.07707E+03 4.13559E+03-1.80920E-08 1.58926E-07
 -1        19 5.02287E+03 1.47691E+04 5.69808E+03 4.16502E+03-6.21697E-08 1.94006E-07
 -1        20 4.96053E+03 1.33824E+04 5.29434E+03 4.20450E+03-9.41079E-08 1.65120E-07
 -1        21 4.76384E+03 1.16450E+04 4.75338E+03 4.07495E+03-9.40045E-08 9.84192E-08
 -1        22 4.30314E+03 9.62036E+03 4.05303E+03 3.70672E+03-5.35023E-08 1.40381E-08
 -1        23 3.71859E+03 7.61870E+03 3.31798E+03 3.15009E+03-1.25400E-08-3.06205E-08
 -1        24 3.01638E+03 5.76671E+03 2.58372E+03 2.55097E+03 1.85487E-08-3.56668E-08
 -1        25 2.30814E+03 4.14421E+03 1.90685E+03 1.96829E+03 1.80379E-08-7.34219E-09
 -1        26 1.60711E+03 2.74407E+03 1.29120E+03 1.42901E+03 2.00403E-09 4.40328E-09
 -1        27 1.03773E+03 1.64759E+03 7.99768E+02 9.36085E+02-1.83936E-08-3.96619E-09
 -1        28 5.58906E+02 8.41802E+02 4.18334E+02 5.54295E+02-2.48205E-08-3.78719E-08
 -1        29 2.25372E+02 3.50611E+02 1.72320E+02 2.95294E+02-1.06845E-08-8.61322E-08
 -1        30 1.38414E+01 9.61048E+01 3.28787E+01 1.49528E+02 1.35287E-08-1.38668E-07
 -1        31-5.55375E+01 1.55184E+01-1.20308E+01 6.85972E+01 3.25786E-08-1.65124E-07
 -1        32 5.19071E+03 2.97342E+04 9.73221E+03 3.24375E+03 9.39439E-10 1.86115E-08
 -1        33 6.56808E+03 2.76067E+04 9.57350E+03 3.36066E+03-6.34720E-09 1.56584E-08
 -1        34 6.01520E+03 2.36498E+04 8.37783E+03 4.06805E+03-5.43649E-09 2.03016E-08
 -1        35 5.70608E+03 2.04283E+04 7.43418E+03 4.21303E+03 6.11518E-10 4.72923E-08
 -1        36 5.35785E+03 1.78637E+04 6.64378E+03 4.17948E+03 4.00768E-09 9.07079E-08
 -1        37 5.08527E+03 1.60750E+04 6.07707E+03 4.13559E+03-1.80917E-08 1.58930E-07
 -1        38 5.02287E+03 1.47691E+04 5.69808E+03 4.16502E+03-6.21705E-08 1.94005E-07
 -1        39 4.96053E+03 1.33824E+04 5.29434E+03 4.20450E+03-9.41079E-08 1.65120E-07
 -1        40 4.76384E+03 1.16450E+04 4.75338E+03 4.07495E+03-9.40045E-08 9.84174E-08
 -1        41 4.30314E+03 9.62036E+03 4.05303E+03 3.70672E+03-5.35023E-08 1.40386E-08
 -1        42 3.71859E+03 7.61870E+03 3.31798E+03 3.15009E+03-1.25400E-08-3.06205E-08
 -1        43 3.01638E+03 5.76671E+03 2.58372E+03 2.55097E+03 1.85487E-08-3.56705E-08
 -1        44 2.30814E+03 4.14421E+03 1.90685E+03 1.96829E+03 1.80372E-08-7.34665E-09
 -1        45 1.60711E+03 2.74407E+03 1.29120E+03 1.42901E+03 2.00351E-09 4.41758E-09
 -1        46 1.03773E+03 1.64759E+03 7.99768E+02 9.36085E+02-1.83936E-08-3.96804E-09
 -1        47 5.58906E+02 8.41802E+02 4.18334E+02 5.54295E+02-2.48205E-08-3.78640E-08
 -1        48 2.25372E+02 3.50611E+02 1.72320E+02 2.95294E+02-1.06871E-08-8.61231E-08
 -1        49 1.38414E+01 9.61048E+01 3.28787E+01 1.49528E+02 1.35305E-08-1.38670E-07
 -1        50-5.55375E+01 1.55184E+01-1.20308E+01 6.85972E+01 3.25755E-08-1.65117E-07
 -1        51-7.59516E+01-7.59702E+01-4.55916E+01 4.25663E+01 9.59095E-08-1.31171E-07
 -1        52-1.04590E+02-1.82243E+02-8.60904E+01 4.09925E+01 8.88779E-08-9.69041E-08
 -1        53-1.75299E+02-4.76252E+02-1.95699E+02-2.05633E+01 6.61376E-08-4.30536E-08
 -1        54-3.70558E+02-1.07240E+03-4.34150E+02-1.71530E+02 3.66933E-08-4.54956E-09
 -1        55-7.18778E+02-2.00536E+03-8.21903E+02-4.43066E+02 7.69931E-09 1.76240E-08
 -1        56-1.23759E+03-3.24885E+03-1.35867E+03-8.27347E+02-5.24224E-09 1.34872E-08
 -1        57-1.83239E+03-4.70847E+03-1.98980E+03-1.29984E+03 5.18912E-09-1.78611E-08
 -1        58-2.50763E+03-6.38995E+03-2.72083E+03-1.80638E+03 2.64023E-08-2.66012E-08
 -1        59-3.22490E+03-8.26586E+03-3.53419E+03-2.32500E+03 4.77508E-08-5.46467E-09
 -1        60-3.95895E+03-1.02401E+04-4.39376E+03-2.81601E+03 4.62092E-08 6.12016E-08
 -1        61-4.56166E+03-1.20601E+04-5.17223E+03-3.21849E+03 1.60469E-08 1.34689E-07
 -1        62-4.98632E+03-1.35553E+04-5.79419E+03-3.43541E+03-3.71414E-08 1.87050E-07
 -1        63-5.20484E+03-1.47520E+04-6.25447E+03-3.43957E+03-8.14136E-08 1.82904E-07
 -1        64-5.35034E+03-1.60056E+04-6.71186E+03-3.27960E+03-9.24347E-08 1.28549E-07
 -1        65-5.53454E+03-1.77198E+04-7.34153E+03-3.04761E+03-7.22657E-08 7.66444E-08
 -1        66-5.94925E+03-2.01369E+04-8.29313E+03-2.76615E+03-4.64182E-08 3.79493E-08
 -1        67-6.46658E+03-2.30589E+04-9.46849E+03-2.33744E+03-2.42334E-08 2.30947E-08
 -1        68-7.70916E+03-2.66339E+04-1.11261E+04-1.81375E+03-1.15672E-08 2.87329E-08
 -1        69-6.09350E+03-2.82449E+04-1.12126E+04-7.15260E+01-6.29551E-09 1.92887E-08
 -1        70-7.59516E+01-7.59702E+01-4.55916E+01 4.25663E+01 9.59148E-08-1.31168E-07
 -1        71-1.04590E+02-1.82243E+02-8.60904E+01 4.09925E+01 8.88790E-08-9.69135E-08
 -1        72-1.75299E+02-4.76252E+02-1.95699E+02-2.05633E+01 6.61378E-08-4.30444E-08
 -1        73-3.70558E+02-1.07240E+03-4.34150E+02-1.71530E+02 3.66937E-08-4.57344E-09
 -1        74-7.18778E+02-2.00536E+03-8.21903E+02-4.43066E+02 7.69977E-09 1.76175E-08
 -1        75-1.23759E+03-3.24885E+03-1.35867E+03-8.27347E+02-5.24225E-09 1.34861E-08
 -1        76-1.83239E+03-4.70847E+03-1.98980E+03-1.29984E+03 5.18913E-09-1.78581E-08
 -1        77-2.50763E+03-6.38995E+03-2.72083E+03-1.80638E+03 2.63987E-08-2.65756E-08
 -1        78-3.22490E+03-8.26586E+03-3.53419E+03-2.32500E+03 4.77521E-08-5.49952E-09
 -1        79-3.95895E+03-1.02401E+04-4.39376E+03-2.81601E+03 4.62101E-08 6.12034E-08
 -1        80-4.56166E+03-1.20601E+04-5.17223E+03-3.21849E+03 1.60441E-08 1.34683E-07
 -1        81-4.98632E+03-1.35553E+04-5.79419E+03-3.43541E+03-3.71414E-08 1.87050E-07
 -1        82-5.20484E+03-1.47520E+04-6.25447E+03-3.43957E+03-8.14139E-08 1.82905E-07
 -1        83-5.35034E+03-1.60056E+04-6.71186E+03-3.27960E+03-9.24332E-08 1.28545E-07
 -1        84-5.53454E+03-1.77198E+04-7.34153E+03-3.04761E+03-7.22662E-08 7.66454E-08
 -1        85-5.94925E+03-2.01369E+04-8.29313E+03-2.76615E+03-4.64189E-08 3.79509E-08
 -1        86-6.46658E+03-2.30589E+04-9.46849E+03-2.33744E+03-2.42330E-08 2.30950E-08
 -1        87-7.70916E+03-2.66339E+04-1.11261E+04-1.81375E+03-1.15672E-08 2.87329E-08
 -1        88-6.09350E+03-2.82449E+04-1.12126E+04-7.15260E+01-6.29549E-09 1.92886E-08
 -1        89-1.04278E+02-2.07942E+03-5.90838E+02 4.94959E+02-2.31039E-09 2.03169E-08
 -1        90-1.47911E+02-1.84734E+03-4.94428E+02 8.60724E+02-8.22670E-09 2.26039E-08
 -1        91 1.48045E+01-1.56271E+03-3.91525E+02 6.76729E+02-1.71156E-08 1.85782E-08
 -1        92 5.36794E+01-1.31230E+03-3.18099E+02 5.43831E+02-2.52067E-08 3.97222E-08
 -1        93 2.77765E+01-1.05439E+03-2.59618E+02 3.56310E+02-3.87421E-08 7.94621E-08
 -1        94-5.47000E+01-8.69448E+02-2.37239E+02 2.00025E+02-5.97036E-08 1.44943E-07
 -1        95-3.68361E+01-7.61839E+02-2.06505E+02 1.32592E+02-7.30238E-08 1.95781E-07
 -1        96 3.88087E+01-7.56398E+02-1.88493E+02 1.82550E+02-6.69107E-08 1.86909E-07
 -1        97 1.70017E+02-7.66780E+02-1.58108E+02 2.83861E+02-3.67374E-08 1.18446E-07
 -1        98 2.59335E+02-7.52316E+02-1.32639E+02 3.66021E+02-1.61243E-09 3.65217E-08
 -1        99 3.37974E+02-6.61354E+02-8.68344E+01 3.84095E+02 2.25043E-08-2.23111E-08
 -1       100 3.41972E+02-5.57138E+02-5.85776E+01 3.77300E+02 2.51502E-08-3.42680E-08
 -1       101 3.26091E+02-4.48975E+02-3.38609E+01 3.62947E+02 1.30273E-08-1.07308E-08
 -1       102 2.70358E+02-3.64712E+02-2.70900E+01 3.42586E+02-1.37753E-09 1.13006E-08
 -1       103 2.28457E+02-2.59674E+02-8.99622E+00 2.86746E+02-7.80175E-09 9.56850E-09
 -1       104 1.39232E+02-1.68869E+02-8.85575E+00 2.20235E+02 4.29286E-09-1.77053E-08
 -1       105 5.20316E+01-8.84495E+01-1.09654E+01 1.54871E+02 2.68642E-08-6.36744E-08
 -1       106-2.97500E+01-4.96516E+01-2.38578E+01 1.04821E+02 5.35370E-08-1.16319E-07
 -1       107-6.25940E+01-3.62365E+01-2.96674E+01 5.79621E+01 6.77432E-08-1.48711E-07
 -1       108-6.25940E+01-3.62365E+01-2.96674E+01 5.79621E+01 6.77435E-08-1.48744E-07
 -1       109-2.97500E+01-4.96516E+01-2.38578E+01 1.04821E+02 5.35338E-08-1.16312E-07
 -1       110 5.20316E+01-8.84495E+01-1.09654E+01 1.54871E+02 2.68642E-08-6.36798E-08
 -1       111 1.39232E+02-1.68869E+02-8.85575E+00 2.20235E+02 4.29219E-09-1.77168E-08
 -1       112 2.28457E+02-2.59674E+02-8.99622E+00 2.86746E+02-7.80259E-09 9.57281E-09
 -1       113 2.70358E+02-3.64712E+02-2.70900E+01 3.42586E+02-1.37746E-09 1.13006E-08
 -1       114 3.26091E+02-4.48975E+02-3.38609E+01 3.62947E+02 1.30274E-08-1.07392E-08
 -1       115 3.41972E+02-5.57138E+02-5.85776E+01 3.77300E+02 2.51508E-08-3.42645E-08
 -1       116 3.37974E+02-6.61354E+02-8.68344E+01 3.84095E+02 2.25040E-08-2.23065E-08
 -1       117 2.59335E+02-7.52316E+02-1.32639E+02 3.66021E+02-1.61248E-09 3.65207E-08
 -1       118 1.70017E+02-7.66780E+02-1.58108E+02 2.83861E+02-3.67376E-08 1.18449E-07
 -1       119 3.88087E+01-7.56398E+02-1.88493E+02 1.82550E+02-6.69107E-08 1.86909E-07
 -1       120-3.68361E+01-7.61839E+02-2.06505E+02 1.32592E+02-7.30230E-08 1.95776E-07
 -1       121-5.47000E+01-8.69448E+02-2.37239E+02 2.00025E+02-5.97033E-08 1.44945E-07
 -1       122 2.77765E+01-1.05439E+03-2.59618E+02 3.56310E+02-3.87421E-08 7.94582E-08
 -1       123 5.36794E+01-1.31230E+03-3.18099E+02 5.43831E+02-2.52068E-08 3.97221E-08
 -1       124 1.48045E+01-1.56271E+03-3.91525E+02 6.76729E+02-1.71157E-08 1.85777E-08
 -1       125-1.47911E+02-1.84734E+03-4.94428E+02 8.60724E+02-8.22675E-09 2.26040E-08
 -1       126-1.04278E+02-2.07942E+03-5.90838E+02 4.94959E+02-2.31043E-09 2.03170E-08
 -3
    1PSTEP                       359          90           1          
  100CL  190 9.00000E-01         126                     1   90           1
 -4  TOSTRAIN    6    1
 -5  EXX         1    4    1    1
 -5  EYY         1    4    2    2
 -5  EZZ         1    4    3    3
 -5  EXY         1    4    1    2
 -5  EYZ         1    4    2    3
 -5  EZX         1    4    3    1
 -1         1-3.46478E-04 6.13347E-02-1.22003E-27 2.46170E-02 7.57881E-20 2.02599E-16
 -1         2-3.46478E-04 6.13347E-02-1.22003E-27 2.46170E-02 7.57881E-20 2.02599E-16
 -1         3-1.83031E-04 1.33577E-04 8.46803E-25-3.68067E-05-1.53634E-13-6.35403E-13
 -1         4-1.83031E-04 1.33577E-04 8.46847E-25-3.68067E-05-1.53631E-13-6.35423E-13
 -1         5-1.36573E-04 1.83092E-05 7.93746E-25 3.97710E-05 3.44385E-14-6.31483E-13
 -1         6-1.36573E-04 1.83092E-05 7.93438E-25 3.97710E-05 3.45446E-14-6.31354E-13
 -1         7-3.52617E-04-6.37188E-02-1.47074E-27 2.23334E-02 1.98713E-19-4.02534E-16
 -1         8-3.52617E-04-6.37188E-02-1.47073E-27 2.23334E-02 1.74818E-19-4.02507E-16
 -1         9-1.59802E-04 5.45063E-05 8.07619E-25 5.33388E-06-4.32469E-14-6.36552E-13
 -1        10-1.59802E-04 5.45063E-05 8.07567E-25 5.33388E-06-4.32639E-14-6.36528E-13
 -1        11-3.49547E-04-2.93236E-03-1.46972E-27 1.53809E-02 1.28442E-19-5.80596E-17
 -1        12-3.49547E-04-2.93236E-03-1.46973E-27 1.53809E-02 1.73032E-19-5.81094E-17
 -1        13-1.67101E-02 5.99687E-02 6.63062E-27 4.82668E-03 6.27000E-15 5.94166E-14
 -1        14-1.23609E-02 5.50332E-02 5.68179E-27 2.02516E-03-1.32476E-14 5.22806E-14
 -1        15-1.11812E-02 4.83922E-02 7.55863E-27 2.32172E-03-5.43944E-15 6.73731E-14
 -1        16-9.69820E-03 4.26350E-02 3.98784E-26 1.93376E-03 3.39509E-14 1.48089E-13
 -1        17-8.64760E-03 3.80158E-02 1.53093E-25 1.46740E-03 8.48341E-14 2.78960E-13
 -1        18-8.02477E-03 3.48416E-02 5.18921E-25 9.96610E-04 9.15245E-14 5.07324E-13
 -1        19-7.48438E-03 3.26014E-02 8.71928E-25 8.18593E-04 1.41354E-14 6.57651E-13
 -1        20-6.99171E-03 3.03017E-02 7.50748E-25 1.00936E-03-9.09769E-14 6.06935E-13
 -1        21-6.29032E-03 2.71873E-02 3.53649E-25 1.34188E-03-1.53978E-13 4.10906E-13
 -1        22-5.44637E-03 2.32291E-02 2.92629E-26 1.54745E-03-1.36063E-13 1.12390E-13
 -1        23-4.39766E-03 1.89254E-02 1.00947E-26 1.56057E-03-7.74293E-14-7.21365E-14
 -1        24-3.48468E-03 1.47730E-02 3.13400E-26 1.46969E-03 2.79062E-15-1.30301E-13
 -1        25-2.67462E-03 1.09889E-02 5.74981E-27 1.33280E-03 4.07832E-14-4.78302E-14
 -1        26-2.00541E-03 7.62483E-03-1.15585E-27 1.14239E-03 1.21971E-14 9.65579E-15
 -1        27-1.31205E-03 4.78763E-03 3.59816E-27 8.95425E-04-5.85636E-14 1.65185E-14
 -1        28-8.35316E-04 2.65106E-03 3.20841E-26 6.25649E-04-1.28501E-13-7.07865E-14
 -1        29-5.34712E-04 1.28202E-03 1.41749E-25 3.65881E-04-1.61912E-13-2.30718E-13
 -1        30-4.06529E-04 5.49051E-04 3.95169E-25 1.59761E-04-1.73043E-13-4.18484E-13
 -1        31-2.75544E-04 2.23417E-04 5.89763E-25 2.83799E-05-1.58989E-13-5.23524E-13
 -1        32-1.67101E-02 5.99687E-02 6.63063E-27 4.82668E-03 6.26998E-15 5.94166E-14
 -1        33-1.23609E-02 5.50332E-02 5.68179E-27 2.02516E-03-1.32475E-14 5.22806E-14
 -1        34-1.11812E-02 4.83922E-02 7.55861E-27 2.32172E-03-5.43934E-15 6.73731E-14
 -1        35-9.69820E-03 4.26350E-02 3.98781E-26 1.93376E-03 3.39508E-14 1.48089E-13
 -1        36-8.64760E-03 3.80158E-02 1.53100E-25 1.46740E-03 8.48359E-14 2.78966E-13
 -1        37-8.02477E-03 3.48416E-02 5.18949E-25 9.96610E-04 9.15291E-14 5.07336E-13
 -1        38-7.48438E-03 3.26014E-02 8.71922E-25 8.18593E-04 1.41320E-14 6.57648E-13
 -1        39-6.99171E-03 3.03017E-02 7.50748E-25 1.00936E-03-9.09768E-14 6.06935E-13
 -1        40-6.29032E-03 2.71873E-02 3.53641E-25 1.34188E-03-1.53980E-13 4.10901E-13
 -1        41-5.44637E-03 2.32291E-02 2.92649E-26 1.54745E-03-1.36062E-13 1.12392E-13
 -1        42-4.39766E-03 1.89254E-02 1.00947E-26 1.56057E-03-7.74293E-14-7.21365E-14
 -1        43-3.48468E-03 1.47730E-02 3.13446E-26 1.46969E-03 2.78518E-15-1.30312E-13
 -1        44-2.67462E-03 1.09889E-02 5.74807E-27 1.33280E-03 4.07747E-14-4.78420E-14
 -1        45-2.00541E-03 7.62483E-03-1.15431E-27 1.14239E-03 1.22167E-14 9.69783E-15
 -1        46-1.31205E-03 4.78763E-03 3.59811E-27 8.95425E-04-5.85664E-14 1.65132E-14
 -1        47-8.35316E-04 2.65106E-03 3.20742E-26 6.25649E-04-1.28489E-13-7.07638E-14
 -1        48-5.34712E-04 1.28202E-03 1.41697E-25 3.65881E-04-1.61906E-13-2.30688E-13
 -1        49-4.06529E-04 5.49051E-04 3.95160E-25 1.59761E-04-1.73042E-13-4.18493E-13
 -1        50-2.75544E-04 2.23417E-04 5.89705E-25 2.83799E-05-1.58987E-13-5.23499E-13
 -1        51-2.13684E-04 1.61566E-05 5.50223E-25 7.71430E-05 7.44945E-14-5.23003E-13
 -1        52-2.26811E-04-1.46112E-04 3.51959E-25 1.79208E-04 1.06821E-13-4.13994E-13
 -1        53-9.47861E-05-7.52540E-04 1.14887E-25 3.69362E-04 1.24141E-13-2.24714E-13
 -1        54 1.65427E-04-2.04355E-03 1.84208E-26 6.35184E-04 9.87025E-14-6.91080E-14
 -1        55 6.08901E-04-4.15983E-03 4.30415E-27 9.17640E-04 4.90769E-14 3.89910E-14
 -1        56 1.18939E-03-7.04918E-03 2.24565E-27 1.14387E-03 5.05379E-15 4.68049E-14
 -1        57 1.97474E-03-1.05392E-02 4.15053E-27 1.31217E-03-1.14546E-14-5.94993E-14
 -1        58 2.82840E-03-1.45115E-02 2.73071E-26 1.46393E-03 3.96002E-14-1.15917E-13
 -1        59 3.76248E-03-1.88977E-02 3.92757E-26 1.57829E-03 1.36441E-13-8.29560E-14
 -1        60 4.69254E-03-2.34556E-02 1.04045E-25 1.55622E-03 2.25631E-13 1.20315E-13
 -1        61 5.61197E-03-2.76439E-02 3.65295E-25 1.33713E-03 2.24890E-13 3.85411E-13
 -1        62 6.28433E-03-3.09155E-02 7.50070E-25 1.01985E-03 1.08646E-13 6.13868E-13
 -1        63 6.74402E-03-3.32911E-02 8.34252E-25 8.44672E-04-5.90076E-14 6.51815E-13
 -1        64 7.14418E-03-3.55873E-02 5.22449E-25 1.00603E-03-1.73246E-13 4.90800E-13
 -1        65 7.84861E-03-3.88911E-02 2.31769E-25 1.46754E-03-1.72143E-13 3.03671E-13
 -1        66 8.82546E-03-4.37724E-02 7.61874E-26 1.96344E-03-1.28319E-13 1.54948E-13
 -1        67 1.01736E-02-4.99102E-02 2.42539E-26 2.41715E-03-6.95183E-14 8.85486E-14
 -1        68 1.08634E-02-5.72707E-02 2.00176E-26 2.04721E-03-2.83004E-14 9.81678E-14
 -1        69 1.56848E-02-6.25328E-02 7.89298E-27 4.94744E-03-1.85629E-14 6.43532E-14
 -1        70-2.13684E-04 1.61566E-05 5.50222E-25 7.71430E-05 7.45146E-14-5.23001E-13
 -1        71-2.26811E-04-1.46112E-04 3.51985E-25 1.79208E-04 1.06810E-13-4.14023E-13
 -1        72-9.47861E-05-7.52540E-04 1.14853E-25 3.69362E-04 1.24156E-13-2.24687E-13
 -1        73 1.65427E-04-2.04355E-03 1.84257E-26 6.35184E-04 9.86671E-14-6.91772E-14
 -1        74 6.08901E-04-4.15983E-03 4.29695E-27 9.17640E-04 4.90685E-14 3.89719E-14
 -1        75 1.18939E-03-7.04918E-03 2.24597E-27 1.14387E-03 5.05222E-15 4.68018E-14
 -1        76 1.97474E-03-1.05392E-02 4.15033E-27 1.31217E-03-1.14501E-14-5.94906E-14
 -1        77 2.82840E-03-1.45115E-02 2.72807E-26 1.46393E-03 3.96263E-14-1.15837E-13
 -1        78 3.76248E-03-1.88977E-02 3.92971E-26 1.57829E-03 1.36395E-13-8.30597E-14
 -1        79 4.69254E-03-2.34556E-02 1.04054E-25 1.55622E-03 2.25635E-13 1.20319E-13
 -1        80 5.61197E-03-2.76439E-02 3.65264E-25 1.33713E-03 2.24873E-13 3.85397E-13
 -1        81 6.28433E-03-3.09155E-02 7.50071E-25 1.01985E-03 1.08646E-13 6.13868E-13
 -1        82 6.74402E-03-3.32911E-02 8.34261E-25 8.44672E-04-5.90075E-14 6.51819E-13
 -1        83 7.14418E-03-3.55873E-02 5.22418E-25 1.00603E-03-1.73245E-13 4.90785E-13
 -1        84 7.84861E-03-3.88911E-02 2.31775E-25 1.46754E-03-1.72144E-13 3.03675E-13
 -1        85 8.82546E-03-4.37724E-02 7.61911E-26 1.96344E-03-1.28321E-13 1.54953E-13
 -1        86 1.01736E-02-4.99102E-02 2.42533E-26 2.41715E-03-6.95169E-14 8.85490E-14
 -1        87 1.08634E-02-5.72707E-02 2.00176E-26 2.04721E-03-2.83005E-14 9.81677E-14
 -1        88 1.56848E-02-6.25328E-02 7.89295E-27 4.94744E-03-1.85628E-14 6.43531E-14
 -1        89-5.12641E-04-2.43134E-03 8.02257E-27 1.99611E-03-3.56491E-15 6.64058E-14
 -1        90-7.48765E-04-1.78757E-03 1.19737E-26 3.40618E-03-1.74663E-14 7.62874E-14
 -1        91-5.03777E-04-1.48227E-03 1.22111E-26 2.95536E-03-4.41657E-14 6.94191E-14
 -1        92-4.36369E-04-1.16805E-03 4.08456E-26 2.55497E-03-5.15030E-14 1.44282E-13
 -1        93-3.99496E-04-9.04081E-04 1.48605E-25 1.88660E-03-5.47119E-14 2.82390E-13
 -1        94-4.40298E-04-7.36604E-04 5.01653E-25 1.28464E-03-4.69941E-14 5.07794E-13
 -1        95-3.70176E-04-6.54726E-04 9.19174E-25 1.06798E-03-1.67864E-14 6.79341E-13
 -1        96-3.53686E-04-5.75137E-04 8.20621E-25 1.30513E-03 1.32417E-14 6.45370E-13
 -1        97-3.39179E-04-4.36176E-04 2.89064E-25 1.73142E-03 3.73455E-14 4.01404E-13
 -1        98-3.76914E-04-2.63668E-04-4.03052E-27 2.01926E-03 4.34780E-14 1.10427E-13
 -1        99-3.17591E-04-1.02505E-04 1.02908E-26 2.04744E-03 3.51649E-14-9.69483E-14
 -1       100-3.28141E-04 4.77801E-05 3.69076E-26 1.90563E-03 2.40868E-14-1.36170E-13
 -1       101-3.49943E-04 1.88677E-04 3.43118E-27 1.71231E-03 2.18808E-14-5.03525E-14
 -1       102-4.08010E-04 2.83717E-04 1.41570E-27 1.48415E-03 1.28804E-14 3.46272E-14
 -1       103-3.51573E-04 3.09860E-04 7.29267E-28 1.18078E-03-7.99119E-15 3.93568E-14
 -1       104-3.34945E-04 2.95757E-04-3.40718E-27 8.15556E-04-1.46498E-14-5.73691E-14
 -1       105-3.14749E-04 2.67066E-04 8.34352E-26 4.70257E-04-2.01576E-14-2.23757E-13
 -1       106-3.16670E-04 2.13278E-04 3.31945E-25 2.16743E-04-2.42430E-14-4.15592E-13
 -1       107-2.44614E-04 1.16073E-04 5.56089E-25 6.94198E-05-3.30903E-14-5.30222E-13
 -1       108-2.44614E-04 1.16073E-04 5.56302E-25 6.94198E-05-3.31402E-14-5.30319E-13
 -1       109-3.16670E-04 2.13278E-04 3.31911E-25 2.16743E-04-2.42419E-14-4.15568E-13
 -1       110-3.14749E-04 2.67066E-04 8.34622E-26 4.70257E-04-2.01659E-14-2.23772E-13
 -1       111-3.34945E-04 2.95757E-04-3.38991E-27 8.15556E-04-1.46693E-14-5.74012E-14
 -1       112-3.51573E-04 3.09860E-04 7.30372E-28 1.18078E-03-7.98709E-15 3.93705E-14
 -1       113-4.08010E-04 2.83717E-04 1.41490E-27 1.48415E-03 1.28807E-14 3.46272E-14
 -1       114-3.49943E-04 1.88677E-04 3.43564E-27 1.71231E-03 2.18686E-14-5.03768E-14
 -1       115-3.28141E-04 4.77801E-05 3.69026E-26 1.90563E-03 2.40935E-14-1.36160E-13
 -1       116-3.17591E-04-1.02505E-04 1.02878E-26 2.04744E-03 3.51707E-14-9.69343E-14
 -1       117-3.76914E-04-2.63668E-04-4.03463E-27 2.01926E-03 4.34767E-14 1.10424E-13
 -1       118-3.39179E-04-4.36176E-04 2.89075E-25 1.73142E-03 3.73481E-14 4.01412E-13
 -1       119-3.53686E-04-5.75137E-04 8.20624E-25 1.30513E-03 1.32423E-14 6.45371E-13
 -1       120-3.70176E-04-6.54726E-04 9.19134E-25 1.06798E-03-1.67892E-14 6.79325E-13
 -1       121-4.40298E-04-7.36604E-04 5.01667E-25 1.28464E-03-4.69909E-14 5.07801E-13
 -1       122-3.99496E-04-9.04081E-04 1.48590E-25 1.88660E-03-5.47153E-14 2.82378E-13
 -1       123-4.36369E-04-1.16805E-03 4.08460E-26 2.55497E-03-5.15034E-14 1.44281E-13
 -1       124-5.03777E-04-1.48227E-03 1.22107E-26 2.95536E-03-4.41663E-14 6.94176E-14
 -1       125-7.48765E-04-1.78757E-03 1.19737E-26 3.40618E-03-1.74665E-14 7.62875E-14
 -1       126-5.12641E-04-2.43134E-03 8.02262E-27 1.99611E-03-3.56502E-15 6.64060E-14
 -3
    1PSTEP                       360          90           1          
  100CL  190 9.00000E-01         126                     1   90           1
 -4  ERROR       1    1
 -5  STR(%)      1    1    0    0
 -1         1 6.63626E+01
 -1         2 6.63626E+01
 -1         3 1.94042E+01
 -1         4 1.94042E+01
 -1         5 1.75225E+01
 -1         6 1.75225E+01
 -1         7 5.71155E+01
 -1         8 5.71155E+01
 -1         9 1.94042E+01
 -1        10 1.94042E+01
 -1        11 6.63626E+01
 -1        12 6.63626E+01
 -1        13 6.63626E+01
 -1        14 6.55564E+01
 -1        15 6.54746E+01
 -1        16 6.51888E+01
 -1        17 6.46760E+01
 -1        18 6.40364E+01
 -1        19 6.34319E+01
 -1        20 6.38047E+01
 -1        21 6.40976E+01
 -1        22 6.40976E+01
 -1        23 6.38210E+01
 -1        24 6.33596E+01
 -1        25 6.23936E+01
 -1        26 6.07491E+01
 -1        27 5.73880E+01
 -1        28 5.30138E+01
 -1        29 4.67324E+01
 -1        30 3.91659E+01
 -1        31 2.58505E+01
 -1        32 6.63626E+01
 -1        33 6.55564E+01
 -1        34 6.54746E+01
 -1        35 6.51888E+01
 -1        36 6.46760E+01
 -1        37 6.40364E+01
 -1        38 6.34319E+01
 -1        39 6.38047E+01
 -1        40 6.40976E+01
 -1        41 6.40976E+01
 -1        42 6.38210E+01
 -1        43 6.33596E+01
 -1        44 6.23936E+01
 -1        45 6.07491E+01
 -1        46 5.73880E+01
 -1        47 5.30138E+01
 -1        48 4.67324E+01
 -1        49 3.91659E+01
 -1        50 2.58505E+01
 -1        51 1.75225E+01
 -1        52 3.24744E+01
 -1        53 5.00950E+01
 -1        54 5.73538E+01
 -1        55 6.11444E+01
 -1        56 6.20616E+01
 -1        57 6.20616E+01
 -1        58 6.17873E+01
 -1        59 6.11349E+01
 -1        60 6.05345E+01
 -1        61 5.97092E+01
 -1        62 5.88607E+01
 -1        63 5.81763E+01
 -1        64 5.82197E+01
 -1        65 5.82997E+01
 -1        66 5.82997E+01
 -1        67 5.80073E+01
 -1        68 5.76592E+01
 -1        69 5.72057E+01
 -1        70 1.75225E+01
 -1        71 3.24744E+01
 -1        72 5.00950E+01
 -1        73 5.73538E+01
 -1        74 6.11444E+01
 -1        75 6.20616E+01
 -1        76 6.20616E+01
 -1        77 6.17873E+01
 -1        78 6.11349E+01
 -1        79 6.05345E+01
 -1        80 5.97092E+01
 -1        81 5.88607E+01
 -1        82 5.81763E+01
 -1        83 5.82197E+01
 -1        84 5.82997E+01
 -1        85 5.82997E+01
 -1        86 5.80073E+01
 -1        87 5.76592E+01
 -1        88 5.72057E+01
 -1        89 6.63626E+01
 -1        90 6.55564E+01
 -1        91 6.54746E+01
 -1        92 6.51888E+01
 -1        93 6.46760E+01
 -1        94 6.40364E+01
 -1        95 6.34319E+01
 -1        96 6.38047E+01
 -1        97 6.40976E+01
 -1        98 6.40976E+01
 -1        99 6.38210E+01
 -1       100 6.33596E+01
 -1       101 6.23936E+01
 -1       102 6.20616E+01
 -1       103 6.11444E+01
 -1       104 5.73538E+01
 -1       105 5.00950E+01
 -1       106 3.91659E+01
 -1       107 2.58505E+01
 -1       108 2.58505E+01
 -1       109 3.91659E+01
 -1       110 5.00950E+01
 -1       111 5.73538E+01
 -1       112 6.11444E+01
 -1       113 6.20616E+01
 -1       114 6.23936E+01
 -1       115 6.33596E+01
 -1       116 6.38210E+01
 -1       117 6.40976E+01
 -1       118 6.40976E+01
 -1       119 6.38047E+01
 -1       120 6.34319E+01
 -1       121 6.40364E+01
 -1       122 6.46760E+01
 -1       123 6.51888E+01
 -1       124 6.54746E+01
 -1       125 6.55564E+01
 -1       126 6.63626E+01
 -3
    1PSTEP                       361          91           1          
  100CL  191 9.10000E-01         126                     1   91           1
 -4  DISP        4    1
 -5  D1          1    2    1    0
 -5  D2          1    2    2    0
 -5  D3          1    2    3    0
 -5  ALL         1    2    0    0    1ALL
 -1         1 0.00000E+00 0.00000E+00 0.00000E+00
 -1         2 0.00000E+00 0.00000E+00 0.00000E+00
 -1         3 3.61802E-01-5.30904E-02 0.00000E+00
 -1         4 3.61802E-01-5.30904E-02 0.00000E+00
 -1         5 3.49716E-01-1.00715E-01 0.00000E+00
 -1         6 3.49716E-01-1.00715E-01 0.00000E+00
 -1         7 0.00000E+00 0.00000E+00 0.00000E+00
 -1         8 0.00000E+00 0.00000E+00 0.00000E+00
 -1         9 3.55756E-01-7.69017E-02 0.00000E+00
 -1        10 3.55756E-01-7.69017E-02 0.00000E+00
 -1        11 0.00000E+00 0.00000E+00 0.00000E+00
 -1        12 0.00000E+00 0.00000E+00 0.00000E+00
 -1        13 2.64843E-03 3.04000E-03 0.00000E+00
 -1        14 8.06485E-03 5.66591E-03 0.00000E+00
 -1        15 1.64234E-02 7.50475E-03 0.00000E+00
 -1        16 2.71760E-02 8.59665E-03 0.00000E+00
 -1        17 4.00211E-02 8.97171E-03 0.00000E+00
 -1        18 5.47646E-02 8.65730E-03 0.00000E+00
 -1        19 7.12552E-02 7.64628E-03 0.00000E+00
 -1        20 8.93496E-02 5.90465E-03 0.00000E+00
 -1        21 1.08841E-01 3.41759E-03 0.00000E+00
 -1        22 1.29483E-01 2.15895E-04 0.00000E+00
 -1        23 1.51023E-01-3.61358E-03 0.00000E+00
 -1        24 1.73279E-01-7.97709E-03 0.00000E+00
 -1        25 1.96109E-01-1.27952E-02 0.00000E+00
 -1        26 2.19379E-01-1.80077E-02 0.00000E+00
 -1        27 2.42923E-01-2.35340E-02 0.00000E+00
 -1        28 2.66608E-01-2.92776E-02 0.00000E+00
 -1        29 2.90355E-01-3.51427E-02 0.00000E+00
 -1        30 3.14148E-01-4.10789E-02 0.00000E+00
 -1        31 3.37974E-01-4.70677E-02 0.00000E+00
 -1        32 2.64843E-03 3.04000E-03 0.00000E+00
 -1        33 8.06485E-03 5.66591E-03 0.00000E+00
 -1        34 1.64234E-02 7.50475E-03 0.00000E+00
 -1        35 2.71760E-02 8.59665E-03 0.00000E+00
 -1        36 4.00211E-02 8.97171E-03 0.00000E+00
 -1        37 5.47646E-02 8.65730E-03 0.00000E+00
 -1        38 7.12552E-02 7.64628E-03 0.00000E+00
 -1        39 8.93496E-02 5.90465E-03 0.00000E+00
 -1        40 1.08841E-01 3.41759E-03 0.00000E+00
 -1        41 1.29483E-01 2.15895E-04 0.00000E+00
 -1        42 1.51023E-01-3.61358E-03 0.00000E+00
 -1        43 1.73279E-01-7.97709E-03 0.00000E+00
 -1        44 1.96109E-01-1.27952E-02 0.00000E+00
 -1        45 2.19379E-01-1.80077E-02 0.00000E+00
 -1        46 2.42923E-01-2.35340E-02 0.00000E+00
 -1        47 2.66608E-01-2.92776E-02 0.00000E+00
 -1        48 2.90355E-01-3.51427E-02 0.00000E+00
 -1        49 3.14148E-01-4.10789E-02 0.00000E+00
 -1        50 3.37974E-01-4.70677E-02 0.00000E+00
 -1        51 3.25899E-01-9.46604E-02 0.00000E+00
 -1        52 3.02114E-01-8.85900E-02 0.00000E+00
 -1        53 2.78396E-01-8.25209E-02 0.00000E+00
 -1        54 2.54762E-01-7.64484E-02 0.00000E+00
 -1        55 2.31263E-01-7.03560E-02 0.00000E+00
 -1        56 2.08018E-01-6.42505E-02 0.00000E+00
 -1        57 1.85195E-01-5.81862E-02 0.00000E+00
 -1        58 1.62938E-01-5.22306E-02 0.00000E+00
 -1        59 1.41375E-01-4.64366E-02 0.00000E+00
 -1        60 1.20649E-01-4.08343E-02 0.00000E+00
 -1        61 1.00958E-01-3.54627E-02 0.00000E+00
 -1        62 8.25192E-02-3.03786E-02 0.00000E+00
 -1        63 6.55318E-02-2.56484E-02 0.00000E+00
 -1        64 5.01430E-02-2.13116E-02 0.00000E+00
 -1        65 3.64720E-02-1.73622E-02 0.00000E+00
 -1        66 2.46308E-02-1.37352E-02 0.00000E+00
 -1        67 1.48001E-02-1.03185E-02 0.00000E+00
 -1        68 7.21972E-03-6.97385E-03 0.00000E+00
 -1        69 2.41431E-03-3.49946E-03 0.00000E+00
 -1        70 3.25899E-01-9.46604E-02 0.00000E+00
 -1        71 3.02114E-01-8.85900E-02 0.00000E+00
 -1        72 2.78396E-01-8.25209E-02 0.00000E+00
 -1        73 2.54762E-01-7.64484E-02 0.00000E+00
 -1        74 2.31263E-01-7.03560E-02 0.00000E+00
 -1        75 2.08018E-01-6.42505E-02 0.00000E+00
 -1        76 1.85195E-01-5.81862E-02 0.00000E+00
 -1        77 1.62938E-01-5.22306E-02 0.00000E+00
 -1        78 1.41375E-01-4.64366E-02 0.00000E+00
 -1        79 1.20649E-01-4.08343E-02 0.00000E+00
 -1        80 1.00958E-01-3.54627E-02 0.00000E+00
 -1        81 8.25192E-02-3.03786E-02 0.00000E+00
 -1        82 6.55318E-02-2.56484E-02 0.00000E+00
 -1        83 5.01430E-02-2.13116E-02 0.00000E+00
 -1        84 3.64720E-02-1.73622E-02 0.00000E+00
 -1        85 2.46308E-02-1.37352E-02 0.00000E+00
 -1        86 1.48001E-02-1.03185E-02 0.00000E+00
 -1        87 7.21972E-03-6.97385E-03 0.00000E+00
 -1        88 2.41431E-03-3.49946E-03 0.00000E+00
 -1        89 1.69377E-03-1.79118E-04 0.00000E+00
 -1        90 7.06438E-03-5.66661E-04 0.00000E+00
 -1        91 1.50901E-02-1.30067E-03 0.00000E+00
 -1        92 2.54500E-02-2.45875E-03 0.00000E+00
 -1        93 3.78371E-02-4.08006E-03 0.00000E+00
 -1        94 5.20787E-02-6.20603E-03 0.00000E+00
 -1        95 6.80538E-02-8.87686E-03 0.00000E+00
 -1        96 8.56338E-02-1.21160E-02 0.00000E+00
 -1        97 1.04643E-01-1.59113E-02 0.00000E+00
 -1        98 1.24854E-01-2.02110E-02 0.00000E+00
 -1        99 1.46028E-01-2.49416E-02 0.00000E+00
 -1       100 1.67971E-01-3.00347E-02 0.00000E+00
 -1       101 1.90544E-01-3.54355E-02 0.00000E+00
 -1       102 2.13620E-01-4.10879E-02 0.00000E+00
 -1       103 2.37044E-01-4.69182E-02 0.00000E+00
 -1       104 2.60656E-01-5.28473E-02 0.00000E+00
 -1       105 2.84357E-01-5.88222E-02 0.00000E+00
 -1       106 3.08118E-01-6.48277E-02 0.00000E+00
 -1       107 3.31931E-01-7.08602E-02 0.00000E+00
 -1       108 3.31931E-01-7.08602E-02 0.00000E+00
 -1       109 3.08118E-01-6.48277E-02 0.00000E+00
 -1       110 2.84357E-01-5.88222E-02 0.00000E+00
 -1       111 2.60656E-01-5.28473E-02 0.00000E+00
 -1       112 2.37044E-01-4.69182E-02 0.00000E+00
 -1       113 2.13620E-01-4.10879E-02 0.00000E+00
 -1       114 1.90544E-01-3.54355E-02 0.00000E+00
 -1       115 1.67971E-01-3.00347E-02 0.00000E+00
 -1       116 1.46028E-01-2.49416E-02 0.00000E+00
 -1       117 1.24854E-01-2.02110E-02 0.00000E+00
 -1       118 1.04643E-01-1.59113E-02 0.00000E+00
 -1       119 8.56338E-02-1.21160E-02 0.00000E+00
 -1       120 6.80538E-02-8.87686E-03 0.00000E+00
 -1       121 5.20787E-02-6.20603E-03 0.00000E+00
 -1       122 3.78371E-02-4.08006E-03 0.00000E+00
 -1       123 2.54500E-02-2.45875E-03 0.00000E+00
 -1       124 1.50901E-02-1.30067E-03 0.00000E+00
 -1       125 7.06438E-03-5.66661E-04 0.00000E+00
 -1       126 1.69377E-03-1.79118E-04 0.00000E+00
 -3
    1PSTEP                       362          91           1          
  100CL  191 9.10000E-01         126                     1   91           1
 -4  STRESS      6    1
 -5  SXX         1    4    1    1
 -5  SYY         1    4    2    2
 -5  SZZ         1    4    3    3
 -5  SXY         1    4    1    2
 -5  SYZ         1    4    2    3
 -5  SZX         1    4    3    1
 -1         1 1.46578E+04 3.56674E+04 1.39273E+04 9.74270E+03 4.29962E-10 3.72467E-10
 -1         2 1.46578E+04 3.56674E+04 1.39273E+04 9.74270E+03 4.29962E-10 3.72467E-10
 -1         3 1.73407E+01 9.33235E+01 3.31746E+01 7.88526E+01 7.40622E-08-1.85279E-07
 -1         4 1.73407E+01 9.33235E+01 3.31746E+01 7.88526E+01 7.40635E-08-1.85265E-07
 -1         5-1.06144E+02-1.98174E+02-9.13335E+01-1.23342E+01 1.65223E-07-1.31928E-07
 -1         6-1.06144E+02-1.98174E+02-9.13335E+01-1.23342E+01 1.65251E-07-1.31858E-07
 -1         7-1.59440E+04-3.40807E+04-1.64598E+04 5.86766E+03 5.95620E-10-5.85577E-10
 -1         8-1.59440E+04-3.40807E+04-1.64598E+04 5.86766E+03 5.95620E-10-5.85577E-10
 -1         9-4.11125E+01-7.24417E+01-3.40705E+01 3.68188E+01 1.16448E-07-1.67034E-07
 -1        10-4.11125E+01-7.24417E+01-3.40705E+01 3.68188E+01 1.16442E-07-1.67069E-07
 -1        11-5.10887E+02-2.49217E+03-6.94161E+02 5.12449E+03 4.52649E-10-5.14270E-11
 -1        12-5.10887E+02-2.49217E+03-6.94161E+02 5.12449E+03 4.52649E-10-5.14270E-11
 -1        13 5.37346E+03 3.05143E+04 9.98208E+03 3.60792E+03 7.57951E-09 4.29883E-08
 -1        14 6.72145E+03 2.77302E+04 9.65077E+03 3.57604E+03-3.85569E-09 6.78647E-08
 -1        15 6.07250E+03 2.34904E+04 8.35595E+03 4.12698E+03-1.80440E-08 6.81517E-08
 -1        16 5.75933E+03 2.04738E+04 7.46460E+03 4.21190E+03-2.20014E-08 5.87484E-08
 -1        17 5.49060E+03 1.82066E+04 6.77459E+03 4.26602E+03-1.93870E-08 6.36306E-08
 -1        18 5.29512E+03 1.64052E+04 6.22536E+03 4.32742E+03-2.90924E-08 7.94622E-08
 -1        19 5.19942E+03 1.47033E+04 5.72924E+03 4.33146E+03-4.28499E-08 7.84848E-08
 -1        20 4.97700E+03 1.27992E+04 5.13811E+03 4.20265E+03-5.60780E-08 6.95099E-08
 -1        21 4.57967E+03 1.07349E+04 4.44825E+03 3.87268E+03-5.28515E-08 3.97521E-08
 -1        22 3.99173E+03 8.72028E+03 3.71169E+03 3.39028E+03-3.22731E-08 3.23548E-09
 -1        23 3.41900E+03 7.01214E+03 3.06042E+03 2.85334E+03 5.41530E-09-1.08752E-08
 -1        24 2.84741E+03 5.54719E+03 2.47286E+03 2.37436E+03 2.54357E-08 9.49589E-09
 -1        25 2.29987E+03 4.20525E+03 1.92315E+03 1.92661E+03 2.19881E-08 3.69891E-08
 -1        26 1.70095E+03 2.90875E+03 1.36780E+03 1.46470E+03 1.98250E-09 6.58521E-08
 -1        27 1.16028E+03 1.82967E+03 8.90420E+02 9.88807E+02-1.34697E-08 7.02996E-08
 -1        28 6.87305E+02 1.06931E+03 5.24620E+02 6.16274E+02-2.74640E-08 4.17968E-08
 -1        29 3.76829E+02 6.43154E+02 3.05108E+02 3.88844E+02-1.40743E-08-2.17658E-08
 -1        30 1.77608E+02 3.67305E+02 1.63106E+02 2.63339E+02 1.32666E-08-7.98443E-08
 -1        31 6.31652E+01 1.65805E+02 6.85796E+01 1.47534E+02 4.54953E-08-1.35754E-07
 -1        32 5.37346E+03 3.05143E+04 9.98208E+03 3.60792E+03 7.57951E-09 4.29883E-08
 -1        33 6.72145E+03 2.77302E+04 9.65077E+03 3.57604E+03-3.85563E-09 6.78647E-08
 -1        34 6.07250E+03 2.34904E+04 8.35595E+03 4.12698E+03-1.80441E-08 6.81519E-08
 -1        35 5.75933E+03 2.04738E+04 7.46460E+03 4.21190E+03-2.20014E-08 5.87473E-08
 -1        36 5.49060E+03 1.82066E+04 6.77459E+03 4.26602E+03-1.93870E-08 6.36312E-08
 -1        37 5.29512E+03 1.64052E+04 6.22536E+03 4.32742E+03-2.90922E-08 7.94604E-08
 -1        38 5.19942E+03 1.47033E+04 5.72924E+03 4.33146E+03-4.28502E-08 7.84851E-08
 -1        39 4.97700E+03 1.27992E+04 5.13811E+03 4.20265E+03-5.60780E-08 6.95099E-08
 -1        40 4.57967E+03 1.07349E+04 4.44825E+03 3.87268E+03-5.28513E-08 3.97540E-08
 -1        41 3.99173E+03 8.72028E+03 3.71169E+03 3.39028E+03-3.22736E-08 3.23498E-09
 -1        42 3.41900E+03 7.01214E+03 3.06042E+03 2.85334E+03 5.41481E-09-1.08770E-08
 -1        43 2.84741E+03 5.54719E+03 2.47286E+03 2.37436E+03 2.54363E-08 9.49296E-09
 -1        44 2.29987E+03 4.20525E+03 1.92315E+03 1.92661E+03 2.19866E-08 3.69884E-08
 -1        45 1.70095E+03 2.90875E+03 1.36780E+03 1.46470E+03 1.98183E-09 6.58555E-08
 -1        46 1.16028E+03 1.82967E+03 8.90420E+02 9.88807E+02-1.34693E-08 7.02996E-08
 -1        47 6.87305E+02 1.06931E+03 5.24620E+02 6.16274E+02-2.74633E-08 4.18042E-08
 -1        48 3.76829E+02 6.43154E+02 3.05108E+02 3.88844E+02-1.40721E-08-2.17821E-08
 -1        49 1.77608E+02 3.67305E+02 1.63106E+02 2.63339E+02 1.32688E-08-7.98424E-08
 -1        50 6.31652E+01 1.65805E+02 6.85796E+01 1.47534E+02 4.54889E-08-1.35747E-07
 -1        51-1.70399E+02-3.41271E+02-1.53637E+02-4.28128E+01 1.37608E-07-8.82276E-08
 -1        52-2.81446E+02-6.02241E+02-2.65525E+02-1.24960E+02 1.05601E-07-3.12928E-08
 -1        53-3.94111E+02-9.23358E+02-3.96217E+02-2.21610E+02 6.76202E-08 2.46681E-08
 -1        54-5.76561E+02-1.49383E+03-6.23742E+02-3.64444E+02 2.48242E-08 6.41721E-08
 -1        55-9.10451E+02-2.43191E+03-1.00997E+03-6.30918E+02-6.79835E-09 6.99264E-08
 -1        56-1.43001E+03-3.65915E+03-1.54375E+03-1.02249E+03-1.79297E-08 5.15158E-08
 -1        57-1.98997E+03-4.95951E+03-2.11670E+03-1.47041E+03-1.34208E-08 2.61009E-08
 -1        58-2.55081E+03-6.31336E+03-2.71095E+03-1.88521E+03 5.42352E-09-5.45275E-09
 -1        59-3.10267E+03-7.82480E+03-3.35702E+03-2.27387E+03 2.37892E-08-1.01342E-08
 -1        60-3.71144E+03-9.59833E+03-4.11085E+03-2.67004E+03 2.04592E-08 1.78732E-08
 -1        61-4.31028E+03-1.15173E+04-4.91751E+03-3.06964E+03-2.59280E-09 5.99333E-08
 -1        62-4.86525E+03-1.34009E+04-5.70693E+03-3.37752E+03-2.80365E-08 8.25343E-08
 -1        63-5.27740E+03-1.50867E+04-6.39195E+03-3.51984E+03-4.30746E-08 8.51052E-08
 -1        64-5.56275E+03-1.66315E+04-6.99372E+03-3.47235E+03-4.36414E-08 7.43883E-08
 -1        65-5.75067E+03-1.82578E+04-7.59660E+03-3.26565E+03-3.49928E-08 5.76171E-08
 -1        66-6.06108E+03-2.03579E+04-8.40651E+03-2.92153E+03-2.51654E-08 5.89693E-08
 -1        67-6.48693E+03-2.31196E+04-9.49665E+03-2.40310E+03-2.18346E-08 6.85993E-08
 -1        68-7.81145E+03-2.69880E+04-1.12882E+04-1.82465E+03-2.35213E-08 6.64446E-08
 -1        69-6.23522E+03-2.91689E+04-1.16025E+04 1.61817E+01-2.05032E-08 4.46008E-08
 -1        70-1.70399E+02-3.41271E+02-1.53637E+02-4.28128E+01 1.37604E-07-8.82626E-08
 -1        71-2.81446E+02-6.02241E+02-2.65525E+02-1.24960E+02 1.05602E-07-3.12946E-08
 -1        72-3.94111E+02-9.23358E+02-3.96217E+02-2.21610E+02 6.76208E-08 2.46750E-08
 -1        73-5.76561E+02-1.49383E+03-6.23742E+02-3.64444E+02 2.48168E-08 6.41464E-08
 -1        74-9.10451E+02-2.43191E+03-1.00997E+03-6.30918E+02-6.79697E-09 6.99205E-08
 -1        75-1.43001E+03-3.65915E+03-1.54375E+03-1.02249E+03-1.79297E-08 5.15149E-08
 -1        76-1.98997E+03-4.95951E+03-2.11670E+03-1.47041E+03-1.34195E-08 2.61053E-08
 -1        77-2.55081E+03-6.31336E+03-2.71095E+03-1.88521E+03 5.42518E-09-5.45625E-09
 -1        78-3.10267E+03-7.82480E+03-3.35702E+03-2.27387E+03 2.37878E-08-1.01351E-08
 -1        79-3.71144E+03-9.59833E+03-4.11085E+03-2.67004E+03 2.04581E-08 1.78754E-08
 -1        80-4.31028E+03-1.15173E+04-4.91751E+03-3.06964E+03-2.58855E-09 5.99254E-08
 -1        81-4.86525E+03-1.34009E+04-5.70693E+03-3.37752E+03-2.80365E-08 8.25344E-08
 -1        82-5.27740E+03-1.50867E+04-6.39195E+03-3.51984E+03-4.30747E-08 8.51053E-08
 -1        83-5.56275E+03-1.66315E+04-6.99372E+03-3.47235E+03-4.36394E-08 7.43841E-08
 -1        84-5.75067E+03-1.82578E+04-7.59660E+03-3.26565E+03-3.49938E-08 5.76234E-08
 -1        85-6.06108E+03-2.03579E+04-8.40651E+03-2.92153E+03-2.51656E-08 5.89725E-08
 -1        86-6.48693E+03-2.31196E+04-9.49665E+03-2.40310E+03-2.18339E-08 6.85983E-08
 -1        87-7.81145E+03-2.69880E+04-1.12882E+04-1.82465E+03-2.35213E-08 6.64446E-08
 -1        88-6.23522E+03-2.91689E+04-1.16025E+04 1.61817E+01-2.05032E-08 4.46008E-08
 -1        89-6.25449E+01-2.33469E+03-6.52116E+02 6.95650E+02-7.80091E-09 4.09376E-08
 -1        90-1.09104E+02-2.03804E+03-5.35562E+02 9.89167E+02-1.52815E-08 6.81082E-08
 -1        91 2.20841E+01-1.68639E+03-4.23795E+02 6.63681E+02-1.87891E-08 6.93629E-08
 -1        92 1.12745E+01-1.41510E+03-3.59584E+02 4.32908E+02-2.20425E-08 5.79539E-08
 -1        93-1.77851E+01-1.19162E+03-3.13227E+02 2.52655E+02-2.81111E-08 5.97925E-08
 -1        94-4.46263E+01-1.07017E+03-2.93997E+02 1.82361E+02-3.58842E-08 7.66859E-08
 -1        95 3.70192E+01-9.98412E+02-2.55642E+02 1.88655E+02-4.25409E-08 8.61959E-08
 -1        96 1.28730E+02-9.70827E+02-2.27013E+02 2.43424E+02-4.19698E-08 7.80991E-08
 -1        97 2.14208E+02-9.16206E+02-1.91353E+02 2.90694E+02-2.79428E-08 5.10393E-08
 -1        98 2.22423E+02-8.30433E+02-1.68574E+02 2.98971E+02-2.66305E-09 1.22859E-08
 -1        99 2.30721E+02-6.96430E+02-1.30258E+02 2.59445E+02 1.84385E-08-1.38477E-08
 -1       100 2.13265E+02-5.98380E+02-1.09680E+02 2.35577E+02 1.89172E-08 2.61676E-10
 -1       101 2.27802E+02-5.34410E+02-8.87919E+01 2.43158E+02 5.34234E-09 3.20739E-08
 -1       102 2.15873E+02-4.91653E+02-8.12129E+01 2.55656E+02-8.95718E-09 6.08045E-08
 -1       103 1.91831E+02-3.88539E+02-5.83292E+01 2.15371E+02-1.36852E-08 7.40241E-08
 -1       104 9.57721E+01-2.68071E+02-5.14130E+01 1.50300E+02-2.50957E-09 5.75937E-08
 -1       105 1.51506E+01-1.66731E+02-4.53774E+01 9.81169E+01 2.76152E-08 4.52521E-09
 -1       106-3.02802E+01-1.31307E+02-4.84697E+01 8.20873E+01 5.94144E-08-5.50201E-08
 -1       107-4.00144E+01-1.04198E+02-4.32656E+01 6.13115E+01 8.86548E-08-1.12933E-07
 -1       108-4.00144E+01-1.04198E+02-4.32656E+01 6.13115E+01 8.86643E-08-1.12929E-07
 -1       109-3.02802E+01-1.31307E+02-4.84697E+01 8.20873E+01 5.94124E-08-5.50201E-08
 -1       110 1.51506E+01-1.66731E+02-4.53774E+01 9.81169E+01 2.76130E-08 4.52990E-09
 -1       111 9.57721E+01-2.68071E+02-5.14130E+01 1.50300E+02-2.50898E-09 5.75865E-08
 -1       112 1.91831E+02-3.88539E+02-5.83292E+01 2.15371E+02-1.36854E-08 7.40240E-08
 -1       113 2.15873E+02-4.91653E+02-8.12129E+01 2.55656E+02-8.95708E-09 6.08075E-08
 -1       114 2.27802E+02-5.34410E+02-8.87919E+01 2.43158E+02 5.34242E-09 3.20610E-08
 -1       115 2.13265E+02-5.98380E+02-1.09680E+02 2.35577E+02 1.89160E-08 2.67611E-10
 -1       116 2.30721E+02-6.96430E+02-1.30258E+02 2.59445E+02 1.84405E-08-1.38426E-08
 -1       117 2.22423E+02-8.30433E+02-1.68574E+02 2.98971E+02-2.66210E-09 1.22858E-08
 -1       118 2.14208E+02-9.16206E+02-1.91353E+02 2.90694E+02-2.79438E-08 5.10385E-08
 -1       119 1.28730E+02-9.70827E+02-2.27013E+02 2.43424E+02-4.19698E-08 7.80989E-08
 -1       120 3.70192E+01-9.98412E+02-2.55642E+02 1.88655E+02-4.25408E-08 8.61956E-08
 -1       121-4.46263E+01-1.07017E+03-2.93997E+02 1.82361E+02-3.58847E-08 7.66883E-08
 -1       122-1.77851E+01-1.19162E+03-3.13227E+02 2.52655E+02-2.81109E-08 5.97905E-08
 -1       123 1.12745E+01-1.41510E+03-3.59584E+02 4.32908E+02-2.20424E-08 5.79561E-08
 -1       124 2.20841E+01-1.68639E+03-4.23795E+02 6.63681E+02-1.87887E-08 6.93627E-08
 -1       125-1.09104E+02-2.03804E+03-5.35562E+02 9.89167E+02-1.52817E-08 6.81081E-08
 -1       126-6.25449E+01-2.33469E+03-6.52116E+02 6.95650E+02-7.80091E-09 4.09376E-08
 -3
    1PSTEP                       363          91           1          
  100CL  191 9.10000E-01         126                     1   91           1
 -4  TOSTRAIN    6    1
 -5  EXX         1    4    1    1
 -5  EYY         1    4    2    2
 -5  EZZ         1    4    3    3
 -5  EXY         1    4    1    2
 -5  EYZ         1    4    2    3
 -5  EZX         1    4    3    1
 -1         1-3.75505E-04 6.36740E-02-6.51293E-27 2.64839E-02 9.01187E-21 6.47141E-16
 -1         2-3.75505E-04 6.36740E-02-6.51293E-27 2.64839E-02 9.01187E-21 6.47141E-16
 -1         3-2.10162E-04 3.53915E-04 8.22646E-25 3.64959E-05-7.51506E-14-6.44195E-13
 -1         4-2.10162E-04 3.53915E-04 8.22556E-25 3.64959E-05-7.51257E-14-6.44158E-13
 -1         5-8.24858E-05-3.13153E-04 9.23397E-25 1.03497E-04 2.68055E-13-6.33006E-13
 -1         6-8.24858E-05-3.13153E-04 9.23205E-25 1.03497E-04 2.68243E-13-6.32849E-13
 -1         7-3.85062E-04-6.67574E-02-8.80112E-27 2.41428E-02 5.88121E-19-1.22315E-15
 -1         8-3.85062E-04-6.67574E-02-8.80112E-27 2.41428E-02 5.88121E-19-1.22315E-15
 -1         9-1.46324E-04-1.30927E-06 8.53506E-25 1.08019E-04 7.41943E-14-6.57751E-13
 -1        10-1.46324E-04-1.30927E-06 8.53698E-25 1.08019E-04 7.41217E-14-6.57841E-13
 -1        11-3.80284E-04-3.38236E-03-6.01592E-27 1.69374E-02 3.97588E-19-2.35168E-16
 -1        12-3.80284E-04-3.38236E-03-6.01592E-27 1.69374E-02 3.97588E-19-2.35168E-16
 -1        13-1.71772E-02 6.15673E-02 3.45444E-26 5.53901E-03 3.09627E-14 1.35975E-13
 -1        14-1.23032E-02 5.53307E-02 9.55797E-26 2.38831E-03 1.44828E-14 2.17469E-13
 -1        15-1.10026E-02 4.81130E-02 1.04860E-25 2.37275E-03-1.70347E-14 2.26095E-13
 -1        16-9.63595E-03 4.27065E-02 8.29072E-26 1.73953E-03-2.55239E-14 2.00339E-13
 -1        17-8.78447E-03 3.87373E-02 9.26717E-26 1.32049E-03-5.92482E-15 2.14398E-13
 -1        18-8.19960E-03 3.56787E-02 1.50703E-25 1.11793E-03-1.21958E-14 2.72805E-13
 -1        19-7.46667E-03 3.27211E-02 1.68261E-25 1.17002E-03-4.44890E-14 2.85059E-13
 -1        20-6.68036E-03 2.92915E-02 1.64979E-25 1.37547E-03-8.46441E-14 2.75266E-13
 -1        21-5.76368E-03 2.53011E-02 8.36971E-26 1.52743E-03-1.04514E-13 1.85224E-13
 -1        22-4.88079E-03 2.11478E-02 1.20799E-26 1.47916E-03-8.88865E-14 5.27270E-14
 -1        23-3.95815E-03 1.73454E-02-1.35945E-27 1.29952E-03 7.11106E-16-3.93142E-14
 -1        24-3.24902E-03 1.40468E-02 1.16829E-26 1.17259E-03 8.61213E-14-9.06239E-15
 -1        25-2.60518E-03 1.09891E-02 3.31718E-26 1.14681E-03 1.16476E-13 7.42736E-14
 -1        26-2.00336E-03 7.95651E-03 8.77108E-26 1.09381E-03 1.03551E-13 1.86353E-13
 -1        27-1.31430E-03 5.18433E-03 1.06005E-25 8.92625E-04 6.78271E-14 2.22102E-13
 -1        28-8.64340E-04 3.14167E-03 4.10446E-26 5.89871E-04-1.45650E-14 1.61848E-13
 -1        29-6.28600E-04 1.95198E-03-9.00266E-27 3.33311E-04-7.36213E-14-4.05706E-14
 -1        30-5.30182E-04 1.23731E-03 1.14186E-25 2.10943E-04-8.52557E-14-2.48820E-13
 -1        31-3.43724E-04 6.40991E-04 4.11951E-25 1.22368E-04-7.99252E-14-4.58466E-13
 -1        32-1.71772E-02 6.15673E-02 3.45444E-26 5.53901E-03 3.09627E-14 1.35975E-13
 -1        33-1.23032E-02 5.53307E-02 9.55797E-26 2.38831E-03 1.44830E-14 2.17469E-13
 -1        34-1.10026E-02 4.81130E-02 1.04860E-25 2.37275E-03-1.70350E-14 2.26096E-13
 -1        35-9.63595E-03 4.27065E-02 8.29043E-26 1.73953E-03-2.55248E-14 2.00335E-13
 -1        36-8.78447E-03 3.87373E-02 9.26732E-26 1.32049E-03-5.92423E-15 2.14400E-13
 -1        37-8.19960E-03 3.56787E-02 1.50697E-25 1.11793E-03-1.21972E-14 2.72799E-13
 -1        38-7.46667E-03 3.27211E-02 1.68262E-25 1.17002E-03-4.44897E-14 2.85060E-13
 -1        39-6.68036E-03 2.92915E-02 1.64979E-25 1.37547E-03-8.46441E-14 2.75266E-13
 -1        40-5.76368E-03 2.53011E-02 8.37002E-26 1.52743E-03-1.04511E-13 1.85229E-13
 -1        41-4.88079E-03 2.11478E-02 1.20793E-26 1.47916E-03-8.88885E-14 5.27261E-14
 -1        42-3.95815E-03 1.73454E-02-1.35865E-27 1.29952E-03 7.07202E-16-3.93188E-14
 -1        43-3.24902E-03 1.40468E-02 1.16831E-26 1.17259E-03 8.61189E-14-9.07184E-15
 -1        44-2.60518E-03 1.09891E-02 3.31687E-26 1.14681E-03 1.16471E-13 7.42737E-14
 -1        45-2.00336E-03 7.95651E-03 8.77193E-26 1.09381E-03 1.03554E-13 1.86364E-13
 -1        46-1.31430E-03 5.18433E-03 1.06005E-25 8.92625E-04 6.78284E-14 2.22101E-13
 -1        47-8.64340E-04 3.14167E-03 4.10577E-26 5.89871E-04-1.45515E-14 1.61868E-13
 -1        48-6.28600E-04 1.95198E-03-8.97790E-27 3.33311E-04-7.36402E-14-4.06205E-14
 -1        49-5.30182E-04 1.23731E-03 1.14217E-25 2.10943E-04-8.52469E-14-2.48818E-13
 -1        50-3.43724E-04 6.40991E-04 4.11909E-25 1.22368E-04-7.99321E-14-4.58435E-13
 -1        51-6.39890E-05-6.01324E-04 5.42738E-25 1.56678E-04 2.57038E-13-4.65325E-13
 -1        52 5.19194E-05-1.20138E-03 2.32209E-25 2.13912E-04 2.54087E-13-2.52819E-13
 -1        53 2.20884E-04-1.93537E-03 8.93884E-26 3.22781E-04 2.32157E-13-3.37072E-14
 -1        54 4.72870E-04-3.16956E-03 9.02463E-26 5.88203E-04 1.70289E-13 1.45760E-13
 -1        55 9.28257E-04-5.28881E-03 1.01745E-25 9.07206E-04 8.75451E-14 2.11254E-13
 -1        56 1.52572E-03-8.17937E-03 6.03646E-26 1.09076E-03 2.60714E-14 1.75641E-13
 -1        57 2.25361E-03-1.13605E-02 1.32996E-26 1.12477E-03-3.77007E-16 9.55698E-14
 -1        58 2.93498E-03-1.45762E-02-2.38662E-27 1.16742E-03 8.12524E-15-2.37873E-14
 -1        59 3.65435E-03-1.80388E-02 1.27046E-26 1.31779E-03 5.72336E-14-6.32324E-14
 -1        60 4.45313E-03-2.20229E-02 9.51434E-27 1.48816E-03 8.72718E-14 2.55373E-14
 -1        61 5.40886E-03-2.63703E-02 6.77342E-26 1.52561E-03 7.06179E-14 1.83316E-13
 -1        62 6.27631E-03-3.05394E-02 1.56479E-25 1.39436E-03 1.29263E-14 2.84341E-13
 -1        63 6.99344E-03-3.41072E-02 1.91576E-25 1.20700E-03-4.19919E-14 3.09138E-13
 -1        64 7.55681E-03-3.71625E-02 1.57329E-25 1.13463E-03-6.65034E-14 2.74861E-13
 -1        65 8.21943E-03-4.03104E-02 9.65262E-26 1.31964E-03-6.41533E-14 2.12038E-13
 -1        66 9.01955E-03-4.44294E-02 8.69998E-26 1.76251E-03-3.92897E-14 2.06542E-13
 -1        67 1.02741E-02-5.01220E-02 1.09301E-25 2.46991E-03-3.22800E-14 2.33788E-13
 -1        68 1.10405E-02-5.80884E-02 1.05238E-25 2.41839E-03-5.32213E-14 2.26071E-13
 -1        69 1.63627E-02-6.47697E-02 4.75792E-26 5.73076E-03-6.38212E-14 1.50357E-13
 -1        70-6.39890E-05-6.01324E-04 5.42874E-25 1.56678E-04 2.56972E-13-4.65419E-13
 -1        71 5.19194E-05-1.20138E-03 2.32210E-25 2.13912E-04 2.54086E-13-2.52825E-13
 -1        72 2.20884E-04-1.93537E-03 8.93915E-26 3.22781E-04 2.32169E-13-3.36883E-14
 -1        73 4.72870E-04-3.16956E-03 9.01727E-26 5.88203E-04 1.70228E-13 1.45697E-13
 -1        74 9.28257E-04-5.28881E-03 1.01727E-25 9.07206E-04 8.75400E-14 2.11235E-13
 -1        75 1.52572E-03-8.17937E-03 6.03631E-26 1.09076E-03 2.60700E-14 1.75638E-13
 -1        76 2.25361E-03-1.13605E-02 1.33052E-26 1.12477E-03-3.66484E-16 9.55806E-14
 -1        77 2.93498E-03-1.45762E-02-2.38560E-27 1.16742E-03 8.12510E-15-2.37998E-14
 -1        78 3.65435E-03-1.80388E-02 1.27041E-26 1.31779E-03 5.72282E-14-6.32331E-14
 -1        79 4.45313E-03-2.20229E-02 9.51853E-27 1.48816E-03 8.72714E-14 2.55454E-14
 -1        80 5.40886E-03-2.63703E-02 6.77173E-26 1.52561E-03 7.06206E-14 1.83287E-13
 -1        81 6.27631E-03-3.05394E-02 1.56479E-25 1.39436E-03 1.29264E-14 2.84341E-13
 -1        82 6.99344E-03-3.41072E-02 1.91576E-25 1.20700E-03-4.19919E-14 3.09139E-13
 -1        83 7.55681E-03-3.71625E-02 1.57314E-25 1.13463E-03-6.65008E-14 2.74846E-13
 -1        84 8.21943E-03-4.03104E-02 9.65440E-26 1.31964E-03-6.41508E-14 2.12059E-13
 -1        85 9.01955E-03-4.44294E-02 8.70081E-26 1.76251E-03-3.92881E-14 2.06553E-13
 -1        86 1.02741E-02-5.01220E-02 1.09297E-25 2.46991E-03-3.22783E-14 2.33784E-13
 -1        87 1.10405E-02-5.80884E-02 1.05238E-25 2.41839E-03-5.32212E-14 2.26071E-13
 -1        88 1.63627E-02-6.47697E-02 4.75792E-26 5.73076E-03-6.38212E-14 1.50357E-13
 -1        89-4.07237E-04-2.82496E-03 3.16854E-26 2.72701E-03-1.70879E-14 1.34535E-13
 -1        90-6.31381E-04-2.09325E-03 1.01818E-25 3.92542E-03-2.13362E-14 2.26265E-13
 -1        91-3.64226E-04-1.76168E-03 1.09333E-25 3.00600E-03-1.97400E-14 2.32994E-13
 -1        92-3.08199E-04-1.47935E-03 8.13069E-26 2.28459E-03-2.76380E-14 1.99848E-13
 -1        93-2.82521E-04-1.26249E-03 9.16526E-26 1.68240E-03-3.69489E-14 2.11784E-13
 -1        94-3.21397E-04-1.11107E-03 1.50904E-25 1.44396E-03-3.66514E-14 2.73011E-13
 -1        95-2.36612E-04-1.00476E-03 1.95431E-25 1.53793E-03-3.71777E-14 3.10433E-13
 -1        96-2.02026E-04-8.88989E-04 1.64182E-25 1.79545E-03-3.51066E-14 2.86272E-13
 -1        97-1.77413E-04-7.32257E-04 6.37825E-26 1.97916E-03-1.92293E-14 1.88300E-13
 -1        98-2.13832E-04-5.72973E-04-5.03587E-27 1.92843E-03 8.49817E-15 3.99754E-14
 -1        99-1.51904E-04-4.50612E-04 8.78595E-27 1.70224E-03 3.48927E-14-6.64602E-14
 -1       100-1.57020E-04-3.43130E-04 4.74882E-27 1.51421E-03 5.55047E-14-2.66183E-14
 -1       101-1.75784E-04-2.24229E-04 1.72066E-26 1.46769E-03 6.27793E-14 8.48295E-14
 -1       102-2.38820E-04-1.21187E-04 7.70319E-26 1.41927E-03 6.55829E-14 1.88562E-13
 -1       103-1.93023E-04-6.33121E-05 1.18572E-25 1.17389E-03 7.33638E-14 2.33299E-13
 -1       104-1.95735E-04-2.83453E-05 6.01556E-26 7.63186E-04 8.11183E-14 1.68816E-13
 -1       105-2.03858E-04 6.77764E-06-5.78070E-27 4.22445E-04 8.60021E-14-2.96607E-14
 -1       106-2.39131E-04 2.89576E-05 1.13712E-25 2.83646E-04 8.49201E-14-2.49231E-13
 -1       107-2.03856E-04 1.63465E-05 4.12601E-25 1.96324E-04 7.86749E-14-4.60103E-13
 -1       108-2.03856E-04 1.63465E-05 4.12610E-25 1.96324E-04 7.87081E-14-4.60107E-13
 -1       109-2.39131E-04 2.89576E-05 1.13702E-25 2.83646E-04 8.49144E-14-2.49228E-13
 -1       110-2.03858E-04 6.77764E-06-5.78020E-27 4.22445E-04 8.60031E-14-2.96439E-14
 -1       111-1.95735E-04-2.83453E-05 6.01501E-26 7.63186E-04 8.11090E-14 1.68794E-13
 -1       112-1.93023E-04-6.33121E-05 1.18572E-25 1.17389E-03 7.33631E-14 2.33299E-13
 -1       113-2.38820E-04-1.21187E-04 7.70364E-26 1.41927E-03 6.55877E-14 1.88570E-13
 -1       114-1.75784E-04-2.24229E-04 1.71871E-26 1.46769E-03 6.27603E-14 8.47920E-14
 -1       115-1.57020E-04-3.43130E-04 4.74816E-27 1.51421E-03 5.55096E-14-2.65991E-14
 -1       116-1.51904E-04-4.50612E-04 8.78470E-27 1.70224E-03 3.49055E-14-6.64481E-14
 -1       117-2.13832E-04-5.72973E-04-5.03572E-27 1.92843E-03 8.50091E-15 3.99742E-14
 -1       118-1.77413E-04-7.32257E-04 6.37826E-26 1.97916E-03-1.92332E-14 1.88299E-13
 -1       119-2.02026E-04-8.88989E-04 1.64181E-25 1.79545E-03-3.51069E-14 2.86272E-13
 -1       120-2.36612E-04-1.00476E-03 1.95430E-25 1.53793E-03-3.71776E-14 3.10432E-13
 -1       121-3.21397E-04-1.11107E-03 1.50913E-25 1.44396E-03-3.66506E-14 2.73019E-13
 -1       122-2.82521E-04-1.26249E-03 9.16471E-26 1.68240E-03-3.69502E-14 2.11778E-13
 -1       123-3.08199E-04-1.47935E-03 8.13124E-26 2.28459E-03-2.76362E-14 1.99855E-13
 -1       124-3.64226E-04-1.76168E-03 1.09332E-25 3.00600E-03-1.97389E-14 2.32994E-13
 -1       125-6.31381E-04-2.09325E-03 1.01818E-25 3.92542E-03-2.13367E-14 2.26265E-13
 -1       126-4.07237E-04-2.82496E-03 3.16854E-26 2.72701E-03-1.70879E-14 1.34535E-13
 -3
    1PSTEP                       364          91           1          
  100CL  191 9.10000E-01         126                     1   91           1
 -4  ERROR       1    1
 -5  STR(%)      1    1    0    0
 -1         1 6.71656E+01
 -1         2 6.71656E+01
 -1         3 4.54144E+01
 -1         4 4.54144E+01
 -1         5 3.33992E+01
 -1         6 3.33992E+01
 -1         7 5.71068E+01
 -1         8 5.71068E+01
 -1         9 4.54144E+01
 -1        10 4.54144E+01
 -1        11 6.71656E+01
 -1        12 6.71656E+01
 -1        13 6.71656E+01
 -1        14 6.62365E+01
 -1        15 6.60424E+01
 -1        16 6.55951E+01
 -1        17 6.50264E+01
 -1        18 6.46698E+01
 -1        19 6.48242E+01
 -1        20 6.51581E+01
 -1        21 6.53859E+01
 -1        22 6.53859E+01
 -1        23 6.52926E+01
 -1        24 6.52926E+01
 -1        25 6.52094E+01
 -1        26 6.47677E+01
 -1        27 6.29313E+01
 -1        28 6.46059E+01
 -1        29 6.70183E+01
 -1        30 6.70183E+01
 -1        31 6.37095E+01
 -1        32 6.71656E+01
 -1        33 6.62365E+01
 -1        34 6.60424E+01
 -1        35 6.55951E+01
 -1        36 6.50264E+01
 -1        37 6.46698E+01
 -1        38 6.48242E+01
 -1        39 6.51581E+01
 -1        40 6.53859E+01
 -1        41 6.53859E+01
 -1        42 6.52926E+01
 -1        43 6.52926E+01
 -1        44 6.52094E+01
 -1        45 6.47677E+01
 -1        46 6.29313E+01
 -1        47 6.46059E+01
 -1        48 6.70183E+01
 -1        49 6.70183E+01
 -1        50 6.37095E+01
 -1        51 4.89503E+01
 -1        52 5.65567E+01
 -1        53 5.65567E+01
 -1        54 5.62479E+01
 -1        55 5.80369E+01
 -1        56 5.93207E+01
 -1        57 5.94610E+01
 -1        58 5.94610E+01
 -1        59 5.92712E+01
 -1        60 5.92072E+01
 -1        61 5.88727E+01
 -1        62 5.84401E+01
 -1        63 5.79315E+01
 -1        64 5.75917E+01
 -1        65 5.74608E+01
 -1        66 5.74835E+01
 -1        67 5.74835E+01
 -1        68 5.74347E+01
 -1        69 5.71068E+01
 -1        70 4.89503E+01
 -1        71 5.65567E+01
 -1        72 5.65567E+01
 -1        73 5.62479E+01
 -1        74 5.80369E+01
 -1        75 5.93207E+01
 -1        76 5.94610E+01
 -1        77 5.94610E+01
 -1        78 5.92712E+01
 -1        79 5.92072E+01
 -1        80 5.88727E+01
 -1        81 5.84401E+01
 -1        82 5.79315E+01
 -1        83 5.75917E+01
 -1        84 5.74608E+01
 -1        85 5.74835E+01
 -1        86 5.74835E+01
 -1        87 5.74347E+01
 -1        88 5.71068E+01
 -1        89 6.71656E+01
 -1        90 6.62365E+01
 -1        91 6.60424E+01
 -1        92 6.55951E+01
 -1        93 6.50264E+01
 -1        94 6.46698E+01
 -1        95 6.48242E+01
 -1        96 6.51581E+01
 -1        97 6.53859E+01
 -1        98 6.53859E+01
 -1        99 6.52926E+01
 -1       100 6.52926E+01
 -1       101 6.52094E+01
 -1       102 6.47677E+01
 -1       103 6.29313E+01
 -1       104 6.46059E+01
 -1       105 6.70183E+01
 -1       106 6.70183E+01
 -1       107 6.37095E+01
 -1       108 6.37095E+01
 -1       109 6.70183E+01
 -1       110 6.70183E+01
 -1       111 6.46059E+01
 -1       112 6.29313E+01
 -1       113 6.47677E+01
 -1       114 6.52094E+01
 -1       115 6.52926E+01
 -1       116 6.52926E+01
 -1       117 6.53859E+01
 -1       118 6.53859E+01
 -1       119 6.51581E+01
 -1       120 6.48242E+01
 -1       121 6.46698E+01
 -1       122 6.50264E+01
 -1       123 6.55951E+01
 -1       124 6.60424E+01
 -1       125 6.62365E+01
 -1       126 6.71656E+01
 -3
    1PSTEP                       365          92           1          
  100CL  192 9.20000E-01         126                     1   92           1
 -4  DISP        4    1
 -5  D1          1    2    1    0
 -5  D2          1    2    2    0
 -5  D3          1    2    3    0
 -5  ALL         1    2    0    0    1ALL
 -1         1 0.00000E+00 0.00000E+00 0.00000E+00
 -1         2 0.00000E+00 0.00000E+00 0.00000E+00
 -1         3 3.65768E-01-5.45935E-02 0.00000E+00
 -1         4 3.65768E-01-5.45935E-02 0.00000E+00
 -1         5 3.53408E-01-1.02723E-01 0.00000E+00
 -1         6 3.53408E-01-1.02723E-01 0.00000E+00
 -1         7 0.00000E+00 0.00000E+00 0.00000E+00
 -1         8 0.00000E+00 0.00000E+00 0.00000E+00
 -1         9 3.59585E-01-7.86577E-02 0.00000E+00
 -1        10 3.59585E-01-7.86577E-02 0.00000E+00
 -1        11 0.00000E+00 0.00000E+00 0.00000E+00
 -1        12 0.00000E+00 0.00000E+00 0.00000E+00
 -1        13 2.79938E-03 3.12220E-03 0.00000E+00
 -1        14 8.40012E-03 5.76959E-03 0.00000E+00
 -1        15 1.69406E-02 7.59601E-03 0.00000E+00
 -1        16 2.78848E-02 8.67810E-03 0.00000E+00
 -1        17 4.09890E-02 9.04077E-03 0.00000E+00
 -1        18 5.60915E-02 8.67151E-03 0.00000E+00
 -1        19 7.30017E-02 7.52695E-03 0.00000E+00
 -1        20 9.14797E-02 5.58291E-03 0.00000E+00
 -1        21 1.11235E-01 2.88178E-03 0.00000E+00
 -1        22 1.32015E-01-4.88762E-04 0.00000E+00
 -1        23 1.53620E-01-4.42786E-03 0.00000E+00
 -1        24 1.75918E-01-8.86210E-03 0.00000E+00
 -1        25 1.98785E-01-1.37295E-02 0.00000E+00
 -1        26 2.22098E-01-1.89719E-02 0.00000E+00
 -1        27 2.45723E-01-2.45167E-02 0.00000E+00
 -1        28 2.69563E-01-3.02949E-02 0.00000E+00
 -1        29 2.93539E-01-3.62385E-02 0.00000E+00
 -1        30 3.17596E-01-4.22972E-02 0.00000E+00
 -1        31 3.41685E-01-4.84290E-02 0.00000E+00
 -1        32 2.79938E-03 3.12220E-03 0.00000E+00
 -1        33 8.40012E-03 5.76959E-03 0.00000E+00
 -1        34 1.69406E-02 7.59601E-03 0.00000E+00
 -1        35 2.78848E-02 8.67810E-03 0.00000E+00
 -1        36 4.09890E-02 9.04077E-03 0.00000E+00
 -1        37 5.60915E-02 8.67151E-03 0.00000E+00
 -1        38 7.30017E-02 7.52695E-03 0.00000E+00
 -1        39 9.14797E-02 5.58291E-03 0.00000E+00
 -1        40 1.11235E-01 2.88178E-03 0.00000E+00
 -1        41 1.32015E-01-4.88762E-04 0.00000E+00
 -1        42 1.53620E-01-4.42786E-03 0.00000E+00
 -1        43 1.75918E-01-8.86210E-03 0.00000E+00
 -1        44 1.98785E-01-1.37295E-02 0.00000E+00
 -1        45 2.22098E-01-1.89719E-02 0.00000E+00
 -1        46 2.45723E-01-2.45167E-02 0.00000E+00
 -1        47 2.69563E-01-3.02949E-02 0.00000E+00
 -1        48 2.93539E-01-3.62385E-02 0.00000E+00
 -1        49 3.17596E-01-4.22972E-02 0.00000E+00
 -1        50 3.41685E-01-4.84290E-02 0.00000E+00
 -1        51 3.29340E-01-9.65270E-02 0.00000E+00
 -1        52 3.05303E-01-9.03012E-02 0.00000E+00
 -1        53 2.81356E-01-8.40572E-02 0.00000E+00
 -1        54 2.57550E-01-7.78087E-02 0.00000E+00
 -1        55 2.33958E-01-7.15725E-02 0.00000E+00
 -1        56 2.10675E-01-6.53727E-02 0.00000E+00
 -1        57 1.87824E-01-5.92527E-02 0.00000E+00
 -1        58 1.65523E-01-5.32611E-02 0.00000E+00
 -1        59 1.43894E-01-4.74467E-02 0.00000E+00
 -1        60 1.23057E-01-4.18415E-02 0.00000E+00
 -1        61 1.03167E-01-3.64661E-02 0.00000E+00
 -1        62 8.44117E-02-3.13370E-02 0.00000E+00
 -1        63 6.70308E-02-2.64922E-02 0.00000E+00
 -1        64 5.12601E-02-2.19856E-02 0.00000E+00
 -1        65 3.72917E-02-1.78591E-02 0.00000E+00
 -1        66 2.52459E-02-1.40925E-02 0.00000E+00
 -1        67 1.52594E-02-1.05871E-02 0.00000E+00
 -1        68 7.52202E-03-7.18155E-03 0.00000E+00
 -1        69 2.55836E-03-3.62847E-03 0.00000E+00
 -1        70 3.29340E-01-9.65270E-02 0.00000E+00
 -1        71 3.05303E-01-9.03012E-02 0.00000E+00
 -1        72 2.81356E-01-8.40572E-02 0.00000E+00
 -1        73 2.57550E-01-7.78087E-02 0.00000E+00
 -1        74 2.33958E-01-7.15725E-02 0.00000E+00
 -1        75 2.10675E-01-6.53727E-02 0.00000E+00
 -1        76 1.87824E-01-5.92527E-02 0.00000E+00
 -1        77 1.65523E-01-5.32611E-02 0.00000E+00
 -1        78 1.43894E-01-4.74467E-02 0.00000E+00
 -1        79 1.23057E-01-4.18415E-02 0.00000E+00
 -1        80 1.03167E-01-3.64661E-02 0.00000E+00
 -1        81 8.44117E-02-3.13370E-02 0.00000E+00
 -1        82 6.70308E-02-2.64922E-02 0.00000E+00
 -1        83 5.12601E-02-2.19856E-02 0.00000E+00
 -1        84 3.72917E-02-1.78591E-02 0.00000E+00
 -1        85 2.52459E-02-1.40925E-02 0.00000E+00
 -1        86 1.52594E-02-1.05871E-02 0.00000E+00
 -1        87 7.52202E-03-7.18155E-03 0.00000E+00
 -1        88 2.55836E-03-3.62847E-03 0.00000E+00
 -1        89 1.81922E-03-1.96942E-04 0.00000E+00
 -1        90 7.37807E-03-6.15163E-04 0.00000E+00
 -1        91 1.55723E-02-1.38663E-03 0.00000E+00
 -1        92 2.61006E-02-2.59248E-03 0.00000E+00
 -1        93 3.87165E-02-4.28708E-03 0.00000E+00
 -1        94 5.32917E-02-6.52856E-03 0.00000E+00
 -1        95 6.96802E-02-9.35503E-03 0.00000E+00
 -1        96 8.76605E-02-1.27590E-02 0.00000E+00
 -1        97 1.06964E-01-1.66878E-02 0.00000E+00
 -1        98 1.27339E-01-2.10732E-02 0.00000E+00
 -1        99 1.48594E-01-2.58572E-02 0.00000E+00
 -1       100 1.70586E-01-3.09935E-02 0.00000E+00
 -1       101 1.93196E-01-3.64354E-02 0.00000E+00
 -1       102 2.16303E-01-4.21283E-02 0.00000E+00
 -1       103 2.39781E-01-4.80122E-02 0.00000E+00
 -1       104 2.63515E-01-5.40300E-02 0.00000E+00
 -1       105 2.87419E-01-6.01342E-02 0.00000E+00
 -1       106 3.11433E-01-6.62913E-02 0.00000E+00
 -1       107 3.35506E-01-7.24746E-02 0.00000E+00
 -1       108 3.35506E-01-7.24746E-02 0.00000E+00
 -1       109 3.11433E-01-6.62913E-02 0.00000E+00
 -1       110 2.87419E-01-6.01342E-02 0.00000E+00
 -1       111 2.63515E-01-5.40300E-02 0.00000E+00
 -1       112 2.39781E-01-4.80122E-02 0.00000E+00
 -1       113 2.16303E-01-4.21283E-02 0.00000E+00
 -1       114 1.93196E-01-3.64354E-02 0.00000E+00
 -1       115 1.70586E-01-3.09935E-02 0.00000E+00
 -1       116 1.48594E-01-2.58572E-02 0.00000E+00
 -1       117 1.27339E-01-2.10732E-02 0.00000E+00
 -1       118 1.06964E-01-1.66878E-02 0.00000E+00
 -1       119 8.76605E-02-1.27590E-02 0.00000E+00
 -1       120 6.96802E-02-9.35503E-03 0.00000E+00
 -1       121 5.32917E-02-6.52856E-03 0.00000E+00
 -1       122 3.87165E-02-4.28708E-03 0.00000E+00
 -1       123 2.61006E-02-2.59248E-03 0.00000E+00
 -1       124 1.55723E-02-1.38663E-03 0.00000E+00
 -1       125 7.37807E-03-6.15163E-04 0.00000E+00
 -1       126 1.81922E-03-1.96942E-04 0.00000E+00
 -3
    1PSTEP                       366          92           1          
  100CL  192 9.20000E-01         126                     1   92           1
 -4  STRESS      6    1
 -5  SXX         1    4    1    1
 -5  SYY         1    4    2    2
 -5  SZZ         1    4    3    3
 -5  SXY         1    4    1    2
 -5  SYZ         1    4    2    3
 -5  SZX         1    4    3    1
 -1         1 1.51476E+04 3.67569E+04 1.43201E+04 1.03539E+04 7.60998E-11 1.72845E-10
 -1         2 1.51476E+04 3.67569E+04 1.43201E+04 1.03539E+04 7.60998E-11 1.72845E-10
 -1         3 1.75711E+01 6.32007E+01 2.42144E+01 7.58365E+01 3.48518E-08-7.26444E-08
 -1         4 1.75711E+01 6.32007E+01 2.42144E+01 7.58365E+01 3.48518E-08-7.26256E-08
 -1         5-1.16121E+02-2.29996E+02-1.03889E+02-1.85460E+01 1.34075E-07-1.22834E-09
 -1         6-1.16121E+02-2.29996E+02-1.03889E+02-1.85460E+01 1.34074E-07-1.17759E-09
 -1         7-1.64778E+04-3.51681E+04-1.70651E+04 6.15483E+03 2.54619E-10-3.52907E-10
 -1         8-1.64778E+04-3.51681E+04-1.70651E+04 6.15483E+03 2.54619E-10-3.52915E-10
 -1         9-4.37569E+01-1.04436E+02-4.44671E+01 3.33602E+01 8.78782E-08-2.96473E-08
 -1        10-4.37569E+01-1.04436E+02-4.44671E+01 3.33602E+01 8.78782E-08-2.96878E-08
 -1        11-5.29237E+02-2.69221E+03-7.56086E+02 5.49835E+03 1.28883E-10-3.54504E-11
 -1        12-5.29237E+02-2.69221E+03-7.56086E+02 5.49835E+03 1.28882E-10-3.54356E-11
 -1        13 5.53005E+03 3.11901E+04 1.01979E+04 3.89165E+03 1.32412E-08 7.36863E-09
 -1        14 6.87052E+03 2.80263E+04 9.77148E+03 3.72991E+03 9.62687E-09 4.79732E-08
 -1        15 6.18230E+03 2.37268E+04 8.45153E+03 4.20811E+03-9.81901E-09 6.33745E-08
 -1        16 5.90622E+03 2.08854E+04 7.61677E+03 4.31763E+03-2.87623E-08 4.62415E-08
 -1        17 5.70023E+03 1.86699E+04 6.95752E+03 4.46129E+03-3.59114E-08 4.27937E-10
 -1        18 5.51262E+03 1.65828E+04 6.33315E+03 4.55319E+03-2.46873E-08-4.95571E-08
 -1        19 5.30843E+03 1.43511E+04 5.66240E+03 4.44218E+03 3.23393E-09-8.48188E-08
 -1        20 4.88751E+03 1.19991E+04 4.89135E+03 4.10275E+03 2.92142E-08-7.79274E-08
 -1        21 4.32043E+03 9.82386E+03 4.12005E+03 3.61107E+03 3.44417E-08-3.77526E-08
 -1        22 3.69157E+03 7.99756E+03 3.42162E+03 3.10286E+03 2.63129E-08 9.84223E-10
 -1        23 3.18941E+03 6.55380E+03 2.86364E+03 2.63228E+03 1.21542E-08 3.41686E-08
 -1        24 2.71143E+03 5.28994E+03 2.35995E+03 2.22530E+03 1.69568E-09 5.52177E-08
 -1        25 2.24072E+03 4.12470E+03 1.88356E+03 1.83305E+03 3.57615E-09 5.84931E-08
 -1        26 1.73035E+03 3.04092E+03 1.41632E+03 1.44396E+03 1.87046E-09 7.37078E-08
 -1        27 1.29814E+03 2.14305E+03 1.02448E+03 1.06109E+03-4.32272E-09 8.24699E-08
 -1        28 8.96242E+02 1.40929E+03 6.88006E+02 7.47288E+02-5.92925E-09 7.14041E-08
 -1        29 5.66581E+02 8.51209E+02 4.23817E+02 5.02620E+02-1.01107E-08 5.86751E-08
 -1        30 2.82736E+02 4.15525E+02 2.08975E+02 3.14543E+02-7.36812E-09 2.10486E-08
 -1        31 9.23457E+01 1.42874E+02 7.04606E+01 1.54270E+02 1.08488E-08-1.41085E-08
 -1        32 5.53005E+03 3.11901E+04 1.01979E+04 3.89165E+03 1.32412E-08 7.36863E-09
 -1        33 6.87052E+03 2.80263E+04 9.77148E+03 3.72991E+03 9.62687E-09 4.79732E-08
 -1        34 6.18230E+03 2.37268E+04 8.45153E+03 4.20811E+03-9.81901E-09 6.33742E-08
 -1        35 5.90622E+03 2.08854E+04 7.61677E+03 4.31763E+03-2.87624E-08 4.62419E-08
 -1        36 5.70023E+03 1.86699E+04 6.95752E+03 4.46129E+03-3.59113E-08 4.30617E-10
 -1        37 5.51262E+03 1.65828E+04 6.33315E+03 4.55319E+03-2.46877E-08-4.95594E-08
 -1        38 5.30843E+03 1.43511E+04 5.66240E+03 4.44218E+03 3.23421E-09-8.48171E-08
 -1        39 4.88751E+03 1.19991E+04 4.89135E+03 4.10275E+03 2.92142E-08-7.79273E-08
 -1        40 4.32043E+03 9.82386E+03 4.12005E+03 3.61107E+03 3.44418E-08-3.77526E-08
 -1        41 3.69157E+03 7.99756E+03 3.42162E+03 3.10286E+03 2.63129E-08 9.84223E-10
 -1        42 3.18941E+03 6.55380E+03 2.86364E+03 2.63228E+03 1.21542E-08 3.41649E-08
 -1        43 2.71143E+03 5.28994E+03 2.35995E+03 2.22530E+03 1.69570E-09 5.52196E-08
 -1        44 2.24072E+03 4.12470E+03 1.88356E+03 1.83305E+03 3.57635E-09 5.84894E-08
 -1        45 1.73035E+03 3.04092E+03 1.41632E+03 1.44396E+03 1.86959E-09 7.37087E-08
 -1        46 1.29814E+03 2.14305E+03 1.02448E+03 1.06109E+03-4.32203E-09 8.24736E-08
 -1        47 8.96242E+02 1.40929E+03 6.88006E+02 7.47288E+02-5.92857E-09 7.14031E-08
 -1        48 5.66581E+02 8.51209E+02 4.23817E+02 5.02620E+02-1.01099E-08 5.86825E-08
 -1        49 2.82736E+02 4.15525E+02 2.08975E+02 3.14543E+02-7.36817E-09 2.10265E-08
 -1        50 9.23457E+01 1.42874E+02 7.04606E+01 1.54270E+02 1.08479E-08-1.41450E-08
 -1        51-1.91091E+02-4.30939E+02-1.86845E+02-6.54448E+01 1.09393E-07 3.04393E-08
 -1        52-3.53519E+02-8.65509E+02-3.66655E+02-2.02019E+02 6.80808E-08 6.12988E-08
 -1        53-5.62995E+02-1.40650E+03-5.93395E+02-3.90814E+02 3.49554E-08 7.85709E-08
 -1        54-8.39935E+02-2.09524E+03-8.86272E+02-6.16703E+02 1.02806E-08 7.95443E-08
 -1        55-1.19046E+03-2.95800E+03-1.25602E+03-8.94685E+02-5.97670E-09 7.21235E-08
 -1        56-1.63425E+03-3.98533E+03-1.70688E+03-1.22112E+03-1.38761E-08 5.15628E-08
 -1        57-2.08502E+03-5.08454E+03-2.18528E+03-1.58264E+03-1.97058E-08 4.41140E-08
 -1        58-2.55415E+03-6.25368E+03-2.69423E+03-1.92928E+03-2.43055E-08 2.90496E-08
 -1        59-3.01983E+03-7.52922E+03-3.23891E+03-2.25264E+03-3.15463E-08 1.04968E-08
 -1        60-3.52625E+03-9.03774E+03-3.87443E+03-2.56868E+03-2.52739E-08-2.98839E-08
 -1        61-4.05187E+03-1.08453E+04-4.61892E+03-2.91116E+03-1.12568E-08-6.33907E-08
 -1        62-4.64951E+03-1.29439E+04-5.48952E+03-3.24789E+03 1.66357E-08-7.66851E-08
 -1        63-5.23262E+03-1.51077E+04-6.38718E+03-3.51126E+03 4.07337E-08-6.80858E-08
 -1        64-5.71196E+03-1.71052E+04-7.20467E+03-3.60420E+03 4.19831E-08-2.26297E-08
 -1        65-5.99271E+03-1.88998E+04-7.89646E+03-3.47328E+03 2.80184E-08 2.57259E-08
 -1        66-6.27176E+03-2.08771E+04-8.65548E+03-3.11528E+03 7.62758E-09 5.31545E-08
 -1        67-6.61529E+03-2.34546E+04-9.65602E+03-2.52809E+03-1.23580E-08 6.15309E-08
 -1        68-7.94709E+03-2.73792E+04-1.14732E+04-1.87765E+03-2.36831E-08 4.68120E-08
 -1        69-6.35350E+03-2.98803E+04-1.19065E+04 7.41621E+01-1.66174E-08 1.61773E-08
 -1        70-1.91091E+02-4.30939E+02-1.86845E+02-6.54448E+01 1.09394E-07 3.04623E-08
 -1        71-3.53519E+02-8.65509E+02-3.66655E+02-2.02019E+02 6.80874E-08 6.12944E-08
 -1        72-5.62995E+02-1.40650E+03-5.93395E+02-3.90814E+02 3.49517E-08 7.85636E-08
 -1        73-8.39935E+02-2.09524E+03-8.86272E+02-6.16703E+02 1.02805E-08 7.95452E-08
 -1        74-1.19046E+03-2.95800E+03-1.25602E+03-8.94685E+02-5.97601E-09 7.21267E-08
 -1        75-1.63425E+03-3.98533E+03-1.70688E+03-1.22112E+03-1.38762E-08 5.15617E-08
 -1        76-2.08502E+03-5.08454E+03-2.18528E+03-1.58264E+03-1.97045E-08 4.41203E-08
 -1        77-2.55415E+03-6.25368E+03-2.69423E+03-1.92928E+03-2.43090E-08 2.90586E-08
 -1        78-3.01983E+03-7.52922E+03-3.23891E+03-2.25264E+03-3.15526E-08 1.05089E-08
 -1        79-3.52625E+03-9.03774E+03-3.87443E+03-2.56868E+03-2.52751E-08-2.98699E-08
 -1        80-4.05187E+03-1.08453E+04-4.61892E+03-2.91116E+03-1.12527E-08-6.33944E-08
 -1        81-4.64951E+03-1.29439E+04-5.48952E+03-3.24789E+03 1.66357E-08-7.66855E-08
 -1        82-5.23262E+03-1.51077E+04-6.38718E+03-3.51126E+03 4.07323E-08-6.80822E-08
 -1        83-5.71196E+03-1.71052E+04-7.20467E+03-3.60420E+03 4.19835E-08-2.26307E-08
 -1        84-5.99271E+03-1.88998E+04-7.89646E+03-3.47328E+03 2.80167E-08 2.57265E-08
 -1        85-6.27176E+03-2.08771E+04-8.65548E+03-3.11528E+03 7.62819E-09 5.31575E-08
 -1        86-6.61529E+03-2.34546E+04-9.65602E+03-2.52809E+03-1.23579E-08 6.15317E-08
 -1        87-7.94709E+03-2.73792E+04-1.14732E+04-1.87765E+03-2.36831E-08 4.68120E-08
 -1        88-6.35350E+03-2.98803E+04-1.19065E+04 7.41621E+01-1.66174E-08 1.61773E-08
 -1        89-3.04764E+01-2.50958E+03-6.91152E+02 8.39879E+02-4.25843E-09 1.12132E-08
 -1        90-9.27611E+01-2.16832E+03-5.64301E+02 1.04357E+03-1.08362E-08 4.74139E-08
 -1        91 7.84465E+00-1.78667E+03-4.54593E+02 6.14110E+02-1.29821E-08 6.79285E-08
 -1        92-2.26119E+01-1.52620E+03-4.00387E+02 3.51018E+02-8.41161E-09 5.34174E-08
 -1        93-2.64174E+01-1.34507E+03-3.60462E+02 2.17730E+02-4.29938E-10 1.62101E-08
 -1        94 8.40834E+00-1.26937E+03-3.37932E+02 2.28206E+02 1.16218E-08-3.61340E-08
 -1        95 1.36337E+02-1.20219E+03-2.88093E+02 2.74934E+02 2.33782E-08-7.90593E-08
 -1        96 2.05892E+02-1.11884E+03-2.49823E+02 2.93876E+02 2.25333E-08-8.26559E-08
 -1        97 2.13366E+02-9.84946E+02-2.13892E+02 2.63304E+02 1.14409E-08-5.33777E-08
 -1        98 1.54337E+02-8.58876E+02-1.99023E+02 2.13401E+02-6.67106E-10-1.40947E-08
 -1        99 1.45181E+02-7.42069E+02-1.70620E+02 1.57610E+02-1.22783E-08 2.32239E-08
 -1       100 1.32565E+02-6.79436E+02-1.58548E+02 1.33553E+02-1.25765E-08 4.22897E-08
 -1       101 1.36773E+02-6.27825E+02-1.43907E+02 1.30341E+02-1.03682E-08 5.14368E-08
 -1       102 1.11066E+02-5.82181E+02-1.39396E+02 1.31748E+02-8.75110E-09 6.35427E-08
 -1       103 1.08394E+02-4.94690E+02-1.14871E+02 1.07906E+02-5.69724E-09 7.83062E-08
 -1       104 6.96023E+01-4.08968E+02-1.01359E+02 8.74374E+01 7.94499E-10 7.86918E-08
 -1       105 3.71389E+01-3.20984E+02-8.50050E+01 7.62977E+01 8.83843E-09 7.09790E-08
 -1       106-1.94254E+00-2.51727E+02-7.60874E+01 7.59922E+01 2.81042E-08 4.54484E-08
 -1       107-3.00020E+01-1.65061E+02-5.85258E+01 5.66195E+01 5.85902E-08 7.24378E-09
 -1       108-3.00020E+01-1.65061E+02-5.85258E+01 5.66195E+01 5.85900E-08 7.26795E-09
 -1       109-1.94254E+00-2.51727E+02-7.60874E+01 7.59922E+01 2.81075E-08 4.54532E-08
 -1       110 3.71389E+01-3.20984E+02-8.50050E+01 7.62977E+01 8.83896E-09 7.09795E-08
 -1       111 6.96023E+01-4.08968E+02-1.01359E+02 8.74374E+01 7.93305E-10 7.86920E-08
 -1       112 1.08394E+02-4.94690E+02-1.14871E+02 1.07906E+02-5.69982E-09 7.82933E-08
 -1       113 1.11066E+02-5.82181E+02-1.39396E+02 1.31748E+02-8.75076E-09 6.35445E-08
 -1       114 1.36773E+02-6.27825E+02-1.43907E+02 1.30341E+02-1.03700E-08 5.14261E-08
 -1       115 1.32565E+02-6.79436E+02-1.58548E+02 1.33553E+02-1.25759E-08 4.22851E-08
 -1       116 1.45181E+02-7.42069E+02-1.70620E+02 1.57610E+02-1.22768E-08 2.32320E-08
 -1       117 1.54337E+02-8.58876E+02-1.99023E+02 2.13401E+02-6.67006E-10-1.40970E-08
 -1       118 2.13366E+02-9.84946E+02-2.13892E+02 2.63304E+02 1.14402E-08-5.33772E-08
 -1       119 2.05892E+02-1.11884E+03-2.49823E+02 2.93876E+02 2.25333E-08-8.26562E-08
 -1       120 1.36337E+02-1.20219E+03-2.88093E+02 2.74934E+02 2.33779E-08-7.90655E-08
 -1       121 8.40834E+00-1.26937E+03-3.37932E+02 2.28206E+02 1.16221E-08-3.61306E-08
 -1       122-2.64174E+01-1.34507E+03-3.60462E+02 2.17730E+02-4.29804E-10 1.62046E-08
 -1       123-2.26119E+01-1.52620E+03-4.00387E+02 3.51018E+02-8.41201E-09 5.34161E-08
 -1       124 7.84465E+00-1.78667E+03-4.54593E+02 6.14110E+02-1.29821E-08 6.79288E-08
 -1       125-9.27611E+01-2.16832E+03-5.64301E+02 1.04357E+03-1.08361E-08 4.74139E-08
 -1       126-3.04764E+01-2.50958E+03-6.91152E+02 8.39879E+02-4.25843E-09 1.12131E-08
 -3
    1PSTEP                       367          92           1          
  100CL  192 9.20000E-01         126                     1   92           1
 -4  TOSTRAIN    6    1
 -5  EXX         1    4    1    1
 -5  EYY         1    4    2    2
 -5  EZZ         1    4    3    3
 -5  EXY         1    4    1    2
 -5  EYZ         1    4    2    3
 -5  EZX         1    4    3    1
 -1         1-3.98942E-04 6.55603E-02-4.93719E-28 2.79934E-02-1.29392E-19 4.91903E-16
 -1         2-3.98942E-04 6.55603E-02-4.93719E-28 2.79934E-02-1.29392E-19 4.91903E-16
 -1         3-1.95291E-04 3.00207E-04 1.07013E-25 6.95949E-05-1.43715E-14-2.61503E-13
 -1         4-1.95291E-04 3.00207E-04 1.06994E-25 6.95949E-05-1.43422E-14-2.61449E-13
 -1         5-7.47260E-05-3.75273E-04 3.64513E-25 1.23987E-04 3.80244E-13-2.13395E-13
 -1         6-7.47260E-05-3.75273E-04 3.64505E-25 1.23987E-04 3.80321E-13-2.13249E-13
 -1         7-4.10999E-04-6.90363E-02-2.12244E-27 2.55833E-02 3.98151E-19-8.62302E-16
 -1         8-4.10999E-04-6.90363E-02-2.12244E-27 2.55833E-02 3.97157E-19-8.62328E-16
 -1         9-1.35008E-04-5.76622E-05 1.60844E-25 1.41431E-04 2.03982E-13-2.22043E-13
 -1        10-1.35008E-04-5.76622E-05 1.60882E-25 1.41431E-04 2.03919E-13-2.22159E-13
 -1        11-4.04970E-04-3.67405E-03-3.51701E-28 1.81919E-02 2.38560E-19-1.39726E-16
 -1        12-4.04970E-04-3.67405E-03-3.51695E-28 1.81919E-02 2.40415E-19-1.39679E-16
 -1        13-1.75635E-02 6.29344E-02-2.06995E-28 6.07056E-03 4.12830E-14 2.02577E-14
 -1        14-1.23497E-02 5.59310E-02 4.42329E-26 2.55668E-03 4.77297E-14 1.48356E-13
 -1        15-1.10587E-02 4.86015E-02 8.53333E-26 2.31797E-03 5.71357E-15 2.06047E-13
 -1        16-9.80620E-03 4.35618E-02 5.62591E-26 1.61725E-03-5.37930E-14 1.66185E-13
 -1        17-9.02882E-03 3.98029E-02 1.08284E-26 1.35348E-03-1.06605E-13 3.26617E-14
 -1        18-8.33373E-03 3.62950E-02 4.76378E-26 1.40085E-03-1.20138E-13-1.27473E-13
 -1        19-7.31522E-03 3.22699E-02 1.44849E-25 1.58081E-03-8.05369E-14-2.60847E-13
 -1        20-6.24807E-03 2.77582E-02 1.42968E-25 1.66548E-03-5.12197E-15-2.68911E-13
 -1        21-5.23173E-03 2.33094E-02 4.69739E-26 1.54962E-03 5.30004E-14-1.56253E-13
 -1        22-4.43273E-03 1.94137E-02 5.57533E-27 1.30706E-03 7.72390E-14-3.25117E-14
 -1        23-3.64085E-03 1.61579E-02 2.11986E-26 1.10133E-03 8.17162E-14 8.28392E-14
 -1        24-3.01585E-03 1.33155E-02 6.13873E-26 1.01627E-03 8.32036E-14 1.57836E-13
 -1        25-2.43743E-03 1.06462E-02 7.03071E-26 9.82822E-04 9.55934E-14 1.63487E-13
 -1        26-1.94225E-03 8.10593E-03 1.12388E-25 9.04348E-04 1.15305E-13 2.08925E-13
 -1        27-1.37822E-03 5.83152E-03 1.42794E-25 7.70713E-04 1.12832E-13 2.42725E-13
 -1        28-9.83497E-04 3.97107E-03 1.07230E-25 6.28916E-04 9.27971E-14 2.13113E-13
 -1        29-6.99523E-04 2.53840E-03 7.03144E-26 4.94841E-04 6.21035E-14 1.83082E-13
 -1        30-5.23106E-04 1.42924E-03-1.11521E-27 3.67989E-04 1.17923E-14 7.14976E-14
 -1        31-3.14076E-04 6.19491E-04-1.25551E-26 1.99701E-04 8.83317E-15-5.71735E-14
 -1        32-1.75635E-02 6.29344E-02-2.06995E-28 6.07056E-03 4.12830E-14 2.02577E-14
 -1        33-1.23497E-02 5.59310E-02 4.42329E-26 2.55668E-03 4.77297E-14 1.48356E-13
 -1        34-1.10587E-02 4.86015E-02 8.53327E-26 2.31797E-03 5.71341E-15 2.06046E-13
 -1        35-9.80620E-03 4.35618E-02 5.62605E-26 1.61725E-03-5.37929E-14 1.66186E-13
 -1        36-9.02882E-03 3.98029E-02 1.08292E-26 1.35348E-03-1.06602E-13 3.26701E-14
 -1        37-8.33373E-03 3.62950E-02 4.76422E-26 1.40085E-03-1.20141E-13-1.27480E-13
 -1        38-7.31522E-03 3.22699E-02 1.44844E-25 1.58081E-03-8.05343E-14-2.60842E-13
 -1        39-6.24807E-03 2.77582E-02 1.42967E-25 1.66548E-03-5.12182E-15-2.68910E-13
 -1        40-5.23173E-03 2.33094E-02 4.69739E-26 1.54962E-03 5.30008E-14-1.56253E-13
 -1        41-4.43273E-03 1.94137E-02 5.57531E-27 1.30706E-03 7.72389E-14-3.25117E-14
 -1        42-3.64085E-03 1.61579E-02 2.11940E-26 1.10133E-03 8.17109E-14 8.28284E-14
 -1        43-3.01585E-03 1.33155E-02 6.13904E-26 1.01627E-03 8.32064E-14 1.57842E-13
 -1        44-2.43743E-03 1.06462E-02 7.02979E-26 9.82822E-04 9.55885E-14 1.63476E-13
 -1        45-1.94225E-03 8.10593E-03 1.12390E-25 9.04348E-04 1.15304E-13 2.08929E-13
 -1        46-1.37822E-03 5.83152E-03 1.42806E-25 7.70713E-04 1.12839E-13 2.42735E-13
 -1        47-9.83497E-04 3.97107E-03 1.07227E-25 6.28916E-04 9.27975E-14 2.13110E-13
 -1        48-6.99523E-04 2.53840E-03 7.03246E-26 4.94841E-04 6.21174E-14 1.83102E-13
 -1        49-5.23106E-04 1.42924E-03-1.15795E-27 3.67989E-04 1.17579E-14 7.14347E-14
 -1        50-3.14076E-04 6.19491E-04-1.25487E-26 1.99701E-04 8.77378E-15-5.72761E-14
 -1        51-1.49789E-05-7.93964E-04 2.54972E-25 2.15071E-04 3.59692E-13-8.44870E-14
 -1        52 2.11345E-04-1.79782E-03 1.64973E-25 3.48533E-04 2.90469E-13 6.83738E-14
 -1        53 5.36587E-04-3.10225E-03 1.51324E-25 4.65798E-04 2.22833E-13 1.69862E-13
 -1        54 9.00388E-04-4.72860E-03 1.34755E-25 6.13649E-04 1.53236E-13 2.11623E-13
 -1        55 1.34504E-03-6.76373E-03 1.09420E-25 7.78036E-04 9.40443E-14 2.16111E-13
 -1        56 1.83271E-03-9.18555E-03 5.86681E-26 9.01072E-04 3.83393E-14 1.69615E-13
 -1        57 2.44115E-03-1.18404E-02 4.81577E-26 9.66734E-04 8.43642E-15 1.57127E-13
 -1        58 3.02285E-03-1.45922E-02 2.81067E-26 1.02088E-03-2.93844E-14 1.20052E-13
 -1        59 3.61514E-03-1.74984E-02 1.87062E-26 1.12825E-03-7.98075E-14 7.53167E-14
 -1        60 4.25556E-03-2.08273E-02 2.62706E-26 1.31870E-03-1.18416E-13-5.43233E-14
 -1        61 5.12782E-03-2.48344E-02 8.35726E-26 1.54732E-03-1.18812E-13-1.75338E-13
 -1        62 6.09359E-03-2.94458E-02 1.26567E-25 1.68897E-03-4.36992E-14-2.52635E-13
 -1        63 7.05867E-03-3.41482E-02 1.26766E-25 1.62876E-03 5.16399E-14-2.54616E-13
 -1        64 7.85921E-03-3.83321E-02 3.99905E-26 1.42741E-03 1.13619E-13-1.12822E-13
 -1        65 8.60791E-03-4.19287E-02 2.52857E-26 1.35673E-03 1.17285E-13 5.60330E-14
 -1        66 9.33248E-03-4.57585E-02 5.79376E-26 1.64066E-03 6.79884E-14 1.63427E-13
 -1        67 1.04795E-02-5.09725E-02 8.05749E-26 2.41894E-03-3.42151E-15 2.05417E-13
 -1        68 1.12173E-02-5.90007E-02 5.71965E-26 2.59330E-03-6.22840E-14 1.62509E-13
 -1        69 1.68717E-02-6.64917E-02 9.98681E-27 6.31492E-03-5.61255E-14 5.68997E-14
 -1        70-1.49789E-05-7.93964E-04 2.55017E-25 2.15071E-04 3.59732E-13-8.44233E-14
 -1        71 2.11345E-04-1.79782E-03 1.64988E-25 3.48533E-04 2.90481E-13 6.83509E-14
 -1        72 5.36587E-04-3.10225E-03 1.51296E-25 4.65798E-04 2.22811E-13 1.69847E-13
 -1        73 9.00388E-04-4.72860E-03 1.34759E-25 6.13649E-04 1.53237E-13 2.11625E-13
 -1        74 1.34504E-03-6.76373E-03 1.09430E-25 7.78036E-04 9.40512E-14 2.16119E-13
 -1        75 1.83271E-03-9.18555E-03 5.86656E-26 9.01072E-04 3.83373E-14 1.69612E-13
 -1        76 2.44115E-03-1.18404E-02 4.81702E-26 9.66734E-04 8.44970E-15 1.57143E-13
 -1        77 3.02285E-03-1.45922E-02 2.81222E-26 1.02088E-03-2.93814E-14 1.20083E-13
 -1        78 3.61514E-03-1.74984E-02 1.87201E-26 1.12825E-03-7.98089E-14 7.53608E-14
 -1        79 4.25556E-03-2.08273E-02 2.62512E-26 1.31870E-03-1.18401E-13-5.42801E-14
 -1        80 5.12782E-03-2.48344E-02 8.35760E-26 1.54732E-03-1.18804E-13-1.75354E-13
 -1        81 6.09359E-03-2.94458E-02 1.26568E-25 1.68897E-03-4.36997E-14-2.52636E-13
 -1        82 7.05867E-03-3.41482E-02 1.26753E-25 1.62876E-03 5.16394E-14-2.54603E-13
 -1        83 7.85921E-03-3.83321E-02 3.99928E-26 1.42741E-03 1.13620E-13-1.12826E-13
 -1        84 8.60791E-03-4.19287E-02 2.52840E-26 1.35673E-03 1.17280E-13 5.60365E-14
 -1        85 9.33248E-03-4.57585E-02 5.79445E-26 1.64066E-03 6.79928E-14 1.63437E-13
 -1        86 1.04795E-02-5.09725E-02 8.05771E-26 2.41894E-03-3.42084E-15 2.05420E-13
 -1        87 1.12173E-02-5.90007E-02 5.71966E-26 2.59330E-03-6.22842E-14 1.62509E-13
 -1        88 1.68717E-02-6.64917E-02 9.98682E-27 6.31492E-03-5.61255E-14 5.68997E-14
 -1        89-3.45872E-04-3.07479E-03-4.54292E-28 3.25549E-03-1.14165E-14 3.72567E-14
 -1        90-5.66202E-04-2.29522E-03 4.61559E-26 4.17593E-03-1.51221E-14 1.57629E-13
 -1        91-2.89628E-04-1.97754E-03 1.00144E-25 2.92097E-03-1.39287E-15 2.24953E-13
 -1        92-2.36860E-04-1.73847E-03 5.77283E-26 2.11632E-03 1.28918E-14 1.75356E-13
 -1        93-2.10458E-04-1.55141E-03-6.32508E-27 1.72328E-03 1.27125E-14 5.10749E-14
 -1        94-2.37261E-04-1.39304E-03 1.73792E-26 1.82139E-03-1.55517E-16-1.23455E-13
 -1        95-1.28279E-04-1.25232E-03 1.38898E-25 2.08536E-03-1.60930E-14-2.67539E-13
 -1        96-7.72405E-05-1.10391E-03 1.53254E-25 2.17859E-03-3.12268E-14-2.76698E-13
 -1        97-5.19536E-05-9.44940E-04 5.56740E-26 2.00507E-03-3.40676E-14-1.74030E-13
 -1        98-8.85834E-05-8.22480E-04-4.73993E-27 1.70068E-03-2.08839E-14-4.07412E-14
 -1        99-1.28556E-05-7.60520E-04 9.08461E-27 1.44585E-03-3.48171E-15 8.53450E-14
 -1       100 3.50101E-06-7.13830E-04 3.91551E-26 1.31573E-03 2.45225E-14 1.41298E-13
 -1       101 1.86049E-06-6.40567E-04 5.70246E-26 1.25778E-03 4.62113E-14 1.64115E-13
 -1       102-5.47695E-05-5.58139E-04 8.54875E-26 1.17209E-03 7.07276E-14 1.96045E-13
 -1       103-1.65864E-05-4.85937E-04 1.29440E-25 1.01074E-03 1.03489E-13 2.33129E-13
 -1       104-4.15542E-05-3.99889E-04 1.30037E-25 8.07192E-04 1.23850E-13 2.23664E-13
 -1       105-8.14683E-05-2.87781E-04 1.03786E-25 6.24014E-04 1.35581E-13 1.88738E-13
 -1       106-1.55881E-04-1.74077E-04 4.78027E-26 4.75389E-04 1.51066E-13 8.56009E-14
 -1       107-1.64527E-04-8.91072E-05 5.53747E-26 2.84119E-04 1.78288E-13-7.10845E-14
 -1       108-1.64527E-04-8.91072E-05 5.53664E-26 2.84119E-04 1.78326E-13-7.10154E-14
 -1       109-1.55881E-04-1.74077E-04 4.78157E-26 4.75389E-04 1.51083E-13 8.56093E-14
 -1       110-8.14683E-05-2.87781E-04 1.03789E-25 6.24014E-04 1.35583E-13 1.88739E-13
 -1       111-4.15542E-05-3.99889E-04 1.30037E-25 8.07192E-04 1.23847E-13 2.23667E-13
 -1       112-1.65864E-05-4.85937E-04 1.29399E-25 1.01074E-03 1.03462E-13 2.33096E-13
 -1       113-5.47695E-05-5.58139E-04 8.54918E-26 1.17209E-03 7.07314E-14 1.96050E-13
 -1       114 1.86049E-06-6.40567E-04 5.70025E-26 1.25778E-03 4.61901E-14 1.64086E-13
 -1       115 3.50101E-06-7.13830E-04 3.91478E-26 1.31573E-03 2.45175E-14 1.41284E-13
 -1       116-1.28556E-05-7.60520E-04 9.09307E-27 1.44585E-03-3.46597E-15 8.53666E-14
 -1       117-8.85834E-05-8.22480E-04-4.73746E-27 1.70068E-03-2.08868E-14-4.07481E-14
 -1       118-5.19536E-05-9.44940E-04 5.56735E-26 2.00507E-03-3.40690E-14-1.74028E-13
 -1       119-7.72405E-05-1.10391E-03 1.53254E-25 2.17859E-03-3.12271E-14-2.76698E-13
 -1       120-1.28279E-04-1.25232E-03 1.38915E-25 2.08536E-03-1.61004E-14-2.67558E-13
 -1       121-2.37261E-04-1.39304E-03 1.73728E-26 1.82139E-03-1.51021E-16-1.23445E-13
 -1       122-2.10458E-04-1.55141E-03-6.32681E-27 1.72328E-03 1.27081E-14 5.10576E-14
 -1       123-2.36860E-04-1.73847E-03 5.77247E-26 2.11632E-03 1.28896E-14 1.75352E-13
 -1       124-2.89628E-04-1.97754E-03 1.00145E-25 2.92097E-03-1.39286E-15 2.24954E-13
 -1       125-5.66202E-04-2.29522E-03 4.61558E-26 4.17593E-03-1.51218E-14 1.57629E-13
 -1       126-3.45872E-04-3.07479E-03-4.54326E-28 3.25549E-03-1.14165E-14 3.72566E-14
 -3
    1PSTEP                       368          92           1          
  100CL  192 9.20000E-01         126                     1   92           1
 -4  ERROR       1    1
 -5  STR(%)      1    1    0    0
 -1         1 6.76836E+01
 -1         2 6.76836E+01
 -1         3 4.38485E+01
 -1         4 4.38485E+01
 -1         5 2.68394E+01
 -1         6 2.68394E+01
 -1         7 5.71555E+01
 -1         8 5.71555E+01
 -1         9 4.38485E+01
 -1        10 4.38485E+01
 -1        11 6.76836E+01
 -1        12 6.76836E+01
 -1        13 6.76836E+01
 -1        14 6.66034E+01
 -1        15 6.63314E+01
 -1        16 6.58189E+01
 -1        17 6.53464E+01
 -1        18 6.55651E+01
 -1        19 6.59826E+01
 -1        20 6.62333E+01
 -1        21 6.64731E+01
 -1        22 6.66027E+01
 -1        23 6.72147E+01
 -1        24 6.80041E+01
 -1        25 6.89858E+01
 -1        26 6.96779E+01
 -1        27 7.10584E+01
 -1        28 7.23752E+01
 -1        29 7.30385E+01
 -1        30 7.30385E+01
 -1        31 6.52560E+01
 -1        32 6.76836E+01
 -1        33 6.66034E+01
 -1        34 6.63314E+01
 -1        35 6.58189E+01
 -1        36 6.53464E+01
 -1        37 6.55651E+01
 -1        38 6.59826E+01
 -1        39 6.62333E+01
 -1        40 6.64731E+01
 -1        41 6.66027E+01
 -1        42 6.72147E+01
 -1        43 6.80041E+01
 -1        44 6.89858E+01
 -1        45 6.96779E+01
 -1        46 7.10584E+01
 -1        47 7.23752E+01
 -1        48 7.30385E+01
 -1        49 7.30385E+01
 -1        50 6.52560E+01
 -1        51 4.01146E+01
 -1        52 4.84443E+01
 -1        53 5.19155E+01
 -1        54 5.38855E+01
 -1        55 5.56538E+01
 -1        56 5.65349E+01
 -1        57 5.71068E+01
 -1        58 5.74676E+01
 -1        59 5.78753E+01
 -1        60 5.79916E+01
 -1        61 5.79916E+01
 -1        62 5.79884E+01
 -1        63 5.77789E+01
 -1        64 5.74322E+01
 -1        65 5.69848E+01
 -1        66 5.70185E+01
 -1        67 5.72047E+01
 -1        68 5.72047E+01
 -1        69 5.71555E+01
 -1        70 4.01146E+01
 -1        71 4.84443E+01
 -1        72 5.19155E+01
 -1        73 5.38855E+01
 -1        74 5.56538E+01
 -1        75 5.65349E+01
 -1        76 5.71068E+01
 -1        77 5.74676E+01
 -1        78 5.78753E+01
 -1        79 5.79916E+01
 -1        80 5.79916E+01
 -1        81 5.79884E+01
 -1        82 5.77789E+01
 -1        83 5.74322E+01
 -1        84 5.69848E+01
 -1        85 5.70185E+01
 -1        86 5.72047E+01
 -1        87 5.72047E+01
 -1        88 5.71555E+01
 -1        89 6.76836E+01
 -1        90 6.66034E+01
 -1        91 6.63314E+01
 -1        92 6.58189E+01
 -1        93 6.53464E+01
 -1        94 6.55651E+01
 -1        95 6.59826E+01
 -1        96 6.62333E+01
 -1        97 6.64731E+01
 -1        98 6.66027E+01
 -1        99 6.72147E+01
 -1       100 6.80041E+01
 -1       101 6.89858E+01
 -1       102 6.96779E+01
 -1       103 7.10584E+01
 -1       104 7.23752E+01
 -1       105 7.30385E+01
 -1       106 7.30385E+01
 -1       107 6.52560E+01
 -1       108 6.52560E+01
 -1       109 7.30385E+01
 -1       110 7.30385E+01
 -1       111 7.23752E+01
 -1       112 7.10584E+01
 -1       113 6.96779E+01
 -1       114 6.89858E+01
 -1       115 6.80041E+01
 -1       116 6.72147E+01
 -1       117 6.66027E+01
 -1       118 6.64731E+01
 -1       119 6.62333E+01
 -1       120 6.59826E+01
 -1       121 6.55651E+01
 -1       122 6.53464E+01
 -1       123 6.58189E+01
 -1       124 6.63314E+01
 -1       125 6.66034E+01
 -1       126 6.76836E+01
 -3
    1PSTEP                       369          93           1          
  100CL  193 9.30000E-01         126                     1   93           1
 -4  DISP        4    1
 -5  D1          1    2    1    0
 -5  D2          1    2    2    0
 -5  D3          1    2    3    0
 -5  ALL         1    2    0    0    1ALL
 -1         1 0.00000E+00 0.00000E+00 0.00000E+00
 -1         2 0.00000E+00 0.00000E+00 0.00000E+00
 -1         3 3.69659E-01-5.60655E-02 0.00000E+00
 -1         4 3.69659E-01-5.60655E-02 0.00000E+00
 -1         5 3.57058E-01-1.04634E-01 0.00000E+00
 -1         6 3.57058E-01-1.04634E-01 0.00000E+00
 -1         7 0.00000E+00 0.00000E+00 0.00000E+00
 -1         8 0.00000E+00 0.00000E+00 0.00000E+00
 -1         9 3.63356E-01-8.03504E-02 0.00000E+00
 -1        10 3.63356E-01-8.03504E-02 0.00000E+00
 -1        11 0.00000E+00 0.00000E+00 0.00000E+00
 -1        12 0.00000E+00 0.00000E+00 0.00000E+00
 -1        13 2.85367E-03 3.17519E-03 0.00000E+00
 -1        14 8.55154E-03 5.87200E-03 0.00000E+00
 -1        15 1.72628E-02 7.74431E-03 0.00000E+00
 -1        16 2.84868E-02 8.84885E-03 0.00000E+00
 -1        17 4.19762E-02 9.17379E-03 0.00000E+00
 -1        18 5.75096E-02 8.68909E-03 0.00000E+00
 -1        19 7.48207E-02 7.36834E-03 0.00000E+00
 -1        20 9.36167E-02 5.22557E-03 0.00000E+00
 -1        21 1.13591E-01 2.34270E-03 0.00000E+00
 -1        22 1.34509E-01-1.17059E-03 0.00000E+00
 -1        23 1.56205E-01-5.21652E-03 0.00000E+00
 -1        24 1.78568E-01-9.73410E-03 0.00000E+00
 -1        25 2.01474E-01-1.46603E-02 0.00000E+00
 -1        26 2.24816E-01-1.99282E-02 0.00000E+00
 -1        27 2.48511E-01-2.54774E-02 0.00000E+00
 -1        28 2.72508E-01-3.12800E-02 0.00000E+00
 -1        29 2.96719E-01-3.73046E-02 0.00000E+00
 -1        30 3.21035E-01-4.34953E-02 0.00000E+00
 -1        31 3.45359E-01-4.97712E-02 0.00000E+00
 -1        32 2.85367E-03 3.17519E-03 0.00000E+00
 -1        33 8.55154E-03 5.87200E-03 0.00000E+00
 -1        34 1.72628E-02 7.74431E-03 0.00000E+00
 -1        35 2.84868E-02 8.84885E-03 0.00000E+00
 -1        36 4.19762E-02 9.17379E-03 0.00000E+00
 -1        37 5.75096E-02 8.68909E-03 0.00000E+00
 -1        38 7.48207E-02 7.36834E-03 0.00000E+00
 -1        39 9.36167E-02 5.22557E-03 0.00000E+00
 -1        40 1.13591E-01 2.34270E-03 0.00000E+00
 -1        41 1.34509E-01-1.17059E-03 0.00000E+00
 -1        42 1.56205E-01-5.21652E-03 0.00000E+00
 -1        43 1.78568E-01-9.73410E-03 0.00000E+00
 -1        44 2.01474E-01-1.46603E-02 0.00000E+00
 -1        45 2.24816E-01-1.99282E-02 0.00000E+00
 -1        46 2.48511E-01-2.54774E-02 0.00000E+00
 -1        47 2.72508E-01-3.12800E-02 0.00000E+00
 -1        48 2.96719E-01-3.73046E-02 0.00000E+00
 -1        49 3.21035E-01-4.34953E-02 0.00000E+00
 -1        50 3.45359E-01-4.97712E-02 0.00000E+00
 -1        51 3.32769E-01-9.83202E-02 0.00000E+00
 -1        52 3.08495E-01-9.19626E-02 0.00000E+00
 -1        53 2.84311E-01-8.55549E-02 0.00000E+00
 -1        54 2.60326E-01-7.91299E-02 0.00000E+00
 -1        55 2.36646E-01-7.27499E-02 0.00000E+00
 -1        56 2.13337E-01-6.64666E-02 0.00000E+00
 -1        57 1.90464E-01-6.03094E-02 0.00000E+00
 -1        58 1.68107E-01-5.42952E-02 0.00000E+00
 -1        59 1.46387E-01-4.84567E-02 0.00000E+00
 -1        60 1.25424E-01-4.28284E-02 0.00000E+00
 -1        61 1.05351E-01-3.74301E-02 0.00000E+00
 -1        62 8.63312E-02-3.22628E-02 0.00000E+00
 -1        63 6.86044E-02-2.73455E-02 0.00000E+00
 -1        64 5.24383E-02-2.27228E-02 0.00000E+00
 -1        65 3.80799E-02-1.84422E-02 0.00000E+00
 -1        66 2.57109E-02-1.45064E-02 0.00000E+00
 -1        67 1.55051E-02-1.08496E-02 0.00000E+00
 -1        68 7.64011E-03-7.33197E-03 0.00000E+00
 -1        69 2.60530E-03-3.69821E-03 0.00000E+00
 -1        70 3.32769E-01-9.83202E-02 0.00000E+00
 -1        71 3.08495E-01-9.19626E-02 0.00000E+00
 -1        72 2.84311E-01-8.55549E-02 0.00000E+00
 -1        73 2.60326E-01-7.91299E-02 0.00000E+00
 -1        74 2.36646E-01-7.27499E-02 0.00000E+00
 -1        75 2.13337E-01-6.64666E-02 0.00000E+00
 -1        76 1.90464E-01-6.03094E-02 0.00000E+00
 -1        77 1.68107E-01-5.42952E-02 0.00000E+00
 -1        78 1.46387E-01-4.84567E-02 0.00000E+00
 -1        79 1.25424E-01-4.28284E-02 0.00000E+00
 -1        80 1.05351E-01-3.74301E-02 0.00000E+00
 -1        81 8.63312E-02-3.22628E-02 0.00000E+00
 -1        82 6.86044E-02-2.73455E-02 0.00000E+00
 -1        83 5.24383E-02-2.27228E-02 0.00000E+00
 -1        84 3.80799E-02-1.84422E-02 0.00000E+00
 -1        85 2.57109E-02-1.45064E-02 0.00000E+00
 -1        86 1.55051E-02-1.08496E-02 0.00000E+00
 -1        87 7.64011E-03-7.33197E-03 0.00000E+00
 -1        88 2.60530E-03-3.69821E-03 0.00000E+00
 -1        89 1.85376E-03-2.03487E-04 0.00000E+00
 -1        90 7.49809E-03-6.35849E-04 0.00000E+00
 -1        91 1.58377E-02-1.43774E-03 0.00000E+00
 -1        92 2.66171E-02-2.70584E-03 0.00000E+00
 -1        93 3.95952E-02-4.50424E-03 0.00000E+00
 -1        94 5.45920E-02-6.88389E-03 0.00000E+00
 -1        95 7.13877E-02-9.86123E-03 0.00000E+00
 -1        96 8.97043E-02-1.34045E-02 0.00000E+00
 -1        97 1.09248E-01-1.74445E-02 0.00000E+00
 -1        98 1.29781E-01-2.19119E-02 0.00000E+00
 -1        99 1.51141E-01-2.67596E-02 0.00000E+00
 -1       100 1.73209E-01-3.19490E-02 0.00000E+00
 -1       101 1.95862E-01-3.74301E-02 0.00000E+00
 -1       102 2.18988E-01-4.31509E-02 0.00000E+00
 -1       103 2.42507E-01-4.90752E-02 0.00000E+00
 -1       104 2.66362E-01-5.51763E-02 0.00000E+00
 -1       105 2.90480E-01-6.14125E-02 0.00000E+00
 -1       106 3.14747E-01-6.77214E-02 0.00000E+00
 -1       107 3.39059E-01-7.40439E-02 0.00000E+00
 -1       108 3.39059E-01-7.40439E-02 0.00000E+00
 -1       109 3.14747E-01-6.77214E-02 0.00000E+00
 -1       110 2.90480E-01-6.14125E-02 0.00000E+00
 -1       111 2.66362E-01-5.51763E-02 0.00000E+00
 -1       112 2.42507E-01-4.90752E-02 0.00000E+00
 -1       113 2.18988E-01-4.31509E-02 0.00000E+00
 -1       114 1.95862E-01-3.74301E-02 0.00000E+00
 -1       115 1.73209E-01-3.19490E-02 0.00000E+00
 -1       116 1.51141E-01-2.67596E-02 0.00000E+00
 -1       117 1.29781E-01-2.19119E-02 0.00000E+00
 -1       118 1.09248E-01-1.74445E-02 0.00000E+00
 -1       119 8.97043E-02-1.34045E-02 0.00000E+00
 -1       120 7.13877E-02-9.86123E-03 0.00000E+00
 -1       121 5.45920E-02-6.88389E-03 0.00000E+00
 -1       122 3.95952E-02-4.50424E-03 0.00000E+00
 -1       123 2.66171E-02-2.70584E-03 0.00000E+00
 -1       124 1.58377E-02-1.43774E-03 0.00000E+00
 -1       125 7.49809E-03-6.35849E-04 0.00000E+00
 -1       126 1.85376E-03-2.03487E-04 0.00000E+00
 -3
    1PSTEP                       370          93           1          
  100CL  193 9.30000E-01         126                     1   93           1
 -4  STRESS      6    1
 -5  SXX         1    4    1    1
 -5  SYY         1    4    2    2
 -5  SZZ         1    4    3    3
 -5  SXY         1    4    1    2
 -5  SYZ         1    4    2    3
 -5  SZX         1    4    3    1
 -1         1 1.54243E+04 3.74382E+04 1.45632E+04 1.05862E+04-9.58309E-11-2.42026E-11
 -1         2 1.54243E+04 3.74382E+04 1.45632E+04 1.05862E+04-9.58309E-11-2.42026E-11
 -1         3-1.16321E+01-9.27412E+00-6.27843E+00 5.23609E+01-1.80785E-08 1.34604E-07
 -1         4-1.16321E+01-9.27412E+00-6.27843E+00 5.23609E+01-1.80777E-08 1.34620E-07
 -1         5-9.73032E+01-2.01153E+02-8.95793E+01-6.47429E+00-1.85515E-08 1.25545E-07
 -1         6-9.73032E+01-2.01153E+02-8.95793E+01-6.47429E+00-1.85515E-08 1.25561E-07
 -1         7-1.67920E+04-3.57689E+04-1.74002E+04 6.23570E+03-2.29904E-10 2.19532E-10
 -1         8-1.67920E+04-3.57689E+04-1.74002E+04 6.23570E+03-2.29919E-10 2.19533E-10
 -1         9-5.01102E+01-1.23936E+02-5.22307E+01 2.67118E+01-1.29476E-08 1.35374E-07
 -1        10-5.01102E+01-1.23936E+02-5.22307E+01 2.67118E+01-1.29492E-08 1.35341E-07
 -1        11-5.44736E+02-2.78262E+03-7.80421E+02 5.59952E+03-1.50151E-10 4.82391E-11
 -1        12-5.44736E+02-2.78262E+03-7.80421E+02 5.59952E+03-1.50123E-10 4.82387E-11
 -1        13 5.65192E+03 3.18183E+04 1.03929E+04 3.98697E+03 4.87709E-09-9.22531E-09
 -1        14 7.04690E+03 2.87445E+04 1.00067E+04 3.83649E+03 1.05571E-08-1.03369E-08
 -1        15 6.40252E+03 2.45133E+04 8.71884E+03 4.39554E+03-5.58570E-10-1.56087E-09
 -1        16 6.16608E+03 2.15489E+04 7.86400E+03 4.58757E+03-1.89061E-08-1.30672E-08
 -1        17 5.93640E+03 1.89494E+04 7.09699E+03 4.72646E+03-2.26857E-08-5.71023E-08
 -1        18 5.64101E+03 1.63735E+04 6.31133E+03 4.70055E+03 7.05105E-09-1.27782E-07
 -1        19 5.28255E+03 1.37564E+04 5.49141E+03 4.41907E+03 5.26029E-08-1.69436E-07
 -1        20 4.72535E+03 1.12392E+04 4.63417E+03 3.93839E+03 9.05412E-08-1.63733E-07
 -1        21 4.09086E+03 9.11291E+03 3.85473E+03 3.38315E+03 1.02210E-07-9.52108E-08
 -1        22 3.46902E+03 7.43846E+03 3.19887E+03 2.88579E+03 7.39955E-08-7.50178E-09
 -1        23 3.00902E+03 6.12994E+03 2.69013E+03 2.45295E+03 2.32643E-08 5.19650E-08
 -1        24 2.56993E+03 4.98081E+03 2.23003E+03 2.07380E+03-1.45825E-08 6.20085E-08
 -1        25 2.15077E+03 4.00455E+03 1.82326E+03 1.72154E+03-2.47817E-08 4.77762E-08
 -1        26 1.74537E+03 3.20071E+03 1.46855E+03 1.42536E+03-1.07002E-08 3.44635E-08
 -1        27 1.45414E+03 2.52347E+03 1.18326E+03 1.16262E+03 6.20880E-09 3.79168E-08
 -1        28 1.13456E+03 1.78014E+03 8.68737E+02 9.09001E+02 1.08909E-08 7.08279E-08
 -1        29 7.60401E+02 1.00810E+03 5.28211E+02 6.17656E+02 5.00637E-09 9.80176E-08
 -1        30 3.56068E+02 3.66631E+02 2.16247E+02 3.35149E+02-6.49725E-09 1.21177E-07
 -1        31 8.30543E+01 4.92136E+01 3.96143E+01 1.29678E+02-1.57089E-08 1.34739E-07
 -1        32 5.65192E+03 3.18183E+04 1.03929E+04 3.98697E+03 4.87709E-09-9.22531E-09
 -1        33 7.04690E+03 2.87445E+04 1.00067E+04 3.83649E+03 1.05572E-08-1.03369E-08
 -1        34 6.40252E+03 2.45133E+04 8.71884E+03 4.39554E+03-5.58579E-10-1.56057E-09
 -1        35 6.16608E+03 2.15489E+04 7.86400E+03 4.58757E+03-1.89061E-08-1.30666E-08
 -1        36 5.93640E+03 1.89494E+04 7.09699E+03 4.72646E+03-2.26860E-08-5.71015E-08
 -1        37 5.64101E+03 1.63735E+04 6.31133E+03 4.70055E+03 7.05129E-09-1.27778E-07
 -1        38 5.28255E+03 1.37564E+04 5.49141E+03 4.41907E+03 5.26028E-08-1.69442E-07
 -1        39 4.72535E+03 1.12392E+04 4.63417E+03 3.93839E+03 9.05412E-08-1.63733E-07
 -1        40 4.09086E+03 9.11291E+03 3.85473E+03 3.38315E+03 1.02210E-07-9.52108E-08
 -1        41 3.46902E+03 7.43846E+03 3.19887E+03 2.88579E+03 7.39955E-08-7.50178E-09
 -1        42 3.00902E+03 6.12994E+03 2.69013E+03 2.45295E+03 2.32643E-08 5.19669E-08
 -1        43 2.56993E+03 4.98081E+03 2.23003E+03 2.07380E+03-1.45825E-08 6.20045E-08
 -1        44 2.15077E+03 4.00455E+03 1.82326E+03 1.72154E+03-2.47818E-08 4.77718E-08
 -1        45 1.74537E+03 3.20071E+03 1.46855E+03 1.42536E+03-1.06994E-08 3.44679E-08
 -1        46 1.45414E+03 2.52347E+03 1.18326E+03 1.16262E+03 6.20788E-09 3.79188E-08
 -1        47 1.13456E+03 1.78014E+03 8.68737E+02 9.09001E+02 1.08911E-08 7.08205E-08
 -1        48 7.60401E+02 1.00810E+03 5.28211E+02 6.17656E+02 5.00813E-09 9.80320E-08
 -1        49 3.56068E+02 3.66631E+02 2.16247E+02 3.35149E+02-6.49429E-09 1.21184E-07
 -1        50 8.30543E+01 4.92136E+01 3.96143E+01 1.29678E+02-1.57112E-08 1.34718E-07
 -1        51-1.68161E+02-4.29831E+02-1.79647E+02-5.32939E+01-2.07884E-08 1.28692E-07
 -1        52-3.61377E+02-1.02191E+03-4.16374E+02-2.25611E+02-2.07699E-08 1.02167E-07
 -1        53-6.80963E+02-1.83279E+03-7.58689E+02-5.19481E+02-1.98005E-08 7.42127E-08
 -1        54-1.08993E+03-2.69204E+03-1.14463E+03-8.55326E+02-1.13548E-08 4.44597E-08
 -1        55-1.47720E+03-3.47173E+03-1.50143E+03-1.15473E+03-6.99759E-10 3.56847E-08
 -1        56-1.82909E+03-4.23740E+03-1.84461E+03-1.40013E+03 2.17519E-10 3.91934E-08
 -1        57-2.13959E+03-5.08833E+03-2.20355E+03-1.65131E+03-1.36829E-08 4.59593E-08
 -1        58-2.51039E+03-6.10987E+03-2.63634E+03-1.92704E+03-4.60495E-08 4.80069E-08
 -1        59-2.92514E+03-7.26998E+03-3.12871E+03-2.21786E+03-6.10033E-08 6.68089E-09
 -1        60-3.38444E+03-8.62782E+03-3.70055E+03-2.50145E+03-4.43432E-08-6.60183E-08
 -1        61-3.85976E+03-1.03020E+04-4.38422E+03-2.80718E+03 4.47811E-09-1.38889E-07
 -1        62-4.44731E+03-1.24009E+04-5.24884E+03-3.13778E+03 5.37225E-08-1.78300E-07
 -1        63-5.09837E+03-1.47654E+04-6.23196E+03-3.44918E+03 8.96017E-08-1.67151E-07
 -1        64-5.71427E+03-1.71348E+04-7.21720E+03-3.63067E+03 9.77852E-08-1.02095E-07
 -1        65-6.14834E+03-1.93455E+04-8.10132E+03-3.59458E+03 7.79924E-08-3.78086E-08
 -1        66-6.53087E+03-2.16001E+04-8.99243E+03-3.29940E+03 4.00225E-08 1.13396E-08
 -1        67-6.88707E+03-2.42113E+04-1.00124E+04-2.71521E+03 1.22725E-08 8.57766E-09
 -1        68-8.18488E+03-2.80275E+04-1.17851E+04-2.01265E+03 5.97857E-09-8.56715E-09
 -1        69-6.49605E+03-3.04264E+04-1.21546E+04 3.10565E+01 7.02967E-09-1.63573E-08
 -1        70-1.68161E+02-4.29831E+02-1.79647E+02-5.32939E+01-2.07899E-08 1.28666E-07
 -1        71-3.61377E+02-1.02191E+03-4.16374E+02-2.25611E+02-2.07711E-08 1.02149E-07
 -1        72-6.80963E+02-1.83279E+03-7.58689E+02-5.19481E+02-1.98002E-08 7.42127E-08
 -1        73-1.08993E+03-2.69204E+03-1.14463E+03-8.55326E+02-1.13546E-08 4.44863E-08
 -1        74-1.47720E+03-3.47173E+03-1.50143E+03-1.15473E+03-7.01408E-10 3.56755E-08
 -1        75-1.82909E+03-4.23740E+03-1.84461E+03-1.40013E+03 2.18070E-10 3.91938E-08
 -1        76-2.13959E+03-5.08833E+03-2.20355E+03-1.65131E+03-1.36829E-08 4.59607E-08
 -1        77-2.51039E+03-6.10987E+03-2.63634E+03-1.92704E+03-4.60537E-08 4.79887E-08
 -1        78-2.92514E+03-7.26998E+03-3.12871E+03-2.21786E+03-6.09991E-08 6.68960E-09
 -1        79-3.38444E+03-8.62782E+03-3.70055E+03-2.50145E+03-4.43472E-08-6.60183E-08
 -1        80-3.85976E+03-1.03020E+04-4.38422E+03-2.80718E+03 4.48126E-09-1.38890E-07
 -1        81-4.44731E+03-1.24009E+04-5.24884E+03-3.13778E+03 5.37192E-08-1.78300E-07
 -1        82-5.09837E+03-1.47654E+04-6.23196E+03-3.44918E+03 8.96029E-08-1.67151E-07
 -1        83-5.71427E+03-1.71348E+04-7.21720E+03-3.63067E+03 9.77868E-08-1.02087E-07
 -1        84-6.14834E+03-1.93455E+04-8.10132E+03-3.59458E+03 7.79904E-08-3.78182E-08
 -1        85-6.53087E+03-2.16001E+04-8.99243E+03-3.29940E+03 4.00237E-08 1.13405E-08
 -1        86-6.88707E+03-2.42113E+04-1.00124E+04-2.71521E+03 1.22724E-08 8.57769E-09
 -1        87-8.18488E+03-2.80275E+04-1.17851E+04-2.01265E+03 5.97855E-09-8.56715E-09
 -1        88-6.49605E+03-3.04264E+04-1.21546E+04 3.10565E+01 7.02970E-09-1.63573E-08
 -1        89-3.07148E+01-2.59585E+03-7.12577E+02 8.28895E+02 5.09749E-09-1.27549E-08
 -1        90-1.10114E+02-2.25522E+03-5.89024E+02 9.98315E+02 6.76372E-09-9.98806E-09
 -1        91-6.27471E+00-1.88859E+03-4.85065E+02 5.73923E+02 5.83385E-09 7.02172E-09
 -1        92-6.41778E+00-1.65620E+03-4.31804E+02 3.67634E+02 8.31752E-09 5.27603E-09
 -1        93 3.11558E+01-1.49180E+03-3.86068E+02 2.86713E+02 2.68092E-08-4.78687E-08
 -1        94 8.66469E+01-1.40692E+03-3.56077E+02 3.05816E+02 5.33848E-08-1.21596E-07
 -1        95 2.00410E+02-1.30835E+03-3.02210E+02 3.20509E+02 7.52639E-08-1.74916E-07
 -1        96 2.28364E+02-1.18635E+03-2.65198E+02 2.89715E+02 7.68743E-08-1.76515E-07
 -1        97 1.90023E+02-1.02475E+03-2.34519E+02 2.14579E+02 5.21100E-08-1.23974E-07
 -1        98 1.06884E+02-8.98341E+02-2.26469E+02 1.43910E+02 1.14787E-08-3.66194E-08
 -1        99 9.69623E+01-8.01384E+02-2.03838E+02 8.78403E+01-2.18152E-08 3.45490E-08
 -1       100 7.66926E+01-7.46429E+02-1.95778E+02 5.78169E+01-3.33059E-08 6.08963E-08
 -1       101 4.92960E+01-6.74901E+02-1.84123E+02 3.07453E+01-2.04414E-08 4.92570E-08
 -1       102 3.46791E-01-6.15051E+02-1.82124E+02 1.63533E+01-4.20015E-09 3.58576E-08
 -1       103 2.98798E+01-5.59242E+02-1.57547E+02 1.52045E+01 2.37586E-09 3.26701E-08
 -1       104 6.81749E+01-5.36961E+02-1.40130E+02 4.76364E+01-3.77931E-10 5.40646E-08
 -1       105 9.12792E+01-4.79099E+02-1.16234E+02 7.76986E+01-7.18611E-09 8.91207E-08
 -1       106 4.33759E+01-3.68975E+02-9.77178E+01 8.16820E+01-1.03035E-08 1.16351E-07
 -1       107-2.03672E+01-2.13112E+02-7.00851E+01 5.18129E+01-1.46615E-08 1.32219E-07
 -1       108-2.03672E+01-2.13112E+02-7.00851E+01 5.18129E+01-1.46552E-08 1.32252E-07
 -1       109 4.33759E+01-3.68975E+02-9.77178E+01 8.16820E+01-1.03047E-08 1.16344E-07
 -1       110 9.12792E+01-4.79099E+02-1.16234E+02 7.76986E+01-7.18699E-09 8.91188E-08
 -1       111 6.81749E+01-5.36961E+02-1.40130E+02 4.76364E+01-3.78178E-10 5.40765E-08
 -1       112 2.98798E+01-5.59242E+02-1.57547E+02 1.52045E+01 2.37778E-09 3.26709E-08
 -1       113 3.46791E-01-6.15051E+02-1.82124E+02 1.63533E+01-4.20129E-09 3.58563E-08
 -1       114 4.92960E+01-6.74901E+02-1.84123E+02 3.07453E+01-2.04413E-08 4.92566E-08
 -1       115 7.66926E+01-7.46429E+02-1.95778E+02 5.78169E+01-3.33051E-08 6.09064E-08
 -1       116 9.69623E+01-8.01384E+02-2.03838E+02 8.78403E+01-2.18157E-08 3.45414E-08
 -1       117 1.06884E+02-8.98341E+02-2.26469E+02 1.43910E+02 1.14792E-08-3.66191E-08
 -1       118 1.90023E+02-1.02475E+03-2.34519E+02 2.14579E+02 5.21101E-08-1.23972E-07
 -1       119 2.28364E+02-1.18635E+03-2.65198E+02 2.89715E+02 7.68747E-08-1.76515E-07
 -1       120 2.00410E+02-1.30835E+03-3.02210E+02 3.20509E+02 7.52630E-08-1.74915E-07
 -1       121 8.66469E+01-1.40692E+03-3.56077E+02 3.05816E+02 5.33848E-08-1.21597E-07
 -1       122 3.11558E+01-1.49180E+03-3.86068E+02 2.86713E+02 2.68101E-08-4.78688E-08
 -1       123-6.41778E+00-1.65620E+03-4.31804E+02 3.67634E+02 8.31735E-09 5.27469E-09
 -1       124-6.27471E+00-1.88859E+03-4.85065E+02 5.73923E+02 5.83373E-09 7.02110E-09
 -1       125-1.10114E+02-2.25522E+03-5.89024E+02 9.98315E+02 6.76368E-09-9.98805E-09
 -1       126-3.07148E+01-2.59585E+03-7.12577E+02 8.28895E+02 5.09744E-09-1.27549E-08
 -3
    1PSTEP                       371          93           1          
  100CL  193 9.30000E-01         126                     1   93           1
 -4  TOSTRAIN    6    1
 -5  EXX         1    4    1    1
 -5  EYY         1    4    2    2
 -5  EZZ         1    4    3    3
 -5  EXY         1    4    1    2
 -5  EYZ         1    4    2    3
 -5  EZX         1    4    3    1
 -1         1-4.13531E-04 6.67336E-02-3.72673E-28 2.85363E-02-6.26021E-20 6.34972E-17
 -1         2-4.13531E-04 6.67336E-02-3.72673E-28 2.85363E-02-6.26021E-20 6.34972E-17
 -1         3-1.60185E-04 1.32969E-04 3.89678E-25 8.65734E-05 1.61133E-13 4.10965E-13
 -1         4-1.60185E-04 1.32969E-04 3.89767E-25 8.65734E-05 1.61160E-13 4.11009E-13
 -1         5-8.69582E-05-3.01075E-04 3.39941E-25 1.32348E-04 1.45550E-13 3.86015E-13
 -1         6-8.69582E-05-3.01075E-04 3.40027E-25 1.32348E-04 1.45575E-13 3.86060E-13
 -1         7-4.26211E-04-7.02957E-02-1.16088E-27 2.60527E-02-4.81256E-19 4.51369E-16
 -1         8-4.26211E-04-7.02957E-02-1.16088E-27 2.60527E-02-5.30624E-19 4.51372E-16
 -1         9-1.23572E-04-1.02718E-04 3.90507E-25 1.47796E-04 1.76967E-13 4.05060E-13
 -1        10-1.23572E-04-1.02718E-04 3.90320E-25 1.47796E-04 1.76910E-13 4.04967E-13
 -1        11-4.19871E-04-3.79395E-03-6.63394E-28 1.85373E-02-3.26876E-19 1.78241E-16
 -1        12-4.19871E-04-3.79395E-03-6.63389E-28 1.85373E-02-2.34753E-19 1.78236E-16
 -1        13-1.78848E-02 6.41448E-02 2.00959E-27 6.13167E-03 1.28477E-14-3.07021E-14
 -1        14-1.26608E-02 5.73181E-02 3.91056E-27 2.47537E-03 2.75388E-14-3.74697E-14
 -1        15-1.14514E-02 5.02078E-02-1.18481E-27 2.28155E-03-2.90323E-15-4.69684E-15
 -1        16-1.01705E-02 4.50442E-02 2.50048E-27 1.74781E-03-6.62428E-14-2.66229E-14
 -1        17-9.21338E-03 4.06162E-02 5.34999E-26 1.64132E-03-1.16204E-13-1.56246E-13
 -1        18-8.26019E-03 3.61238E-02 3.19074E-25 1.72153E-03-1.03756E-13-3.98125E-13
 -1        19-7.01765E-03 3.12073E-02 6.55976E-25 1.81149E-03-2.95164E-14-5.71945E-13
 -1        20-5.83244E-03 2.61959E-02 7.30625E-25 1.74344E-03 7.08669E-14-6.00686E-13
 -1        21-4.81378E-03 2.17128E-02 3.75455E-25 1.48770E-03 1.76649E-13-4.14720E-13
 -1        22-4.08322E-03 1.80781E-02 6.99675E-26 1.18903E-03 2.03648E-13-1.22386E-13
 -1        23-3.35477E-03 1.51060E-02 4.52540E-26 1.00312E-03 1.38497E-13 1.18983E-13
 -1        24-2.76621E-03 1.24939E-02 8.16600E-26 9.12829E-04 4.66717E-14 2.00960E-13
 -1        25-2.25811E-03 1.02015E-02 6.01677E-26 7.98451E-04-7.43518E-16 1.74594E-13
 -1        26-1.91473E-03 8.30541E-03 2.61609E-26 6.65095E-04 2.11146E-14 1.15140E-13
 -1        27-1.50800E-03 6.65296E-03 2.82704E-26 6.33005E-04 7.53392E-14 9.88588E-14
 -1        28-1.14928E-03 4.92338E-03 1.02743E-25 7.12504E-04 1.40273E-13 1.84871E-13
 -1        29-7.60030E-04 3.05274E-03 1.99013E-25 7.27553E-04 1.67257E-13 2.70823E-13
 -1        30-4.62824E-04 1.40065E-03 3.08648E-25 5.60740E-04 1.72102E-13 3.54506E-13
 -1        31-2.42940E-04 4.14627E-04 3.88119E-25 2.68977E-04 1.67913E-13 4.07578E-13
 -1        32-1.78848E-02 6.41448E-02 2.00959E-27 6.13167E-03 1.28477E-14-3.07021E-14
 -1        33-1.26608E-02 5.73181E-02 3.91052E-27 2.47537E-03 2.75389E-14-3.74697E-14
 -1        34-1.14514E-02 5.02078E-02-1.18478E-27 2.28155E-03-2.90310E-15-4.69586E-15
 -1        35-1.01705E-02 4.50442E-02 2.50075E-27 1.74781E-03-6.62424E-14-2.66208E-14
 -1        36-9.21338E-03 4.06162E-02 5.34982E-26 1.64132E-03-1.16204E-13-1.56243E-13
 -1        37-8.26019E-03 3.61238E-02 3.19055E-25 1.72153E-03-1.03752E-13-3.98116E-13
 -1        38-7.01765E-03 3.12073E-02 6.56014E-25 1.81149E-03-2.95226E-14-5.71962E-13
 -1        39-5.83244E-03 2.61959E-02 7.30625E-25 1.74344E-03 7.08669E-14-6.00686E-13
 -1        40-4.81378E-03 2.17128E-02 3.75455E-25 1.48770E-03 1.76649E-13-4.14719E-13
 -1        41-4.08322E-03 1.80781E-02 6.99675E-26 1.18903E-03 2.03648E-13-1.22386E-13
 -1        42-3.35477E-03 1.51060E-02 4.52580E-26 1.00312E-03 1.38500E-13 1.18989E-13
 -1        43-2.76621E-03 1.24939E-02 8.16507E-26 9.12829E-04 4.66660E-14 2.00949E-13
 -1        44-2.25811E-03 1.02015E-02 6.01595E-26 7.98451E-04-7.50187E-16 1.74582E-13
 -1        45-1.91473E-03 8.30541E-03 2.61677E-26 6.65095E-04 2.11235E-14 1.15152E-13
 -1        46-1.50800E-03 6.65296E-03 2.82747E-26 6.33005E-04 7.53397E-14 9.88659E-14
 -1        47-1.14928E-03 4.92338E-03 1.02727E-25 7.12504E-04 1.40263E-13 1.84850E-13
 -1        48-7.60030E-04 3.05274E-03 1.99078E-25 7.27553E-04 1.67284E-13 2.70860E-13
 -1        49-4.62824E-04 1.40065E-03 3.08695E-25 5.60740E-04 1.72122E-13 3.54522E-13
 -1        50-2.42940E-04 4.14627E-04 3.88010E-25 2.68977E-04 1.67874E-13 4.07523E-13
 -1        51-1.63907E-05-7.61351E-04 3.57790E-25 2.70316E-04 1.44174E-13 3.98527E-13
 -1        52 2.94942E-04-2.09585E-03 2.26026E-25 5.24608E-04 1.02196E-13 3.23239E-13
 -1        53 8.03731E-04-4.08166E-03 1.20242E-25 6.86403E-04 6.03402E-14 2.42426E-13
 -1        54 1.31134E-03-6.25104E-03 4.18172E-26 6.90240E-04 3.70551E-14 1.44648E-13
 -1        55 1.74101E-03-8.21335E-03 2.67263E-26 6.36448E-04 5.34216E-14 1.03345E-13
 -1        56 2.08228E-03-1.00250E-02 3.21623E-26 6.60320E-04 6.07573E-14 1.12536E-13
 -1        57 2.53955E-03-1.20166E-02 4.60969E-26 7.84186E-04 2.91435E-14 1.53486E-13
 -1        58 3.03678E-03-1.43589E-02 8.76608E-26 9.21945E-04-6.56924E-14 2.06999E-13
 -1        59 3.57643E-03-1.69915E-02 6.24966E-26 1.03471E-03-1.73422E-13 1.05983E-13
 -1        60 4.13872E-03-1.99752E-02 1.03551E-25 1.20429E-03-2.26703E-13-1.34921E-13
 -1        61 4.92761E-03-2.36465E-02 3.81050E-25 1.48827E-03-1.71895E-13-4.21074E-13
 -1        62 5.87747E-03-2.82219E-02 7.17489E-25 1.77116E-03-5.75527E-14-6.05157E-13
 -1        63 6.93278E-03-3.33750E-02 7.48467E-25 1.86756E-03 8.89753E-14-6.13939E-13
 -1        64 7.90983E-03-3.84311E-02 4.12575E-25 1.76110E-03 2.09025E-13-4.17962E-13
 -1        65 8.85671E-03-4.30150E-02 1.52620E-25 1.65956E-03 2.23392E-13-1.89965E-13
 -1        66 9.70878E-03-4.75067E-02 3.25118E-26 1.78193E-03 1.44685E-13 4.94585E-15
 -1        67 1.08593E-02-5.27944E-02 3.42037E-27 2.38704E-03 4.75962E-14 1.98337E-14
 -1        68 1.15079E-02-6.05373E-02 1.79974E-27 2.50958E-03 1.67637E-14-3.05877E-14
 -1        69 1.71960E-02-6.78062E-02 6.28623E-27 6.38958E-03 2.14400E-14-5.51359E-14
 -1        70-1.63907E-05-7.61351E-04 3.57644E-25 2.70316E-04 1.44128E-13 3.98455E-13
 -1        71 2.94942E-04-2.09585E-03 2.25942E-25 5.24608E-04 1.02164E-13 3.23190E-13
 -1        72 8.03731E-04-4.08166E-03 1.20240E-25 6.86403E-04 6.03411E-14 2.42425E-13
 -1        73 1.31134E-03-6.25104E-03 4.18658E-26 6.90240E-04 3.70971E-14 1.44724E-13
 -1        74 1.74101E-03-8.21335E-03 2.67100E-26 6.36448E-04 5.34025E-14 1.03321E-13
 -1        75 2.08228E-03-1.00250E-02 3.21626E-26 6.60320E-04 6.07594E-14 1.12536E-13
 -1        76 2.53955E-03-1.20166E-02 4.60996E-26 7.84186E-04 2.91455E-14 1.53490E-13
 -1        77 3.03678E-03-1.43589E-02 8.76367E-26 9.21945E-04-6.57315E-14 2.06952E-13
 -1        78 3.57643E-03-1.69915E-02 6.24983E-26 1.03471E-03-1.73397E-13 1.06003E-13
 -1        79 4.13872E-03-1.99752E-02 1.03554E-25 1.20429E-03-2.26715E-13-1.34916E-13
 -1        80 4.92761E-03-2.36465E-02 3.81054E-25 1.48827E-03-1.71886E-13-4.21082E-13
 -1        81 5.87747E-03-2.82219E-02 7.17479E-25 1.77116E-03-5.75626E-14-6.05152E-13
 -1        82 6.93278E-03-3.33750E-02 7.48471E-25 1.86756E-03 8.89791E-14-6.13941E-13
 -1        83 7.90983E-03-3.84311E-02 4.12553E-25 1.76110E-03 2.09038E-13-4.17938E-13
 -1        84 8.85671E-03-4.30150E-02 1.52633E-25 1.65956E-03 2.23376E-13-1.89993E-13
 -1        85 9.70878E-03-4.75067E-02 3.25127E-26 1.78193E-03 1.44690E-13 4.94775E-15
 -1        86 1.08593E-02-5.27944E-02 3.42010E-27 2.38704E-03 4.75958E-14 1.98339E-14
 -1        87 1.15079E-02-6.05373E-02 1.79974E-27 2.50958E-03 1.67636E-14-3.05877E-14
 -1        88 1.71960E-02-6.78062E-02 6.28624E-27 6.38958E-03 2.14401E-14-5.51359E-14
 -1        89-3.44403E-04-3.18613E-03 3.63973E-27 3.24864E-03 1.38504E-14-4.25425E-14
 -1        90-5.76485E-04-2.41292E-03 2.62267E-27 4.07728E-03 1.73368E-14-3.52895E-14
 -1        91-2.96094E-04-2.12328E-03 1.04801E-27 2.86951E-03 2.23831E-14 1.87400E-14
 -1        92-2.30847E-04-1.89784E-03-7.53021E-27 2.29442E-03 2.98234E-14 1.01866E-14
 -1        93-1.78335E-04-1.70387E-03 3.73195E-26 2.11373E-03 4.05803E-14-1.73787E-13
 -1        94-1.75181E-04-1.53375E-03 3.48565E-25 2.25543E-03 4.05708E-14-4.30091E-13
 -1        95-4.24334E-05-1.39252E-03 7.60758E-25 2.39618E-03 3.22039E-14-6.18417E-13
 -1        96 2.25145E-05-1.26109E-03 7.77211E-25 2.28309E-03 1.66774E-14-6.25818E-13
 -1        97 5.69108E-05-1.13520E-03 3.49966E-25 1.92397E-03-4.78954E-15-4.37170E-13
 -1        98 2.77506E-05-1.05226E-03-1.15540E-26 1.54783E-03-1.55665E-14-1.23730E-13
 -1        99 1.10829E-04-1.02474E-03 1.50493E-26 1.32115E-03-1.52641E-14 1.31986E-13
 -1       100 1.35284E-04-1.00494E-03 9.90343E-26 1.18405E-03-8.61098E-15 2.25485E-13
 -1       101 1.40722E-04-9.53034E-04 5.87396E-26 1.01711E-03 1.40385E-14 1.72782E-13
 -1       102 8.37766E-05-8.82546E-04 2.64987E-26 8.56271E-04 4.22207E-14 1.09464E-13
 -1       103 1.16504E-04-8.05475E-04 2.17007E-26 8.26745E-04 5.70539E-14 8.98405E-14
 -1       104 8.10309E-05-6.91777E-04 5.75884E-26 9.12042E-04 8.30671E-14 1.54770E-13
 -1       105 2.18504E-05-5.26991E-04 1.63959E-25 9.19859E-04 1.19374E-13 2.64810E-13
 -1       106-8.39407E-05-3.39805E-04 2.85517E-25 7.09826E-04 1.54079E-13 3.46867E-13
 -1       107-1.29665E-04-1.74014E-04 3.73225E-25 3.55210E-04 1.67044E-13 3.98787E-13
 -1       108-1.29665E-04-1.74014E-04 3.73403E-25 3.55210E-04 1.67113E-13 3.98870E-13
 -1       109-8.39407E-05-3.39805E-04 2.85484E-25 7.09826E-04 1.54065E-13 3.46849E-13
 -1       110 2.18504E-05-5.26991E-04 1.63955E-25 9.19859E-04 1.19368E-13 2.64806E-13
 -1       111 8.10309E-05-6.91777E-04 5.76173E-26 9.12042E-04 8.30848E-14 1.54804E-13
 -1       112 1.16504E-04-8.05475E-04 2.16995E-26 8.26745E-04 5.70606E-14 8.98397E-14
 -1       113 8.37766E-05-8.82546E-04 2.64973E-26 8.56271E-04 4.22155E-14 1.09462E-13
 -1       114 1.40722E-04-9.53034E-04 5.87391E-26 1.01711E-03 1.40379E-14 1.72781E-13
 -1       115 1.35284E-04-1.00494E-03 9.90550E-26 1.18405E-03-8.59407E-15 2.25513E-13
 -1       116 1.10829E-04-1.02474E-03 1.50389E-26 1.32115E-03-1.52765E-14 1.31965E-13
 -1       117 2.77506E-05-1.05226E-03-1.15533E-26 1.54783E-03-1.55647E-14-1.23730E-13
 -1       118 5.69108E-05-1.13520E-03 3.49958E-25 1.92397E-03-4.78675E-15-4.37165E-13
 -1       119 2.25145E-05-1.26109E-03 7.77215E-25 2.28309E-03 1.66784E-14-6.25820E-13
 -1       120-4.24334E-05-1.39252E-03 7.60749E-25 2.39618E-03 3.22020E-14-6.18414E-13
 -1       121-1.75181E-04-1.53375E-03 3.48571E-25 2.25543E-03 4.05692E-14-4.30095E-13
 -1       122-1.78335E-04-1.70387E-03 3.73206E-26 2.11373E-03 4.05833E-14-1.73788E-13
 -1       123-2.30847E-04-1.89784E-03-7.53091E-27 2.29442E-03 2.98219E-14 1.01825E-14
 -1       124-2.96094E-04-2.12328E-03 1.04792E-27 2.86951E-03 2.23824E-14 1.87381E-14
 -1       125-5.76485E-04-2.41292E-03 2.62275E-27 4.07728E-03 1.73367E-14-3.52895E-14
 -1       126-3.44403E-04-3.18613E-03 3.63972E-27 3.24864E-03 1.38502E-14-4.25425E-14
 -3
    1PSTEP                       372          93           1          
  100CL  193 9.30000E-01         126                     1   93           1
 -4  ERROR       1    1
 -5  STR(%)      1    1    0    0
 -1         1 6.77627E+01
 -1         2 6.77627E+01
 -1         3 3.32195E+01
 -1         4 3.32195E+01
 -1         5 1.30938E+01
 -1         6 1.30938E+01
 -1         7 5.70985E+01
 -1         8 5.70985E+01
 -1         9 3.32195E+01
 -1        10 3.32195E+01
 -1        11 6.77627E+01
 -1        12 6.77627E+01
 -1        13 6.77627E+01
 -1        14 6.66476E+01
 -1        15 6.63461E+01
 -1        16 6.59539E+01
 -1        17 6.59458E+01
 -1        18 6.62492E+01
 -1        19 6.67239E+01
 -1        20 6.71112E+01
 -1        21 6.75673E+01
 -1        22 6.80098E+01
 -1        23 6.91275E+01
 -1        24 7.04697E+01
 -1        25 7.19649E+01
 -1        26 7.30504E+01
 -1        27 7.46769E+01
 -1        28 7.46769E+01
 -1        29 7.39316E+01
 -1        30 6.97352E+01
 -1        31 5.59063E+01
 -1        32 6.77627E+01
 -1        33 6.66476E+01
 -1        34 6.63461E+01
 -1        35 6.59539E+01
 -1        36 6.59458E+01
 -1        37 6.62492E+01
 -1        38 6.67239E+01
 -1        39 6.71112E+01
 -1        40 6.75673E+01
 -1        41 6.80098E+01
 -1        42 6.91275E+01
 -1        43 7.04697E+01
 -1        44 7.19649E+01
 -1        45 7.30504E+01
 -1        46 7.46769E+01
 -1        47 7.46769E+01
 -1        48 7.39316E+01
 -1        49 6.97352E+01
 -1        50 5.59063E+01
 -1        51 2.87822E+01
 -1        52 4.23117E+01
 -1        53 4.99262E+01
 -1        54 5.26470E+01
 -1        55 5.37325E+01
 -1        56 5.43743E+01
 -1        57 5.52372E+01
 -1        58 5.59700E+01
 -1        59 5.66532E+01
 -1        60 5.70790E+01
 -1        61 5.74199E+01
 -1        62 5.75075E+01
 -1        63 5.75075E+01
 -1        64 5.73890E+01
 -1        65 5.70304E+01
 -1        66 5.68197E+01
 -1        67 5.69749E+01
 -1        68 5.69749E+01
 -1        69 5.70985E+01
 -1        70 2.87822E+01
 -1        71 4.23117E+01
 -1        72 4.99262E+01
 -1        73 5.26470E+01
 -1        74 5.37325E+01
 -1        75 5.43743E+01
 -1        76 5.52372E+01
 -1        77 5.59700E+01
 -1        78 5.66532E+01
 -1        79 5.70790E+01
 -1        80 5.74199E+01
 -1        81 5.75075E+01
 -1        82 5.75075E+01
 -1        83 5.73890E+01
 -1        84 5.70304E+01
 -1        85 5.68197E+01
 -1        86 5.69749E+01
 -1        87 5.69749E+01
 -1        88 5.70985E+01
 -1        89 6.77627E+01
 -1        90 6.66476E+01
 -1        91 6.63461E+01
 -1        92 6.59539E+01
 -1        93 6.59458E+01
 -1        94 6.62492E+01
 -1        95 6.67239E+01
 -1        96 6.71112E+01
 -1        97 6.75673E+01
 -1        98 6.80098E+01
 -1        99 6.91275E+01
 -1       100 7.04697E+01
 -1       101 7.19649E+01
 -1       102 7.30504E+01
 -1       103 7.46769E+01
 -1       104 7.46769E+01
 -1       105 7.39316E+01
 -1       106 6.97352E+01
 -1       107 5.59063E+01
 -1       108 5.59063E+01
 -1       109 6.97352E+01
 -1       110 7.39316E+01
 -1       111 7.46769E+01
 -1       112 7.46769E+01
 -1       113 7.30504E+01
 -1       114 7.19649E+01
 -1       115 7.04697E+01
 -1       116 6.91275E+01
 -1       117 6.80098E+01
 -1       118 6.75673E+01
 -1       119 6.71112E+01
 -1       120 6.67239E+01
 -1       121 6.62492E+01
 -1       122 6.59458E+01
 -1       123 6.59539E+01
 -1       124 6.63461E+01
 -1       125 6.66476E+01
 -1       126 6.77627E+01
 -3
    1PSTEP                       373          94           1          
  100CL  194 9.40000E-01         126                     1   94           1
 -4  DISP        4    1
 -5  D1          1    2    1    0
 -5  D2          1    2    2    0
 -5  D3          1    2    3    0
 -5  ALL         1    2    0    0    1ALL
 -1         1 0.00000E+00 0.00000E+00 0.00000E+00
 -1         2 0.00000E+00 0.00000E+00 0.00000E+00
 -1         3 3.73515E-01-5.74574E-02 0.00000E+00
 -1         4 3.73515E-01-5.74574E-02 0.00000E+00
 -1         5 3.60668E-01-1.06468E-01 0.00000E+00
 -1         6 3.60668E-01-1.06468E-01 0.00000E+00
 -1         7 0.00000E+00 0.00000E+00 0.00000E+00
 -1         8 0.00000E+00 0.00000E+00 0.00000E+00
 -1         9 3.67088E-01-8.19636E-02 0.00000E+00
 -1        10 3.67088E-01-8.19636E-02 0.00000E+00
 -1        11 0.00000E+00 0.00000E+00 0.00000E+00
 -1        12 0.00000E+00 0.00000E+00 0.00000E+00
 -1        13 2.78318E-03 3.20453E-03 0.00000E+00
 -1        14 8.51115E-03 5.99031E-03 0.00000E+00
 -1        15 1.74292E-02 7.95516E-03 0.00000E+00
 -1        16 2.90372E-02 9.08542E-03 0.00000E+00
 -1        17 4.30056E-02 9.33065E-03 0.00000E+00
 -1        18 5.89960E-02 8.67836E-03 0.00000E+00
 -1        19 7.66623E-02 7.16130E-03 0.00000E+00
 -1        20 9.57102E-02 4.84449E-03 0.00000E+00
 -1        21 1.15879E-01 1.81835E-03 0.00000E+00
 -1        22 1.36962E-01-1.82413E-03 0.00000E+00
 -1        23 1.58781E-01-5.98799E-03 0.00000E+00
 -1        24 1.81213E-01-1.05945E-02 0.00000E+00
 -1        25 2.04157E-01-1.55685E-02 0.00000E+00
 -1        26 2.27552E-01-2.08553E-02 0.00000E+00
 -1        27 2.51348E-01-2.64223E-02 0.00000E+00
 -1        28 2.75499E-01-3.22646E-02 0.00000E+00
 -1        29 2.99903E-01-3.83589E-02 0.00000E+00
 -1        30 3.24438E-01-4.46469E-02 0.00000E+00
 -1        31 3.48990E-01-5.10395E-02 0.00000E+00
 -1        32 2.78318E-03 3.20453E-03 0.00000E+00
 -1        33 8.51115E-03 5.99031E-03 0.00000E+00
 -1        34 1.74292E-02 7.95516E-03 0.00000E+00
 -1        35 2.90372E-02 9.08542E-03 0.00000E+00
 -1        36 4.30056E-02 9.33065E-03 0.00000E+00
 -1        37 5.89960E-02 8.67836E-03 0.00000E+00
 -1        38 7.66623E-02 7.16130E-03 0.00000E+00
 -1        39 9.57102E-02 4.84449E-03 0.00000E+00
 -1        40 1.15879E-01 1.81835E-03 0.00000E+00
 -1        41 1.36962E-01-1.82413E-03 0.00000E+00
 -1        42 1.58781E-01-5.98799E-03 0.00000E+00
 -1        43 1.81213E-01-1.05945E-02 0.00000E+00
 -1        44 2.04157E-01-1.55685E-02 0.00000E+00
 -1        45 2.27552E-01-2.08553E-02 0.00000E+00
 -1        46 2.51348E-01-2.64223E-02 0.00000E+00
 -1        47 2.75499E-01-3.22646E-02 0.00000E+00
 -1        48 2.99903E-01-3.83589E-02 0.00000E+00
 -1        49 3.24438E-01-4.46469E-02 0.00000E+00
 -1        50 3.48990E-01-5.10395E-02 0.00000E+00
 -1        51 3.36157E-01-1.00026E-01 0.00000E+00
 -1        52 3.11669E-01-9.35304E-02 0.00000E+00
 -1        53 2.87294E-01-8.69815E-02 0.00000E+00
 -1        54 2.63154E-01-8.04211E-02 0.00000E+00
 -1        55 2.39365E-01-7.39241E-02 0.00000E+00
 -1        56 2.15993E-01-6.75560E-02 0.00000E+00
 -1        57 1.93083E-01-6.13540E-02 0.00000E+00
 -1        58 1.70676E-01-5.53243E-02 0.00000E+00
 -1        59 1.48855E-01-4.94725E-02 0.00000E+00
 -1        60 1.27736E-01-4.38107E-02 0.00000E+00
 -1        61 1.07470E-01-3.83616E-02 0.00000E+00
 -1        62 8.82269E-02-3.31452E-02 0.00000E+00
 -1        63 7.02149E-02-2.81840E-02 0.00000E+00
 -1        64 5.36722E-02-2.34965E-02 0.00000E+00
 -1        65 3.88714E-02-1.90998E-02 0.00000E+00
 -1        66 2.60806E-02-1.49934E-02 0.00000E+00
 -1        67 1.55682E-02-1.11427E-02 0.00000E+00
 -1        68 7.55967E-03-7.45490E-03 0.00000E+00
 -1        69 2.52562E-03-3.71532E-03 0.00000E+00
 -1        70 3.36157E-01-1.00026E-01 0.00000E+00
 -1        71 3.11669E-01-9.35304E-02 0.00000E+00
 -1        72 2.87294E-01-8.69815E-02 0.00000E+00
 -1        73 2.63154E-01-8.04211E-02 0.00000E+00
 -1        74 2.39365E-01-7.39241E-02 0.00000E+00
 -1        75 2.15993E-01-6.75560E-02 0.00000E+00
 -1        76 1.93083E-01-6.13540E-02 0.00000E+00
 -1        77 1.70676E-01-5.53243E-02 0.00000E+00
 -1        78 1.48855E-01-4.94725E-02 0.00000E+00
 -1        79 1.27736E-01-4.38107E-02 0.00000E+00
 -1        80 1.07470E-01-3.83616E-02 0.00000E+00
 -1        81 8.82269E-02-3.31452E-02 0.00000E+00
 -1        82 7.02149E-02-2.81840E-02 0.00000E+00
 -1        83 5.36722E-02-2.34965E-02 0.00000E+00
 -1        84 3.88714E-02-1.90998E-02 0.00000E+00
 -1        85 2.60806E-02-1.49934E-02 0.00000E+00
 -1        86 1.55682E-02-1.11427E-02 0.00000E+00
 -1        87 7.55967E-03-7.45490E-03 0.00000E+00
 -1        88 2.52562E-03-3.71532E-03 0.00000E+00
 -1        89 1.76533E-03-1.99531E-04 0.00000E+00
 -1        90 7.41101E-03-6.33686E-04 0.00000E+00
 -1        91 1.59251E-02-1.46914E-03 0.00000E+00
 -1        92 2.70603E-02-2.82017E-03 0.00000E+00
 -1        93 4.05049E-02-4.74759E-03 0.00000E+00
 -1        94 5.59639E-02-7.27524E-03 0.00000E+00
 -1        95 7.31291E-02-1.03871E-02 0.00000E+00
 -1        96 9.17110E-02-1.40396E-02 0.00000E+00
 -1        97 1.11461E-01-1.81750E-02 0.00000E+00
 -1        98 1.32172E-01-2.27329E-02 0.00000E+00
 -1        99 1.53672E-01-2.76573E-02 0.00000E+00
 -1       100 1.75821E-01-3.28970E-02 0.00000E+00
 -1       101 1.98513E-01-3.84068E-02 0.00000E+00
 -1       102 2.21679E-01-4.41563E-02 0.00000E+00
 -1       103 2.45277E-01-5.01302E-02 0.00000E+00
 -1       104 2.69264E-01-5.63097E-02 0.00000E+00
 -1       105 2.93557E-01-6.26495E-02 0.00000E+00
 -1       106 3.18032E-01-6.90793E-02 0.00000E+00
 -1       107 3.42567E-01-7.55302E-02 0.00000E+00
 -1       108 3.42567E-01-7.55302E-02 0.00000E+00
 -1       109 3.18032E-01-6.90793E-02 0.00000E+00
 -1       110 2.93557E-01-6.26495E-02 0.00000E+00
 -1       111 2.69264E-01-5.63097E-02 0.00000E+00
 -1       112 2.45277E-01-5.01302E-02 0.00000E+00
 -1       113 2.21679E-01-4.41563E-02 0.00000E+00
 -1       114 1.98513E-01-3.84068E-02 0.00000E+00
 -1       115 1.75821E-01-3.28970E-02 0.00000E+00
 -1       116 1.53672E-01-2.76573E-02 0.00000E+00
 -1       117 1.32172E-01-2.27329E-02 0.00000E+00
 -1       118 1.11461E-01-1.81750E-02 0.00000E+00
 -1       119 9.17110E-02-1.40396E-02 0.00000E+00
 -1       120 7.31291E-02-1.03871E-02 0.00000E+00
 -1       121 5.59639E-02-7.27524E-03 0.00000E+00
 -1       122 4.05049E-02-4.74759E-03 0.00000E+00
 -1       123 2.70603E-02-2.82017E-03 0.00000E+00
 -1       124 1.59251E-02-1.46914E-03 0.00000E+00
 -1       125 7.41101E-03-6.33686E-04 0.00000E+00
 -1       126 1.76533E-03-1.99531E-04 0.00000E+00
 -3
    1PSTEP                       374          94           1          
  100CL  194 9.40000E-01         126                     1   94           1
 -4  STRESS      6    1
 -5  SXX         1    4    1    1
 -5  SYY         1    4    2    2
 -5  SZZ         1    4    3    3
 -5  SXY         1    4    1    2
 -5  SYZ         1    4    2    3
 -5  SZX         1    4    3    1
 -1         1 1.54790E+04 3.77556E+04 1.46731E+04 1.03292E+04-7.08980E-11-1.20727E-10
 -1         2 1.54790E+04 3.77556E+04 1.46731E+04 1.03292E+04-7.08980E-11-1.20727E-10
 -1         3 9.26557E+00-7.90977E-01 2.53348E+00 6.33509E+01-5.03900E-08 2.86535E-07
 -1         4 9.26557E+00-7.90976E-01 2.53348E+00 6.33509E+01-5.03902E-08 2.86515E-07
 -1         5-1.09948E+02-2.46037E+02-1.06858E+02-1.52471E+01-1.96690E-07 2.09182E-07
 -1         6-1.09948E+02-2.46037E+02-1.06858E+02-1.52471E+01-1.96690E-07 2.09242E-07
 -1         7-1.69486E+04-3.59658E+04-1.75058E+04 6.04396E+03-3.17237E-10 4.49476E-10
 -1         8-1.69486E+04-3.59658E+04-1.75058E+04 6.04396E+03-3.17237E-10 4.49476E-10
 -1         9-4.34988E+01-1.45752E+02-5.67974E+01 2.92525E+01-1.29454E-07 2.45788E-07
 -1        10-4.34988E+01-1.45752E+02-5.67974E+01 2.92525E+01-1.29454E-07 2.45815E-07
 -1        11-5.84166E+02-2.78825E+03-7.76927E+02 5.33046E+03-1.31432E-10 7.41749E-11
 -1        12-5.84166E+02-2.78825E+03-7.76927E+02 5.33046E+03-1.31432E-10 7.41749E-11
 -1        13 5.74122E+03 3.24933E+04 1.05907E+04 3.86025E+03-7.50119E-09-6.72197E-09
 -1        14 7.26356E+03 2.99247E+04 1.03668E+04 3.94262E+03-2.86593E-09-3.45102E-08
 -1        15 6.72695E+03 2.56907E+04 9.11238E+03 4.71957E+03 6.40124E-09-6.48584E-08
 -1        16 6.49364E+03 2.22298E+04 8.13135E+03 4.97997E+03 1.42646E-08-8.30390E-08
 -1        17 6.14681E+03 1.89339E+04 7.14913E+03 4.99542E+03 2.39361E-08-1.00632E-07
 -1        18 5.66340E+03 1.58383E+04 6.17161E+03 4.74717E+03 4.03111E-08-1.20226E-07
 -1        19 5.15171E+03 1.30702E+04 5.26572E+03 4.29564E+03 6.90412E-08-1.41659E-07
 -1        20 4.54648E+03 1.06525E+04 4.41948E+03 3.76900E+03 8.99620E-08-1.31049E-07
 -1        21 3.93251E+03 8.63043E+03 3.67268E+03 3.23356E+03 8.93351E-08-8.72103E-08
 -1        22 3.31806E+03 6.97101E+03 3.02179E+03 2.73732E+03 6.77400E-08-3.60162E-08
 -1        23 2.84111E+03 5.69576E+03 2.51683E+03 2.28513E+03 3.71606E-08 7.24408E-09
 -1        24 2.41844E+03 4.70850E+03 2.10753E+03 1.92569E+03 5.21518E-10 3.33083E-08
 -1        25 2.08437E+03 3.98703E+03 1.79922E+03 1.65633E+03-1.85270E-08 1.85717E-08
 -1        26 1.79751E+03 3.40157E+03 1.54305E+03 1.46394E+03-1.34973E-08-2.01611E-09
 -1        27 1.59547E+03 2.82040E+03 1.31250E+03 1.26963E+03 7.93327E-09-3.24375E-09
 -1        28 1.30361E+03 2.05796E+03 1.00105E+03 1.03071E+03 2.14960E-08 3.62970E-08
 -1        29 9.06116E+02 1.20478E+03 6.30051E+02 7.16816E+02 2.67904E-08 8.06821E-08
 -1        30 4.53510E+02 4.68503E+02 2.75781E+02 3.97091E+02 1.41992E-08 1.42228E-07
 -1        31 1.29707E+02 8.18183E+01 6.33558E+01 1.56004E+02-1.34263E-08 2.16735E-07
 -1        32 5.74122E+03 3.24933E+04 1.05907E+04 3.86025E+03-7.50119E-09-6.72197E-09
 -1        33 7.26356E+03 2.99247E+04 1.03668E+04 3.94262E+03-2.86593E-09-3.45101E-08
 -1        34 6.72695E+03 2.56907E+04 9.11238E+03 4.71957E+03 6.40127E-09-6.48589E-08
 -1        35 6.49364E+03 2.22298E+04 8.13135E+03 4.97997E+03 1.42648E-08-8.30382E-08
 -1        36 6.14681E+03 1.89339E+04 7.14913E+03 4.99542E+03 2.39359E-08-1.00632E-07
 -1        37 5.66340E+03 1.58383E+04 6.17161E+03 4.74717E+03 4.03112E-08-1.20228E-07
 -1        38 5.15171E+03 1.30702E+04 5.26572E+03 4.29564E+03 6.90411E-08-1.41660E-07
 -1        39 4.54648E+03 1.06525E+04 4.41948E+03 3.76900E+03 8.99620E-08-1.31049E-07
 -1        40 3.93251E+03 8.63043E+03 3.67268E+03 3.23356E+03 8.93351E-08-8.72103E-08
 -1        41 3.31806E+03 6.97101E+03 3.02179E+03 2.73732E+03 6.77400E-08-3.60162E-08
 -1        42 2.84111E+03 5.69576E+03 2.51683E+03 2.28513E+03 3.71606E-08 7.24969E-09
 -1        43 2.41844E+03 4.70850E+03 2.10753E+03 1.92569E+03 5.21273E-10 3.33043E-08
 -1        44 2.08437E+03 3.98703E+03 1.79922E+03 1.65633E+03-1.85252E-08 1.85670E-08
 -1        45 1.79751E+03 3.40157E+03 1.54305E+03 1.46394E+03-1.34978E-08-2.01173E-09
 -1        46 1.59547E+03 2.82040E+03 1.31250E+03 1.26963E+03 7.93302E-09-3.24375E-09
 -1        47 1.30361E+03 2.05796E+03 1.00105E+03 1.03071E+03 2.14969E-08 3.62970E-08
 -1        48 9.06116E+02 1.20478E+03 6.30051E+02 7.16816E+02 2.67882E-08 8.06751E-08
 -1        49 4.53510E+02 4.68503E+02 2.75781E+02 3.97091E+02 1.41998E-08 1.42230E-07
 -1        50 1.29707E+02 8.18183E+01 6.33558E+01 1.56004E+02-1.34304E-08 2.16721E-07
 -1        51-1.93162E+02-5.21548E+02-2.14789E+02-7.78541E+01-1.57685E-07 1.32942E-07
 -1        52-4.28319E+02-1.21815E+03-4.95945E+02-2.88949E+02-1.17526E-07 7.08799E-08
 -1        53-8.04326E+02-2.13320E+03-8.87533E+02-6.29040E+02-6.94550E-08 1.94786E-08
 -1        54-1.26265E+03-3.06018E+03-1.31006E+03-1.00258E+03-3.11456E-08-8.02322E-09
 -1        55-1.66999E+03-3.82525E+03-1.66941E+03-1.31594E+03-5.52367E-09-9.92473E-09
 -1        56-1.98895E+03-4.45524E+03-1.96131E+03-1.53495E+03 3.39949E-09 8.30504E-09
 -1        57-2.20708E+03-5.07679E+03-2.22098E+03-1.71574E+03-1.15320E-08 3.42964E-08
 -1        58-2.46362E+03-5.88729E+03-2.55247E+03-1.90634E+03-2.59391E-08 2.02032E-08
 -1        59-2.80424E+03-6.95688E+03-2.99293E+03-2.14621E+03-2.73494E-08-2.07060E-08
 -1        60-3.25326E+03-8.31555E+03-3.56130E+03-2.43144E+03-1.30888E-08-7.22027E-08
 -1        61-3.73854E+03-9.94681E+03-4.23330E+03-2.75485E+03 1.38980E-08-1.16830E-07
 -1        62-4.30478E+03-1.19076E+04-5.04385E+03-3.07516E+03 5.07316E-08-1.43368E-07
 -1        63-4.92512E+03-1.41909E+04-5.98653E+03-3.36280E+03 7.33746E-08-1.34803E-07
 -1        64-5.58685E+03-1.67560E+04-7.04872E+03-3.56562E+03 7.51596E-08-1.16765E-07
 -1        65-6.18467E+03-1.94740E+04-8.15811E+03-3.62045E+03 6.29733E-08-9.47338E-08
 -1        66-6.77634E+03-2.23195E+04-9.32507E+03-3.44027E+03 5.15439E-08-7.82495E-08
 -1        67-7.26379E+03-2.52830E+04-1.05183E+04-2.92755E+03 4.45253E-08-5.53312E-08
 -1        68-8.54276E+03-2.90153E+04-1.22642E+04-2.22192E+03 3.66863E-08-4.02810E-08
 -1        69-6.70550E+03-3.09260E+04-1.24056E+04-1.49671E+02 2.08070E-08-1.92804E-08
 -1        70-1.93162E+02-5.21548E+02-2.14789E+02-7.78541E+01-1.57685E-07 1.32933E-07
 -1        71-4.28319E+02-1.21815E+03-4.95945E+02-2.88949E+02-1.17533E-07 7.08779E-08
 -1        72-8.04326E+02-2.13320E+03-8.87533E+02-6.29040E+02-6.94530E-08 1.94787E-08
 -1        73-1.26265E+03-3.06018E+03-1.31006E+03-1.00258E+03-3.11430E-08-8.02605E-09
 -1        74-1.66999E+03-3.82525E+03-1.66941E+03-1.31594E+03-5.52992E-09-9.92049E-09
 -1        75-1.98895E+03-4.45524E+03-1.96131E+03-1.53495E+03 3.39935E-09 8.30819E-09
 -1        76-2.20708E+03-5.07679E+03-2.22098E+03-1.71574E+03-1.15319E-08 3.42915E-08
 -1        77-2.46362E+03-5.88729E+03-2.55247E+03-1.90634E+03-2.59357E-08 2.02030E-08
 -1        78-2.80424E+03-6.95688E+03-2.99293E+03-2.14621E+03-2.73504E-08-2.06922E-08
 -1        79-3.25326E+03-8.31555E+03-3.56130E+03-2.43144E+03-1.30855E-08-7.22009E-08
 -1        80-3.73854E+03-9.94681E+03-4.23330E+03-2.75485E+03 1.38968E-08-1.16837E-07
 -1        81-4.30478E+03-1.19076E+04-5.04385E+03-3.07516E+03 5.07314E-08-1.43367E-07
 -1        82-4.92512E+03-1.41909E+04-5.98653E+03-3.36280E+03 7.33740E-08-1.34805E-07
 -1        83-5.58685E+03-1.67560E+04-7.04872E+03-3.56562E+03 7.51600E-08-1.16764E-07
 -1        84-6.18467E+03-1.94740E+04-8.15811E+03-3.62045E+03 6.29734E-08-9.47346E-08
 -1        85-6.77634E+03-2.23195E+04-9.32507E+03-3.44027E+03 5.15428E-08-7.82468E-08
 -1        86-7.26379E+03-2.52830E+04-1.05183E+04-2.92755E+03 4.45255E-08-5.53317E-08
 -1        87-8.54276E+03-2.90153E+04-1.22642E+04-2.22192E+03 3.66863E-08-4.02810E-08
 -1        88-6.70550E+03-3.09260E+04-1.24056E+04-1.49671E+02 2.08070E-08-1.92804E-08
 -1        89-7.34617E+01-2.62053E+03-7.29540E+02 6.22753E+02 7.59377E-09-1.08868E-08
 -1        90-1.54810E+02-2.33570E+03-6.20097E+02 8.86100E+02 2.07645E-08-3.70725E-08
 -1        91-2.02293E+00-2.01290E+03-5.16313E+02 5.88981E+02 2.87177E-08-5.98157E-08
 -1        92 6.30150E+01-1.79617E+03-4.50421E+02 4.84104E+02 3.45705E-08-7.91976E-08
 -1        93 1.37984E+02-1.60853E+03-3.88524E+02 4.27125E+02 4.50263E-08-9.71420E-08
 -1        94 1.68555E+02-1.46757E+03-3.50420E+02 3.88914E+02 6.05265E-08-1.19573E-07
 -1        95 2.17590E+02-1.31616E+03-3.00859E+02 3.20317E+02 7.18643E-08-1.42247E-07
 -1        96 2.03217E+02-1.18632E+03-2.74571E+02 2.44673E+02 7.08104E-08-1.43090E-07
 -1        97 1.69291E+02-1.05819E+03-2.52482E+02 1.73362E+02 5.30109E-08-1.05783E-07
 -1        98 9.85360E+01-9.57940E+02-2.48041E+02 1.14302E+02 2.77042E-08-5.26314E-08
 -1        99 7.02572E+01-8.45354E+02-2.25657E+02 4.51913E+01 3.00524E-09-3.08868E-09
 -1       100 1.19024E+01-7.52029E+02-2.17120E+02-1.02340E+01-1.41301E-08 3.09111E-08
 -1       101-3.40156E+01-6.60563E+02-2.04800E+02-4.55315E+01-1.66219E-08 2.77764E-08
 -1       102-6.53819E+01-6.15022E+02-2.01671E+02-4.32593E+01-6.02569E-09 1.07541E-09
 -1       103 2.34973E-01-5.89740E+02-1.75379E+02-1.89049E+01 2.20275E-09-1.07241E-08
 -1       104 6.86858E+01-5.91176E+02-1.56083E+02 3.27522E+01-4.16998E-09 7.59224E-09
 -1       105 1.08175E+02-5.41740E+02-1.29897E+02 7.38565E+01-1.82260E-08 4.51251E-08
 -1       106 6.52489E+01-4.25431E+02-1.08091E+02 8.39886E+01-5.02061E-08 1.05513E-07
 -1       107-5.06115E+00-2.48474E+02-7.61111E+01 5.50796E+01-8.86887E-08 1.71893E-07
 -1       108-5.06115E+00-2.48474E+02-7.61111E+01 5.50796E+01-8.86856E-08 1.71868E-07
 -1       109 6.52489E+01-4.25431E+02-1.08091E+02 8.39886E+01-5.02064E-08 1.05516E-07
 -1       110 1.08175E+02-5.41740E+02-1.29897E+02 7.38565E+01-1.82261E-08 4.51258E-08
 -1       111 6.86858E+01-5.91176E+02-1.56083E+02 3.27522E+01-4.17351E-09 7.59750E-09
 -1       112 2.34973E-01-5.89740E+02-1.75379E+02-1.89049E+01 2.20310E-09-1.07320E-08
 -1       113-6.53819E+01-6.15022E+02-2.01671E+02-4.32593E+01-6.02537E-09 1.06894E-09
 -1       114-3.40156E+01-6.60563E+02-2.04800E+02-4.55315E+01-1.66222E-08 2.77851E-08
 -1       115 1.19024E+01-7.52029E+02-2.17120E+02-1.02340E+01-1.41301E-08 3.09186E-08
 -1       116 7.02572E+01-8.45354E+02-2.25657E+02 4.51913E+01 3.00530E-09-3.10101E-09
 -1       117 9.85360E+01-9.57940E+02-2.48041E+02 1.14302E+02 2.77037E-08-5.26317E-08
 -1       118 1.69291E+02-1.05819E+03-2.52482E+02 1.73362E+02 5.30116E-08-1.05782E-07
 -1       119 2.03217E+02-1.18632E+03-2.74571E+02 2.44673E+02 7.08103E-08-1.43090E-07
 -1       120 2.17590E+02-1.31616E+03-3.00859E+02 3.20317E+02 7.18640E-08-1.42245E-07
 -1       121 1.68555E+02-1.46757E+03-3.50420E+02 3.88914E+02 6.05265E-08-1.19573E-07
 -1       122 1.37984E+02-1.60853E+03-3.88524E+02 4.27125E+02 4.50267E-08-9.71425E-08
 -1       123 6.30150E+01-1.79617E+03-4.50421E+02 4.84104E+02 3.45702E-08-7.91996E-08
 -1       124-2.02293E+00-2.01290E+03-5.16313E+02 5.88981E+02 2.87175E-08-5.98147E-08
 -1       125-1.54810E+02-2.33570E+03-6.20097E+02 8.86100E+02 2.07645E-08-3.70727E-08
 -1       126-7.34617E+01-2.62053E+03-7.29540E+02 6.22753E+02 7.59377E-09-1.08868E-08
 -3
    1PSTEP                       375          94           1          
  100CL  194 9.40000E-01         126                     1   94           1
 -4  TOSTRAIN    6    1
 -5  EXX         1    4    1    1
 -5  EYY         1    4    2    2
 -5  EZZ         1    4    3    3
 -5  EXY         1    4    1    2
 -5  EYZ         1    4    2    3
 -5  EZX         1    4    3    1
 -1         1-4.20471E-04 6.72714E-02-1.76680E-28 2.78314E-02-2.07518E-19-3.14456E-16
 -1         2-4.20471E-04 6.72714E-02-1.76680E-28 2.78314E-02-2.07518E-19-3.14456E-16
 -1         3-1.62019E-04 1.72981E-04 1.73865E-24 1.20844E-04 3.13707E-13 8.92019E-13
 -1         4-1.62019E-04 1.72981E-04 1.73846E-24 1.20844E-04 3.13675E-13 8.91964E-13
 -1         5-7.40747E-05-3.88777E-04 1.69715E-24 1.63463E-04-2.24132E-13 9.06240E-13
 -1         6-7.40747E-05-3.88777E-04 1.69765E-24 1.63463E-04-2.24036E-13 9.06410E-13
 -1         7-4.31577E-04-7.06996E-02-3.24520E-27 2.52559E-02-4.91278E-19 1.10335E-15
 -1         8-4.31577E-04-7.06996E-02-3.24520E-27 2.52559E-02-4.91278E-19 1.10335E-15
 -1         9-1.18047E-04-1.28027E-04 1.58203E-24 1.91485E-04 2.48397E-14 9.02701E-13
 -1        10-1.18047E-04-1.28027E-04 1.58230E-24 1.91485E-04 2.48822E-14 9.02777E-13
 -1        11-4.26024E-04-3.78529E-03-4.51879E-28 1.76531E-02-3.75588E-19 2.66530E-16
 -1        12-4.26024E-04-3.78529E-03-4.51879E-28 1.76531E-02-3.75588E-19 2.66530E-16
 -1        13-1.82149E-02 6.53768E-02-3.98626E-28 5.60945E-03-2.39982E-14-1.95599E-14
 -1        14-1.32910E-02 5.95949E-02 1.99991E-26 2.23191E-03-2.27154E-14-1.08147E-13
 -1        15-1.21045E-02 5.26519E-02 8.54846E-26 2.38323E-03-1.87939E-14-2.08388E-13
 -1        16-1.05971E-02 4.66843E-02 1.47100E-25 2.13241E-03-1.91165E-14-2.70253E-13
 -1        17-9.27013E-03 4.09113E-02 2.22810E-25 2.09278E-03-1.76893E-14-3.32687E-13
 -1        18-8.00920E-03 3.52476E-02 3.35850E-25 2.00318E-03-1.66034E-15-4.09108E-13
 -1        19-6.65874E-03 2.98395E-02 5.23160E-25 1.84262E-03 4.55441E-14-5.07070E-13
 -1        20-5.52008E-03 2.49268E-02 5.28316E-25 1.64935E-03 1.05308E-13-5.02856E-13
 -1        21-4.55381E-03 2.06449E-02 3.13115E-25 1.43316E-03 1.48006E-13-3.75073E-13
 -1        22-3.81182E-03 1.70243E-02 1.05350E-25 1.19098E-03 1.47356E-13-1.98374E-13
 -1        23-3.06861E-03 1.40564E-02 1.61504E-26 9.56308E-04 1.16796E-13-3.14512E-14
 -1        24-2.54997E-03 1.17390E-02 1.82125E-26 7.57612E-04 4.91455E-14 9.57683E-14
 -1        25-2.19119E-03 1.00283E-02 1.25931E-26 5.96273E-04-2.55316E-14 8.10815E-14
 -1        26-1.99124E-03 8.70700E-03 2.10127E-27 5.19722E-04-4.13328E-14 1.47105E-14
 -1        27-1.65323E-03 7.36203E-03-2.26015E-27 5.91098E-04 1.75344E-14-2.15060E-14
 -1        28-1.29018E-03 5.64070E-03 2.55830E-26 7.52782E-04 1.17204E-13 6.95334E-14
 -1        29-8.60111E-04 3.59569E-03 1.29387E-25 8.09402E-04 2.02674E-13 1.86385E-13
 -1        30-5.13839E-04 1.71008E-03 3.92672E-25 6.49999E-04 2.65688E-13 3.80296E-13
 -1        31-2.55339E-04 5.29950E-04 9.46325E-25 3.29423E-04 3.06887E-13 6.35311E-13
 -1        32-1.82149E-02 6.53768E-02-3.98626E-28 5.60945E-03-2.39982E-14-1.95599E-14
 -1        33-1.32910E-02 5.95949E-02 1.99988E-26 2.23191E-03-2.27153E-14-1.08147E-13
 -1        34-1.21045E-02 5.26519E-02 8.54858E-26 2.38323E-03-1.87941E-14-2.08390E-13
 -1        35-1.05971E-02 4.66843E-02 1.47097E-25 2.13241E-03-1.91153E-14-2.70250E-13
 -1        36-9.27013E-03 4.09113E-02 2.22810E-25 2.09278E-03-1.76898E-14-3.32687E-13
 -1        37-8.00920E-03 3.52476E-02 3.35862E-25 2.00318E-03-1.66228E-15-4.09115E-13
 -1        38-6.65874E-03 2.98395E-02 5.23169E-25 1.84262E-03 4.55423E-14-5.07075E-13
 -1        39-5.52008E-03 2.49268E-02 5.28315E-25 1.64935E-03 1.05308E-13-5.02855E-13
 -1        40-4.55381E-03 2.06449E-02 3.13115E-25 1.43316E-03 1.48006E-13-3.75073E-13
 -1        41-3.81182E-03 1.70243E-02 1.05350E-25 1.19098E-03 1.47356E-13-1.98374E-13
 -1        42-3.06861E-03 1.40564E-02 1.61526E-26 9.56308E-04 1.16804E-13-3.14349E-14
 -1        43-2.54997E-03 1.17390E-02 1.82097E-26 7.57612E-04 4.91391E-14 9.57569E-14
 -1        44-2.19119E-03 1.00283E-02 1.25890E-26 5.96273E-04-2.55334E-14 8.10655E-14
 -1        45-1.99124E-03 8.70700E-03 2.10271E-27 5.19722E-04-4.13275E-14 1.47238E-14
 -1        46-1.65323E-03 7.36203E-03-2.26017E-27 5.91098E-04 1.75337E-14-2.15056E-14
 -1        47-1.29018E-03 5.64070E-03 2.55831E-26 7.52782E-04 1.17206E-13 6.95319E-14
 -1        48-8.60111E-04 3.59569E-03 1.29361E-25 8.09402E-04 2.02656E-13 1.86368E-13
 -1        49-5.13839E-04 1.71008E-03 3.92693E-25 6.49999E-04 2.65694E-13 3.80301E-13
 -1        50-2.55339E-04 5.29950E-04 9.46217E-25 3.29423E-04 3.06852E-13 6.35276E-13
 -1        51 2.99052E-05-9.59607E-04 8.55821E-25 3.25511E-04-2.35425E-13 6.28145E-13
 -1        52 4.05585E-04-2.54996E-03 3.61380E-25 6.08782E-04-2.21362E-13 3.88189E-13
 -1        53 9.80500E-04-4.81332E-03 8.72886E-26 7.65603E-04-1.67535E-13 1.65458E-13
 -1        54 1.53604E-03-7.18645E-03 1.42792E-26 7.29473E-04-1.02228E-13 2.60629E-14
 -1        55 1.97268E-03-9.16517E-03 9.30100E-28 5.92747E-04-3.14760E-14-1.98611E-14
 -1        56 2.25698E-03-1.06990E-02-9.74807E-28 5.09647E-04 2.27377E-14 1.87193E-14
 -1        57 2.59959E-03-1.21511E-02 2.52107E-26 5.73662E-04 1.80026E-14 1.16461E-13
 -1        58 2.97970E-03-1.39444E-02 1.86976E-26 7.59284E-04-4.69647E-14 9.67305E-14
 -1        59 3.46732E-03-1.63052E-02 1.41236E-26 9.85135E-04-1.11830E-13-2.17917E-14
 -1        60 4.04102E-03-1.92875E-02 9.88794E-26 1.20911E-03-1.40831E-13-1.95400E-13
 -1        61 4.82180E-03-2.29047E-02 2.78453E-25 1.44007E-03-1.14725E-13-3.66888E-13
 -1        62 5.69236E-03-2.71789E-02 4.80129E-25 1.68353E-03-2.52840E-14-4.95692E-13
 -1        63 6.67885E-03-3.21001E-02 4.96217E-25 1.90605E-03 7.16289E-14-4.96843E-13
 -1        64 7.72802E-03-3.75517E-02 4.09348E-25 2.05698E-03 1.15488E-13-4.40811E-13
 -1        65 8.90813E-03-4.32957E-02 2.75647E-25 2.13272E-03 1.15942E-13-3.56018E-13
 -1        66 1.00377E-02-4.91854E-02 1.88010E-25 2.18663E-03 1.09214E-13-2.89569E-13
 -1        67 1.13519E-02-5.53268E-02 1.11257E-25 2.49988E-03 1.17214E-13-2.06249E-13
 -1        68 1.19549E-02-6.28946E-02 6.75106E-26 2.26100E-03 1.10979E-13-1.47544E-13
 -1        69 1.73890E-02-6.90005E-02 1.65917E-26 5.83599E-03 7.05062E-14-6.81579E-14
 -1        70 2.99052E-05-9.59607E-04 8.55742E-25 3.25511E-04-2.35439E-13 6.28119E-13
 -1        71 4.05585E-04-2.54996E-03 3.61396E-25 6.08782E-04-2.21386E-13 3.88195E-13
 -1        72 9.80500E-04-4.81332E-03 8.72811E-26 7.65603E-04-1.67530E-13 1.65455E-13
 -1        73 1.53604E-03-7.18645E-03 1.42781E-26 7.29473E-04-1.02225E-13 2.60507E-14
 -1        74 1.97268E-03-9.16517E-03 9.31500E-28 5.92747E-04-3.14875E-14-1.98392E-14
 -1        75 2.25698E-03-1.06990E-02-9.72816E-28 5.09647E-04 2.27421E-14 1.87285E-14
 -1        76 2.59959E-03-1.21511E-02 2.52062E-26 5.73662E-04 1.79953E-14 1.16447E-13
 -1        77 2.97970E-03-1.39444E-02 1.86992E-26 7.59284E-04-4.69550E-14 9.67247E-14
 -1        78 3.46732E-03-1.63052E-02 1.41192E-26 9.85135E-04-1.11813E-13-2.17499E-14
 -1        79 4.04102E-03-1.92875E-02 9.88712E-26 1.20911E-03-1.40819E-13-1.95400E-13
 -1        80 4.82180E-03-2.29047E-02 2.78483E-25 1.44007E-03-1.14738E-13-3.66907E-13
 -1        81 5.69236E-03-2.71789E-02 4.80126E-25 1.68353E-03-2.52840E-14-4.95690E-13
 -1        82 6.67885E-03-3.21001E-02 4.96225E-25 1.90605E-03 7.16250E-14-4.96848E-13
 -1        83 7.72802E-03-3.75517E-02 4.09347E-25 2.05698E-03 1.15489E-13-4.40810E-13
 -1        84 8.90813E-03-4.32957E-02 2.75651E-25 2.13272E-03 1.15941E-13-3.56021E-13
 -1        85 1.00377E-02-4.91854E-02 1.87999E-25 2.18663E-03 1.09212E-13-2.89560E-13
 -1        86 1.13519E-02-5.53268E-02 1.11259E-25 2.49988E-03 1.17214E-13-2.06250E-13
 -1        87 1.19549E-02-6.28946E-02 6.75106E-26 2.26100E-03 1.10979E-13-1.47544E-13
 -1        88 1.73890E-02-6.90005E-02 1.65917E-26 5.83599E-03 7.05062E-14-6.81579E-14
 -1        89-4.12952E-04-3.20857E-03 9.69965E-28 2.57938E-03 2.21422E-14-3.69782E-14
 -1        90-6.68094E-04-2.48818E-03 3.43256E-26 3.75268E-03 5.06413E-14-1.28898E-13
 -1        91-3.76303E-04-2.20918E-03 9.02631E-26 3.01651E-03 5.43521E-14-2.09152E-13
 -1        92-2.79717E-04-1.94861E-03 1.55576E-25 2.81813E-03 4.69286E-14-2.77299E-13
 -1        93-1.81000E-04-1.71561E-03 2.39628E-25 2.72413E-03 5.04592E-14-3.44726E-13
 -1        94-1.40591E-04-1.53697E-03 3.77451E-25 2.63429E-03 6.13053E-14-4.31767E-13
 -1        95 1.00523E-05-1.42939E-03 5.37161E-25 2.43927E-03 5.53327E-14-5.15519E-13
 -1        96 8.61402E-05-1.35765E-03 5.35221E-25 2.16145E-03 3.64731E-14-5.17959E-13
 -1        97 1.33999E-04-1.28495E-03 2.81320E-25 1.85655E-03 1.98305E-14-3.84250E-13
 -1        98 1.14599E-04-1.22851E-03 5.63959E-26 1.55489E-03 1.00219E-14-1.93151E-13
 -1        99 1.99356E-04-1.20444E-03-1.18365E-26 1.26100E-03 4.48373E-15-1.33068E-14
 -1       100 2.14867E-04-1.17495E-03 2.12514E-26 9.76588E-04 3.87416E-15 1.10410E-13
 -1       101 2.04196E-04-1.10579E-03 2.05513E-26 7.45205E-04-6.69082E-15 1.05006E-13
 -1       102 1.32866E-04-1.01731E-03-1.27943E-27 6.60279E-04-1.56707E-14 1.22577E-14
 -1       103 1.59726E-04-9.27367E-04 1.54506E-27 7.69629E-04-1.02194E-14-3.40644E-14
 -1       104 1.22930E-04-8.03919E-04-5.83516E-27 9.64299E-04 8.30003E-17 2.81673E-14
 -1       105 6.01942E-05-6.25118E-04 2.76444E-26 1.02588E-03 1.96402E-14 1.56951E-13
 -1       106-5.41271E-05-4.14753E-04 2.50261E-25 8.23814E-04 2.53600E-14 3.78979E-13
 -1       107-1.12717E-04-2.17099E-04 7.43432E-25 4.31396E-04 2.24429E-14 6.28383E-13
 -1       108-1.12717E-04-2.17099E-04 7.43232E-25 4.31396E-04 2.24117E-14 6.28307E-13
 -1       109-5.41271E-05-4.14753E-04 2.50281E-25 8.23814E-04 2.53645E-14 3.78990E-13
 -1       110 6.01942E-05-6.25118E-04 2.76491E-26 1.02588E-03 1.96409E-14 1.56953E-13
 -1       111 1.22930E-04-8.03919E-04-5.83434E-27 9.64299E-04 8.11331E-17 2.81878E-14
 -1       112 1.59726E-04-9.27367E-04 1.54684E-27 7.69629E-04-1.02305E-14-3.40874E-14
 -1       113 1.32866E-04-1.01731E-03-1.28334E-27 6.60279E-04-1.56795E-14 1.22386E-14
 -1       114 2.04196E-04-1.10579E-03 2.05590E-26 7.45205E-04-6.67892E-15 1.05031E-13
 -1       115 2.14867E-04-1.17495E-03 2.12565E-26 9.76588E-04 3.88486E-15 1.10432E-13
 -1       116 1.99356E-04-1.20444E-03-1.18400E-26 1.26100E-03 4.46633E-15-1.33429E-14
 -1       117 1.14599E-04-1.22851E-03 5.63969E-26 1.55489E-03 1.00202E-14-1.93151E-13
 -1       118 1.33999E-04-1.28495E-03 2.81317E-25 1.85655E-03 1.98337E-14-3.84248E-13
 -1       119 8.61402E-05-1.35765E-03 5.35223E-25 2.16145E-03 3.64725E-14-5.17960E-13
 -1       120 1.00523E-05-1.42939E-03 5.37152E-25 2.43927E-03 5.53332E-14-5.15514E-13
 -1       121-1.40591E-04-1.53697E-03 3.77451E-25 2.63429E-03 6.13052E-14-4.31767E-13
 -1       122-1.81000E-04-1.71561E-03 2.39632E-25 2.72413E-03 5.04600E-14-3.44728E-13
 -1       123-2.79717E-04-1.94861E-03 1.55582E-25 2.81813E-03 4.69261E-14-2.77305E-13
 -1       124-3.76303E-04-2.20918E-03 9.02604E-26 3.01651E-03 5.43522E-14-2.09149E-13
 -1       125-6.68094E-04-2.48818E-03 3.43262E-26 3.75268E-03 5.06412E-14-1.28899E-13
 -1       126-4.12952E-04-3.20857E-03 9.69965E-28 2.57938E-03 2.21422E-14-3.69782E-14
 -3
    1PSTEP                       376          94           1          
  100CL  194 9.40000E-01         126                     1   94           1
 -4  ERROR       1    1
 -5  STR(%)      1    1    0    0
 -1         1 6.73239E+01
 -1         2 6.73239E+01
 -1         3 3.72811E+01
 -1         4 3.72811E+01
 -1         5 1.46078E+01
 -1         6 1.46078E+01
 -1         7 5.67604E+01
 -1         8 5.67604E+01
 -1         9 3.72811E+01
 -1        10 3.72811E+01
 -1        11 6.73239E+01
 -1        12 6.73239E+01
 -1        13 6.73239E+01
 -1        14 6.64254E+01
 -1        15 6.62525E+01
 -1        16 6.61161E+01
 -1        17 6.63455E+01
 -1        18 6.65757E+01
 -1        19 6.70917E+01
 -1        20 6.77282E+01
 -1        21 6.86076E+01
 -1        22 6.94721E+01
 -1        23 7.07326E+01
 -1        24 7.16902E+01
 -1        25 7.24048E+01
 -1        26 7.30310E+01
 -1        27 7.47784E+01
 -1        28 7.47784E+01
 -1        29 7.43809E+01
 -1        30 7.01557E+01
 -1        31 6.05034E+01
 -1        32 6.73239E+01
 -1        33 6.64254E+01
 -1        34 6.62525E+01
 -1        35 6.61161E+01
 -1        36 6.63455E+01
 -1        37 6.65757E+01
 -1        38 6.70917E+01
 -1        39 6.77282E+01
 -1        40 6.86076E+01
 -1        41 6.94721E+01
 -1        42 7.07326E+01
 -1        43 7.16902E+01
 -1        44 7.24048E+01
 -1        45 7.30310E+01
 -1        46 7.47784E+01
 -1        47 7.47784E+01
 -1        48 7.43809E+01
 -1        49 7.01557E+01
 -1        50 6.05034E+01
 -1        51 3.05092E+01
 -1        52 4.33762E+01
 -1        53 5.03067E+01
 -1        54 5.26198E+01
 -1        55 5.31733E+01
 -1        56 5.32791E+01
 -1        57 5.39236E+01
 -1        58 5.47862E+01
 -1        59 5.57489E+01
 -1        60 5.63590E+01
 -1        61 5.68765E+01
 -1        62 5.72350E+01
 -1        63 5.74573E+01
 -1        64 5.74573E+01
 -1        65 5.73541E+01
 -1        66 5.71353E+01
 -1        67 5.68640E+01
 -1        68 5.67856E+01
 -1        69 5.67604E+01
 -1        70 3.05092E+01
 -1        71 4.33762E+01
 -1        72 5.03067E+01
 -1        73 5.26198E+01
 -1        74 5.31733E+01
 -1        75 5.32791E+01
 -1        76 5.39236E+01
 -1        77 5.47862E+01
 -1        78 5.57489E+01
 -1        79 5.63590E+01
 -1        80 5.68765E+01
 -1        81 5.72350E+01
 -1        82 5.74573E+01
 -1        83 5.74573E+01
 -1        84 5.73541E+01
 -1        85 5.71353E+01
 -1        86 5.68640E+01
 -1        87 5.67856E+01
 -1        88 5.67604E+01
 -1        89 6.73239E+01
 -1        90 6.64254E+01
 -1        91 6.62525E+01
 -1        92 6.61161E+01
 -1        93 6.63455E+01
 -1        94 6.65757E+01
 -1        95 6.70917E+01
 -1        96 6.77282E+01
 -1        97 6.86076E+01
 -1        98 6.94721E+01
 -1        99 7.07326E+01
 -1       100 7.16902E+01
 -1       101 7.24048E+01
 -1       102 7.30310E+01
 -1       103 7.47784E+01
 -1       104 7.47784E+01
 -1       105 7.43809E+01
 -1       106 7.01557E+01
 -1       107 6.05034E+01
 -1       108 6.05034E+01
 -1       109 7.01557E+01
 -1       110 7.43809E+01
 -1       111 7.47784E+01
 -1       112 7.47784E+01
 -1       113 7.30310E+01
 -1       114 7.24048E+01
 -1       115 7.16902E+01
 -1       116 7.07326E+01
 -1       117 6.94721E+01
 -1       118 6.86076E+01
 -1       119 6.77282E+01
 -1       120 6.70917E+01
 -1       121 6.65757E+01
 -1       122 6.63455E+01
 -1       123 6.61161E+01
 -1       124 6.62525E+01
 -1       125 6.64254E+01
 -1       126 6.73239E+01
 -3
    1PSTEP                       377          95           1          
  100CL  195 9.50000E-01         126                     1   95           1
 -4  DISP        4    1
 -5  D1          1    2    1    0
 -5  D2          1    2    2    0
 -5  D3          1    2    3    0
 -5  ALL         1    2    0    0    1ALL
 -1         1 0.00000E+00 0.00000E+00 0.00000E+00
 -1         2 0.00000E+00 0.00000E+00 0.00000E+00
 -1         3 3.77314E-01-5.87570E-02 0.00000E+00
 -1         4 3.77314E-01-5.87570E-02 0.00000E+00
 -1         5 3.64225E-01-1.08194E-01 0.00000E+00
 -1         6 3.64225E-01-1.08194E-01 0.00000E+00
 -1         7 0.00000E+00 0.00000E+00 0.00000E+00
 -1         8 0.00000E+00 0.00000E+00 0.00000E+00
 -1         9 3.70765E-01-8.34754E-02 0.00000E+00
 -1        10 3.70765E-01-8.34754E-02 0.00000E+00
 -1        11 0.00000E+00 0.00000E+00 0.00000E+00
 -1        12 0.00000E+00 0.00000E+00 0.00000E+00
 -1        13 2.64239E-03 3.22311E-03 0.00000E+00
 -1        14 8.37725E-03 6.11888E-03 0.00000E+00
 -1        15 1.75383E-02 8.18902E-03 0.00000E+00
 -1        16 2.95801E-02 9.32838E-03 0.00000E+00
 -1        17 4.40424E-02 9.46694E-03 0.00000E+00
 -1        18 6.04695E-02 8.63594E-03 0.00000E+00
 -1        19 7.84656E-02 6.93088E-03 0.00000E+00
 -1        20 9.77549E-02 4.45471E-03 0.00000E+00
 -1        21 1.18120E-01 1.29711E-03 0.00000E+00
 -1        22 1.39373E-01-2.46540E-03 0.00000E+00
 -1        23 1.61319E-01-6.73619E-03 0.00000E+00
 -1        24 1.83832E-01-1.14181E-02 0.00000E+00
 -1        25 2.06846E-01-1.64330E-02 0.00000E+00
 -1        26 2.30339E-01-2.17509E-02 0.00000E+00
 -1        27 2.54264E-01-2.73627E-02 0.00000E+00
 -1        28 2.78552E-01-3.32607E-02 0.00000E+00
 -1        29 3.03098E-01-3.94081E-02 0.00000E+00
 -1        30 3.27803E-01-4.57526E-02 0.00000E+00
 -1        31 3.52566E-01-5.22276E-02 0.00000E+00
 -1        32 2.64239E-03 3.22311E-03 0.00000E+00
 -1        33 8.37725E-03 6.11888E-03 0.00000E+00
 -1        34 1.75383E-02 8.18902E-03 0.00000E+00
 -1        35 2.95801E-02 9.32838E-03 0.00000E+00
 -1        36 4.40424E-02 9.46694E-03 0.00000E+00
 -1        37 6.04695E-02 8.63594E-03 0.00000E+00
 -1        38 7.84656E-02 6.93088E-03 0.00000E+00
 -1        39 9.77549E-02 4.45471E-03 0.00000E+00
 -1        40 1.18120E-01 1.29711E-03 0.00000E+00
 -1        41 1.39373E-01-2.46540E-03 0.00000E+00
 -1        42 1.61319E-01-6.73619E-03 0.00000E+00
 -1        43 1.83832E-01-1.14181E-02 0.00000E+00
 -1        44 2.06846E-01-1.64330E-02 0.00000E+00
 -1        45 2.30339E-01-2.17509E-02 0.00000E+00
 -1        46 2.54264E-01-2.73627E-02 0.00000E+00
 -1        47 2.78552E-01-3.32607E-02 0.00000E+00
 -1        48 3.03098E-01-3.94081E-02 0.00000E+00
 -1        49 3.27803E-01-4.57526E-02 0.00000E+00
 -1        50 3.52566E-01-5.22276E-02 0.00000E+00
 -1        51 3.39503E-01-1.01619E-01 0.00000E+00
 -1        52 3.14833E-01-9.49882E-02 0.00000E+00
 -1        53 2.90318E-01-8.83279E-02 0.00000E+00
 -1        54 2.66057E-01-8.16818E-02 0.00000E+00
 -1        55 2.42145E-01-7.51063E-02 0.00000E+00
 -1        56 2.18666E-01-6.86615E-02 0.00000E+00
 -1        57 1.95677E-01-6.24008E-02 0.00000E+00
 -1        58 1.73200E-01-5.63410E-02 0.00000E+00
 -1        59 1.51274E-01-5.04713E-02 0.00000E+00
 -1        60 1.29997E-01-4.47781E-02 0.00000E+00
 -1        61 1.09537E-01-3.92807E-02 0.00000E+00
 -1        62 9.00733E-02-3.40159E-02 0.00000E+00
 -1        63 7.17896E-02-2.90135E-02 0.00000E+00
 -1        64 5.48918E-02-2.42737E-02 0.00000E+00
 -1        65 3.96591E-02-1.97825E-02 0.00000E+00
 -1        66 2.64241E-02-1.55214E-02 0.00000E+00
 -1        67 1.55585E-02-1.14686E-02 0.00000E+00
 -1        68 7.38050E-03-7.57996E-03 0.00000E+00
 -1        69 2.37562E-03-3.71203E-03 0.00000E+00
 -1        70 3.39503E-01-1.01619E-01 0.00000E+00
 -1        71 3.14833E-01-9.49882E-02 0.00000E+00
 -1        72 2.90318E-01-8.83279E-02 0.00000E+00
 -1        73 2.66057E-01-8.16818E-02 0.00000E+00
 -1        74 2.42145E-01-7.51063E-02 0.00000E+00
 -1        75 2.18666E-01-6.86615E-02 0.00000E+00
 -1        76 1.95677E-01-6.24008E-02 0.00000E+00
 -1        77 1.73200E-01-5.63410E-02 0.00000E+00
 -1        78 1.51274E-01-5.04713E-02 0.00000E+00
 -1        79 1.29997E-01-4.47781E-02 0.00000E+00
 -1        80 1.09537E-01-3.92807E-02 0.00000E+00
 -1        81 9.00733E-02-3.40159E-02 0.00000E+00
 -1        82 7.17896E-02-2.90135E-02 0.00000E+00
 -1        83 5.48918E-02-2.42737E-02 0.00000E+00
 -1        84 3.96591E-02-1.97825E-02 0.00000E+00
 -1        85 2.64241E-02-1.55214E-02 0.00000E+00
 -1        86 1.55585E-02-1.14686E-02 0.00000E+00
 -1        87 7.38050E-03-7.57996E-03 0.00000E+00
 -1        88 2.37562E-03-3.71203E-03 0.00000E+00
 -1        89 1.60669E-03-1.92769E-04 0.00000E+00
 -1        90 7.22146E-03-6.26343E-04 0.00000E+00
 -1        91 1.59457E-02-1.50319E-03 0.00000E+00
 -1        92 2.74903E-02-2.95166E-03 0.00000E+00
 -1        93 4.14210E-02-5.01563E-03 0.00000E+00
 -1        94 5.73240E-02-7.68567E-03 0.00000E+00
 -1        95 7.48324E-02-1.09204E-02 0.00000E+00
 -1        96 9.36671E-02-1.46729E-02 0.00000E+00
 -1        97 1.13623E-01-1.88975E-02 0.00000E+00
 -1        98 1.34515E-01-2.35402E-02 0.00000E+00
 -1        99 1.56158E-01-2.85343E-02 0.00000E+00
 -1       100 1.78396E-01-3.38193E-02 0.00000E+00
 -1       101 2.01153E-01-3.93620E-02 0.00000E+00
 -1       102 2.24405E-01-4.51549E-02 0.00000E+00
 -1       103 2.48122E-01-5.11897E-02 0.00000E+00
 -1       104 2.72239E-01-5.74364E-02 0.00000E+00
 -1       105 2.96662E-01-6.38443E-02 0.00000E+00
 -1       106 3.21290E-01-7.03570E-02 0.00000E+00
 -1       107 3.46023E-01-7.69182E-02 0.00000E+00
 -1       108 3.46023E-01-7.69182E-02 0.00000E+00
 -1       109 3.21290E-01-7.03570E-02 0.00000E+00
 -1       110 2.96662E-01-6.38443E-02 0.00000E+00
 -1       111 2.72239E-01-5.74364E-02 0.00000E+00
 -1       112 2.48122E-01-5.11897E-02 0.00000E+00
 -1       113 2.24405E-01-4.51549E-02 0.00000E+00
 -1       114 2.01153E-01-3.93620E-02 0.00000E+00
 -1       115 1.78396E-01-3.38193E-02 0.00000E+00
 -1       116 1.56158E-01-2.85343E-02 0.00000E+00
 -1       117 1.34515E-01-2.35402E-02 0.00000E+00
 -1       118 1.13623E-01-1.88975E-02 0.00000E+00
 -1       119 9.36671E-02-1.46729E-02 0.00000E+00
 -1       120 7.48324E-02-1.09204E-02 0.00000E+00
 -1       121 5.73240E-02-7.68567E-03 0.00000E+00
 -1       122 4.14210E-02-5.01563E-03 0.00000E+00
 -1       123 2.74903E-02-2.95166E-03 0.00000E+00
 -1       124 1.59457E-02-1.50319E-03 0.00000E+00
 -1       125 7.22146E-03-6.26343E-04 0.00000E+00
 -1       126 1.60669E-03-1.92769E-04 0.00000E+00
 -3
    1PSTEP                       378          95           1          
  100CL  195 9.50000E-01         126                     1   95           1
 -4  STRESS      6    1
 -5  SXX         1    4    1    1
 -5  SYY         1    4    2    2
 -5  SZZ         1    4    3    3
 -5  SXY         1    4    1    2
 -5  SYZ         1    4    2    3
 -5  SZX         1    4    3    1
 -1         1 1.54245E+04 3.79006E+04 1.47204E+04 9.79671E+03-1.01047E-10-1.29999E-10
 -1         2 1.54245E+04 3.79006E+04 1.47204E+04 9.79671E+03-1.01047E-10-1.29999E-10
 -1         3 8.03836E+01 9.49829E+01 5.25734E+01 1.09762E+02-7.73310E-08 2.72618E-07
 -1         4 8.03836E+01 9.49829E+01 5.25734E+01 1.09762E+02-7.73310E-08 2.72604E-07
 -1         5-1.53646E+02-3.55016E+02-1.52728E+02-4.41639E+01-2.60099E-07 1.62514E-07
 -1         6-1.53646E+02-3.55016E+02-1.52728E+02-4.41639E+01-2.60084E-07 1.62455E-07
 -1         7-1.70564E+04-3.60136E+04-1.75260E+04 5.69792E+03-1.40993E-10 3.24034E-10
 -1         8-1.70564E+04-3.60136E+04-1.75260E+04 5.69792E+03-1.40993E-10 3.24042E-10
 -1         9-2.30378E+01-1.60562E+02-5.50998E+01 4.18463E+01-1.64409E-07 2.27697E-07
 -1        10-2.30378E+01-1.60562E+02-5.50998E+01 4.18463E+01-1.64411E-07 2.27732E-07
 -1        11-6.45851E+02-2.77836E+03-7.70435E+02 4.84894E+03-4.74070E-11 6.92076E-11
 -1        12-6.45851E+02-2.77836E+03-7.70435E+02 4.84894E+03-4.74067E-11 6.91928E-11
 -1        13 5.81913E+03 3.32107E+04 1.07946E+04 3.61499E+03-6.03604E-09-9.45860E-09
 -1        14 7.50135E+03 3.13086E+04 1.07794E+04 4.06952E+03-1.39271E-08-3.70933E-08
 -1        15 7.09560E+03 2.69377E+04 9.53194E+03 5.11838E+03 2.59638E-09-8.84558E-08
 -1        16 6.83092E+03 2.27861E+04 8.36714E+03 5.39557E+03 3.52336E-08-1.09295E-07
 -1        17 6.31848E+03 1.87667E+04 7.14977E+03 5.22355E+03 5.79869E-08-9.75395E-08
 -1        18 5.64111E+03 1.52661E+04 6.00859E+03 4.75372E+03 5.20361E-08-4.75287E-08
 -1        19 5.01250E+03 1.24573E+04 5.05659E+03 4.17595E+03 3.34500E-08-1.73400E-08
 -1        20 4.39096E+03 1.01724E+04 4.24011E+03 3.63540E+03 1.41466E-08-5.00382E-09
 -1        21 3.80429E+03 8.24441E+03 3.52578E+03 3.12487E+03 8.90599E-09-2.02415E-08
 -1        22 3.19611E+03 6.60341E+03 2.88101E+03 2.62702E+03 2.12383E-08-4.53937E-08
 -1        23 2.71009E+03 5.39456E+03 2.39201E+03 2.16443E+03 2.94982E-08-4.78426E-08
 -1        24 2.32050E+03 4.58994E+03 2.04473E+03 1.84355E+03 3.14952E-08-3.01855E-08
 -1        25 2.07314E+03 4.06425E+03 1.81840E+03 1.65831E+03 2.09457E-08-1.55505E-08
 -1        26 1.86229E+03 3.55757E+03 1.60756E+03 1.52837E+03 9.51194E-09-1.58673E-08
 -1        27 1.67617E+03 2.96352E+03 1.37829E+03 1.33991E+03 4.31574E-09-2.24451E-08
 -1        28 1.37319E+03 2.22112E+03 1.06992E+03 1.09203E+03 1.47571E-08-2.14796E-08
 -1        29 9.94661E+02 1.44560E+03 7.27956E+02 7.98993E+02 1.76947E-08 8.23206E-09
 -1        30 5.73185E+02 7.29384E+02 3.89341E+02 5.03917E+02 7.20136E-09 6.53511E-08
 -1        31 2.29967E+02 2.46837E+02 1.42765E+02 2.35656E+02-2.51016E-08 1.71396E-07
 -1        32 5.81913E+03 3.32107E+04 1.07946E+04 3.61499E+03-6.03604E-09-9.45860E-09
 -1        33 7.50135E+03 3.13086E+04 1.07794E+04 4.06952E+03-1.39271E-08-3.70933E-08
 -1        34 7.09560E+03 2.69377E+04 9.53194E+03 5.11838E+03 2.59640E-09-8.84557E-08
 -1        35 6.83092E+03 2.27861E+04 8.36714E+03 5.39557E+03 3.52337E-08-1.09295E-07
 -1        36 6.31848E+03 1.87667E+04 7.14977E+03 5.22355E+03 5.79869E-08-9.75403E-08
 -1        37 5.64111E+03 1.52661E+04 6.00859E+03 4.75372E+03 5.20351E-08-4.75275E-08
 -1        38 5.01250E+03 1.24573E+04 5.05659E+03 4.17595E+03 3.34495E-08-1.73387E-08
 -1        39 4.39096E+03 1.01724E+04 4.24011E+03 3.63540E+03 1.41467E-08-5.00382E-09
 -1        40 3.80429E+03 8.24441E+03 3.52578E+03 3.12487E+03 8.90621E-09-2.02405E-08
 -1        41 3.19611E+03 6.60341E+03 2.88101E+03 2.62702E+03 2.12391E-08-4.53974E-08
 -1        42 2.71009E+03 5.39456E+03 2.39201E+03 2.16443E+03 2.94987E-08-4.78436E-08
 -1        43 2.32050E+03 4.58994E+03 2.04473E+03 1.84355E+03 3.14951E-08-3.01827E-08
 -1        44 2.07314E+03 4.06425E+03 1.81840E+03 1.65831E+03 2.09460E-08-1.55514E-08
 -1        45 1.86229E+03 3.55757E+03 1.60756E+03 1.52837E+03 9.51190E-09-1.58638E-08
 -1        46 1.67617E+03 2.96352E+03 1.37829E+03 1.33991E+03 4.31507E-09-2.24451E-08
 -1        47 1.37319E+03 2.22112E+03 1.06992E+03 1.09203E+03 1.47564E-08-2.14796E-08
 -1        48 9.94661E+02 1.44560E+03 7.27956E+02 7.98993E+02 1.76956E-08 8.21822E-09
 -1        49 5.73185E+02 7.29384E+02 3.89341E+02 5.03917E+02 7.20259E-09 6.53368E-08
 -1        50 2.29967E+02 2.46837E+02 1.42765E+02 2.35656E+02-2.51029E-08 1.71422E-07
 -1        51-2.68134E+02-6.92472E+02-2.88841E+02-1.36027E+02-1.92718E-07 7.17032E-08
 -1        52-5.53831E+02-1.43558E+03-5.99607E+02-3.86460E+02-1.27184E-07 1.91069E-09
 -1        53-9.29846E+02-2.28708E+03-9.72280E+02-7.14158E+02-7.18652E-08-3.64592E-08
 -1        54-1.34729E+03-3.15332E+03-1.36414E+03-1.05098E+03-3.09199E-08-4.28024E-08
 -1        55-1.73766E+03-3.93211E+03-1.72293E+03-1.35761E+03-1.11252E-08-3.13831E-08
 -1        56-2.06860E+03-4.56600E+03-2.02017E+03-1.59353E+03-9.32958E-09-1.77163E-08
 -1        57-2.26719E+03-5.07442E+03-2.23889E+03-1.76141E+03-2.42183E-09-3.01340E-08
 -1        58-2.44565E+03-5.69752E+03-2.48756E+03-1.89220E+03 1.02371E-08-3.82778E-08
 -1        59-2.70409E+03-6.64670E+03-2.86424E+03-2.07383E+03 2.61967E-08-4.91807E-08
 -1        60-3.12606E+03-7.98786E+03-3.41801E+03-2.34796E+03 3.51166E-08-4.09692E-08
 -1        61-3.61966E+03-9.58911E+03-4.08199E+03-2.68787E+03 2.44506E-08-1.72392E-08
 -1        62-4.17030E+03-1.14258E+04-4.84524E+03-3.00479E+03 9.87869E-09-1.21161E-08
 -1        63-4.75476E+03-1.35928E+04-5.73478E+03-3.26982E+03-1.61740E-09-3.19248E-08
 -1        64-5.43576E+03-1.62586E+04-6.83268E+03-3.48166E+03-1.83900E-09-6.54497E-08
 -1        65-6.16727E+03-1.94118E+04-8.13144E+03-3.61237E+03 1.78829E-08-1.01295E-07
 -1        66-6.98050E+03-2.29192E+04-9.60357E+03-3.54960E+03 4.30758E-08-1.12464E-07
 -1        67-7.66445E+03-2.64340E+04-1.10655E+04-3.13524E+03 5.31400E-08-8.45212E-08
 -1        68-8.96307E+03-3.01916E+04-1.28400E+04-2.46221E+03 4.08760E-08-2.57760E-08
 -1        69-6.95985E+03-3.14554E+04-1.26844E+04-4.09361E+02 1.87413E-08-5.66444E-09
 -1        70-2.68134E+02-6.92472E+02-2.88841E+02-1.36027E+02-1.92716E-07 7.16834E-08
 -1        71-5.53831E+02-1.43558E+03-5.99607E+02-3.86460E+02-1.27186E-07 1.92534E-09
 -1        72-9.29846E+02-2.28708E+03-9.72280E+02-7.14158E+02-7.18669E-08-3.64636E-08
 -1        73-1.34729E+03-3.15332E+03-1.36414E+03-1.05098E+03-3.09175E-08-4.28098E-08
 -1        74-1.73766E+03-3.93211E+03-1.72293E+03-1.35761E+03-1.11321E-08-3.13555E-08
 -1        75-2.06860E+03-4.56600E+03-2.02017E+03-1.59353E+03-9.32888E-09-1.77165E-08
 -1        76-2.26719E+03-5.07442E+03-2.23889E+03-1.76141E+03-2.42334E-09-3.01301E-08
 -1        77-2.44565E+03-5.69752E+03-2.48756E+03-1.89220E+03 1.02355E-08-3.82625E-08
 -1        78-2.70409E+03-6.64670E+03-2.86424E+03-2.07383E+03 2.61911E-08-4.92019E-08
 -1        79-3.12606E+03-7.98786E+03-3.41801E+03-2.34796E+03 3.51214E-08-4.09692E-08
 -1        80-3.61966E+03-9.58911E+03-4.08199E+03-2.68787E+03 2.44446E-08-1.72392E-08
 -1        81-4.17030E+03-1.14258E+04-4.84524E+03-3.00479E+03 9.87869E-09-1.21162E-08
 -1        82-4.75476E+03-1.35928E+04-5.73478E+03-3.26982E+03-1.61765E-09-3.19223E-08
 -1        83-5.43576E+03-1.62586E+04-6.83268E+03-3.48166E+03-1.83879E-09-6.54541E-08
 -1        84-6.16727E+03-1.94118E+04-8.13144E+03-3.61237E+03 1.78813E-08-1.01295E-07
 -1        85-6.98050E+03-2.29192E+04-9.60357E+03-3.54960E+03 4.30759E-08-1.12462E-07
 -1        86-7.66445E+03-2.64340E+04-1.10655E+04-3.13524E+03 5.31400E-08-8.45213E-08
 -1        87-8.96307E+03-3.01916E+04-1.28400E+04-2.46221E+03 4.08759E-08-2.57760E-08
 -1        88-6.95985E+03-3.14554E+04-1.26844E+04-4.09361E+02 1.87413E-08-5.66447E-09
 -1        89-1.35982E+02-2.64024E+03-7.52986E+02 3.08789E+02 6.63554E-09-3.55010E-09
 -1        90-2.08760E+02-2.44360E+03-6.63355E+02 7.56594E+02 1.49348E-08-2.95534E-08
 -1        91 2.20466E+01-2.16918E+03-5.51408E+02 6.48265E+02 3.11076E-08-8.66380E-08
 -1        92 1.58935E+02-1.93836E+03-4.61718E+02 6.36457E+02 4.40946E-08-1.16039E-07
 -1        93 2.48558E+02-1.68878E+03-3.79137E+02 5.67834E+02 4.07480E-08-1.00850E-07
 -1        94 2.36141E+02-1.47345E+03-3.33009E+02 4.58695E+02 2.52417E-08-5.67683E-08
 -1        95 2.27310E+02-1.27344E+03-2.86724E+02 3.20962E+02 1.38482E-08-2.16818E-08
 -1        96 1.86020E+02-1.14341E+03-2.68521E+02 2.19246E+02 9.34919E-09-6.59488E-09
 -1        97 1.63112E+02-1.04699E+03-2.52392E+02 1.59095E+02 1.49354E-08-1.83263E-08
 -1        98 1.01312E+02-9.63029E+02-2.49594E+02 1.08379E+02 2.69593E-08-4.45905E-08
 -1        99 4.86857E+01-8.25879E+02-2.26617E+02 2.26450E+01 3.02799E-08-4.96120E-08
 -1       100-4.06846E+01-6.99456E+02-2.17212E+02-5.07637E+01 1.99819E-08-3.67002E-08
 -1       101-7.97480E+01-6.09970E+02-2.03380E+02-7.56224E+01 6.70162E-09-2.20264E-08
 -1       102-7.42731E+01-5.92258E+02-1.97460E+02-4.40141E+01-2.65933E-09-1.88763E-08
 -1       103 8.92137E+00-5.74911E+02-1.68101E+02-5.43768E+00-5.01127E-09-3.08935E-08
 -1       104 5.90647E+01-5.54185E+02-1.47574E+02 3.60274E+01-6.45438E-09-3.78585E-08
 -1       105 8.47654E+01-4.93638E+02-1.22280E+02 6.74222E+01-2.51903E-08-1.78563E-08
 -1       106 6.36941E+01-4.06333E+02-1.02733E+02 8.79328E+01-5.84308E-08 2.96333E-08
 -1       107 1.44728E+01-2.59864E+02-7.36242E+01 6.93022E+01-1.07909E-07 1.16922E-07
 -1       108 1.44728E+01-2.59864E+02-7.36242E+01 6.93022E+01-1.07909E-07 1.16930E-07
 -1       109 6.36941E+01-4.06333E+02-1.02733E+02 8.79328E+01-5.84267E-08 2.96184E-08
 -1       110 8.47654E+01-4.93638E+02-1.22280E+02 6.74222E+01-2.51903E-08-1.78462E-08
 -1       111 5.90647E+01-5.54185E+02-1.47574E+02 3.60274E+01-6.45440E-09-3.78575E-08
 -1       112 8.92137E+00-5.74911E+02-1.68101E+02-5.43768E+00-5.00907E-09-3.08972E-08
 -1       113-7.42731E+01-5.92258E+02-1.97460E+02-4.40141E+01-2.66065E-09-1.88781E-08
 -1       114-7.97480E+01-6.09970E+02-2.03380E+02-7.56224E+01 6.70443E-09-2.20261E-08
 -1       115-4.06846E+01-6.99456E+02-2.17212E+02-5.07637E+01 1.99822E-08-3.67079E-08
 -1       116 4.86857E+01-8.25879E+02-2.26617E+02 2.26450E+01 3.02798E-08-4.96070E-08
 -1       117 1.01312E+02-9.63029E+02-2.49594E+02 1.08379E+02 2.69574E-08-4.45837E-08
 -1       118 1.63112E+02-1.04699E+03-2.52392E+02 1.59095E+02 1.49346E-08-1.83281E-08
 -1       119 1.86020E+02-1.14341E+03-2.68521E+02 2.19246E+02 9.34902E-09-6.59465E-09
 -1       120 2.27310E+02-1.27344E+03-2.86724E+02 3.20962E+02 1.38493E-08-2.16865E-08
 -1       121 2.36141E+02-1.47345E+03-3.33009E+02 4.58695E+02 2.52416E-08-5.67662E-08
 -1       122 2.48558E+02-1.68878E+03-3.79137E+02 5.67834E+02 4.07483E-08-1.00848E-07
 -1       123 1.58935E+02-1.93836E+03-4.61718E+02 6.36457E+02 4.40944E-08-1.16039E-07
 -1       124 2.20466E+01-2.16918E+03-5.51408E+02 6.48265E+02 3.11076E-08-8.66380E-08
 -1       125-2.08760E+02-2.44360E+03-6.63355E+02 7.56594E+02 1.49349E-08-2.95534E-08
 -1       126-1.35982E+02-2.64024E+03-7.52986E+02 3.08789E+02 6.63554E-09-3.55004E-09
 -3
    1PSTEP                       379          95           1          
  100CL  195 9.50000E-01         126                     1   95           1
 -4  TOSTRAIN    6    1
 -5  EXX         1    4    1    1
 -5  EYY         1    4    2    2
 -5  EZZ         1    4    3    3
 -5  EXY         1    4    1    2
 -5  EYZ         1    4    2    3
 -5  EZX         1    4    3    1
 -1         1-4.24372E-04 6.75101E-02-3.04819E-28 2.64236E-02-4.42139E-21-2.97574E-16
 -1         2-4.24372E-04 6.75101E-02-3.04819E-28 2.64236E-02-4.42139E-21-2.97574E-16
 -1         3-2.04801E-04 4.32616E-04 1.61729E-24 1.61649E-04 2.19543E-13 8.94404E-13
 -1         4-2.04801E-04 4.32616E-04 1.61716E-24 1.61649E-04 2.19519E-13 8.94362E-13
 -1         5-3.97613E-05-6.21667E-04 1.89900E-24 2.08391E-04-4.74096E-13 8.77548E-13
 -1         6-3.97613E-05-6.21667E-04 1.89849E-24 2.08391E-04-4.74149E-13 8.77358E-13
 -1         7-4.32834E-04-7.07869E-02-1.72349E-27 2.37560E-02-8.48285E-19 8.99601E-16
 -1         8-4.32834E-04-7.07869E-02-1.72349E-27 2.37560E-02-8.47395E-19 8.99626E-16
 -1         9-1.22281E-04-1.16471E-04 1.57302E-24 2.61738E-04-9.85748E-14 9.07693E-13
 -1        10-1.22281E-04-1.16471E-04 1.57334E-24 2.61738E-04-9.85233E-14 9.07797E-13
 -1        11-4.28603E-04-3.76016E-03-7.00445E-29 1.60667E-02-3.31138E-19 2.38443E-16
 -1        12-4.28603E-04-3.76016E-03-7.00426E-29 1.60667E-02-3.32799E-19 2.38396E-16
 -1        13-1.85625E-02 6.66545E-02 3.49915E-28 4.76958E-03-2.00621E-14-2.89189E-14
 -1        14-1.40815E-02 6.22733E-02 2.22751E-26 1.95587E-03-5.69038E-14-1.11412E-13
 -1        15-1.28203E-02 5.52814E-02 1.54672E-25 2.60441E-03-4.50353E-14-2.79805E-13
 -1        16-1.09638E-02 4.81250E-02 2.76004E-25 2.61199E-03 2.13031E-14-3.68604E-13
 -1        17-9.25150E-03 4.09000E-02 2.65470E-25 2.52664E-03 8.29572E-14-3.55590E-13
 -1        18-7.75612E-03 3.42654E-02 9.35814E-26 2.21127E-03 1.04065E-13-2.00543E-13
 -1        19-6.36371E-03 2.86109E-02 2.44116E-26 1.83179E-03 7.82082E-14-9.14240E-14
 -1        20-5.29294E-03 2.39018E-02 3.20591E-27 1.56312E-03 3.50830E-14-3.26503E-14
 -1        21-4.37480E-03 1.98152E-02 8.40005E-27 1.39962E-03-1.22928E-16-7.16001E-14
 -1        22-3.61945E-03 1.62110E-02 5.15275E-26 1.19304E-03 2.13734E-16-1.62390E-13
 -1        23-2.88260E-03 1.33213E-02 6.61911E-26 8.86397E-04 1.78783E-14-1.81315E-13
 -1        24-2.46264E-03 1.13758E-02 3.84311E-26 5.98187E-04 4.66852E-14-1.33388E-13
 -1        25-2.23888E-03 1.01598E-02 1.26657E-26 4.59936E-04 3.67849E-14-7.60669E-14
 -1        26-2.10469E-03 9.10261E-03 6.35143E-27 4.88694E-04 3.16518E-15-5.99677E-14
 -1        27-1.75481E-03 7.75116E-03 1.01692E-26 6.04500E-04-2.21600E-14-7.06701E-14
 -1        28-1.39004E-03 6.04087E-03 1.03337E-26 7.08195E-04 8.21121E-15-8.42255E-14
 -1        29-1.00631E-03 4.16770E-03-8.01229E-27 7.21876E-04 6.29848E-14-4.88442E-15
 -1        30-6.86407E-04 2.37569E-03 4.41088E-26 6.22568E-04 1.24618E-13 1.73153E-13
 -1        31-3.61791E-04 9.80817E-04 5.54659E-25 3.67414E-04 2.04003E-13 5.24512E-13
 -1        32-1.85625E-02 6.66545E-02 3.49915E-28 4.76958E-03-2.00621E-14-2.89189E-14
 -1        33-1.40815E-02 6.22733E-02 2.22751E-26 1.95587E-03-5.69038E-14-1.11412E-13
 -1        34-1.28203E-02 5.52814E-02 1.54671E-25 2.60441E-03-4.50352E-14-2.79805E-13
 -1        35-1.09638E-02 4.81250E-02 2.76007E-25 2.61199E-03 2.13027E-14-3.68606E-13
 -1        36-9.25150E-03 4.09000E-02 2.65473E-25 2.52664E-03 8.29565E-14-3.55592E-13
 -1        37-7.75612E-03 3.42654E-02 9.35770E-26 2.21127E-03 1.04063E-13-2.00538E-13
 -1        38-6.36371E-03 2.86109E-02 2.44103E-26 1.83179E-03 7.82082E-14-9.14196E-14
 -1        39-5.29294E-03 2.39018E-02 3.20597E-27 1.56312E-03 3.50833E-14-3.26504E-14
 -1        40-4.37480E-03 1.98152E-02 8.39848E-27 1.39962E-03-1.20942E-16-7.15975E-14
 -1        41-3.61945E-03 1.62110E-02 5.15344E-26 1.19304E-03 2.11064E-16-1.62402E-13
 -1        42-2.88260E-03 1.33213E-02 6.61933E-26 8.86397E-04 1.78782E-14-1.81318E-13
 -1        43-2.46264E-03 1.13758E-02 3.84262E-26 5.98187E-04 4.66889E-14-1.33380E-13
 -1        44-2.23888E-03 1.01598E-02 1.26669E-26 4.59936E-04 3.67841E-14-7.60699E-14
 -1        45-2.10469E-03 9.10261E-03 6.34879E-27 4.88694E-04 3.17036E-15-5.99575E-14
 -1        46-1.75481E-03 7.75116E-03 1.01693E-26 6.04500E-04-2.21619E-14-7.06691E-14
 -1        47-1.39004E-03 6.04087E-03 1.03337E-26 7.08195E-04 8.20928E-15-8.42245E-14
 -1        48-1.00631E-03 4.16770E-03-8.02076E-27 7.21876E-04 6.29653E-14-4.92496E-15
 -1        49-6.86407E-04 2.37569E-03 4.40407E-26 6.22568E-04 1.24598E-13 1.73111E-13
 -1        50-3.61791E-04 9.80817E-04 5.54808E-25 3.67414E-04 2.04041E-13 5.24587E-13
 -1        51 1.10078E-04-1.35993E-03 8.26155E-25 3.67643E-04-4.30307E-13 5.12574E-13
 -1        52 5.28020E-04-3.11997E-03 3.02656E-25 5.85614E-04-3.58244E-13 2.09485E-13
 -1        53 1.05606E-03-5.25418E-03 1.20614E-25 6.79984E-04-2.63527E-13 1.12575E-14
 -1        54 1.55921E-03-7.44209E-03 5.43778E-26 6.83731E-04-1.56821E-13-7.29578E-14
 -1        55 2.00689E-03-9.42873E-03 2.25865E-26 6.03181E-04-8.14702E-14-7.23823E-14
 -1        56 2.31919E-03-1.10131E-02 7.91357E-27 4.74297E-04-5.46021E-14-3.66564E-14
 -1        57 2.62246E-03-1.22507E-02 1.82759E-26 4.30571E-04-5.28860E-14-8.34787E-14
 -1        58 2.90363E-03-1.35921E-02 3.17439E-26 5.92469E-04-2.66614E-14-1.26355E-13
 -1        59 3.32277E-03-1.56138E-02 6.45160E-26 9.11430E-04 6.82985E-15-1.81460E-13
 -1        60 3.89566E-03-1.85354E-02 6.02074E-26 1.21261E-03 4.83861E-14-1.69558E-13
 -1        61 4.67581E-03-2.21212E-02 1.75889E-26 1.41020E-03 5.15745E-14-8.38667E-14
 -1        62 5.48368E-03-2.61385E-02 3.85583E-27 1.59981E-03 1.50424E-14-4.89165E-14
 -1        63 6.39170E-03-3.07651E-02 1.78216E-26 1.89743E-03-4.41005E-14-9.51935E-14
 -1        64 7.46487E-03-3.63946E-02 8.35925E-26 2.26986E-03-7.97335E-14-1.99635E-13
 -1        65 8.84471E-03-4.31195E-02 2.15531E-25 2.57827E-03-4.32931E-14-3.33694E-13
 -1        66 1.02935E-02-5.05665E-02 3.02494E-25 2.68612E-03 4.86169E-14-3.91812E-13
 -1        67 1.18710E-02-5.80416E-02 2.09102E-25 2.74040E-03 1.26682E-13-3.06193E-13
 -1        68 1.24970E-02-6.57220E-02 4.95662E-26 1.98137E-03 1.33422E-13-1.02678E-13
 -1        69 1.75544E-02-7.02737E-02 7.79271E-27 4.94483E-03 6.63086E-14-2.32632E-14
 -1        70 1.10078E-04-1.35993E-03 8.26112E-25 3.67643E-04-4.30331E-13 5.12513E-13
 -1        71 5.28020E-04-3.11997E-03 3.02690E-25 5.85614E-04-3.58225E-13 2.09528E-13
 -1        72 1.05606E-03-5.25418E-03 1.20617E-25 6.79984E-04-2.63539E-13 1.12477E-14
 -1        73 1.55921E-03-7.44209E-03 5.43869E-26 6.83731E-04-1.56826E-13-7.29827E-14
 -1        74 2.00689E-03-9.42873E-03 2.25512E-26 6.03181E-04-8.14468E-14-7.22926E-14
 -1        75 2.31919E-03-1.10131E-02 7.91385E-27 4.74297E-04-5.46003E-14-3.66580E-14
 -1        76 2.62246E-03-1.22507E-02 1.82715E-26 4.30571E-04-5.28845E-14-8.34651E-14
 -1        77 2.90363E-03-1.35921E-02 3.17158E-26 5.92469E-04-2.66439E-14-1.26308E-13
 -1        78 3.32277E-03-1.56138E-02 6.45504E-26 9.11430E-04 6.78238E-15-1.81513E-13
 -1        79 3.89566E-03-1.85354E-02 6.02137E-26 1.21261E-03 4.84005E-14-1.69565E-13
 -1        80 4.67581E-03-2.21212E-02 1.75818E-26 1.41020E-03 5.15564E-14-8.38583E-14
 -1        81 5.48368E-03-2.61385E-02 3.85592E-27 1.59981E-03 1.50422E-14-4.89169E-14
 -1        82 6.39170E-03-3.07651E-02 1.78184E-26 1.89743E-03-4.40984E-14-9.51858E-14
 -1        83 7.46487E-03-3.63946E-02 8.36047E-26 2.26986E-03-7.97377E-14-1.99649E-13
 -1        84 8.84471E-03-4.31195E-02 2.15530E-25 2.57827E-03-4.32977E-14-3.33692E-13
 -1        85 1.02935E-02-5.05665E-02 3.02486E-25 2.68612E-03 4.86187E-14-3.91806E-13
 -1        86 1.18710E-02-5.80416E-02 2.09102E-25 2.74040E-03 1.26682E-13-3.06193E-13
 -1        87 1.24970E-02-6.57220E-02 4.95660E-26 1.98137E-03 1.33422E-13-1.02678E-13
 -1        88 1.75544E-02-7.02737E-02 7.79272E-27 4.94483E-03 6.63086E-14-2.32633E-14
 -1        89-5.04074E-04-3.23830E-03-8.58019E-28 1.55234E-03 2.06042E-14-1.30675E-14
 -1        90-7.92245E-04-2.59064E-03 1.26726E-26 3.38353E-03 3.49348E-14-1.02163E-13
 -1        91-4.74691E-04-2.29768E-03 1.69699E-25 3.33498E-03 4.40770E-14-2.96457E-13
 -1        92-3.35164E-04-1.95952E-03 3.25120E-25 3.47146E-03 4.52908E-14-4.01495E-13
 -1        93-2.03392E-04-1.65294E-03 2.45497E-25 3.30595E-03 3.08236E-14-3.52639E-13
 -1        94-1.45623E-04-1.44816E-03 7.28326E-26 2.90739E-03 1.67863E-14-2.01441E-13
 -1        95 1.39960E-05-1.36293E-03 1.00739E-26 2.41966E-03 1.67213E-14-8.20441E-14
 -1        96 9.53697E-05-1.33414E-03 2.08866E-27 2.04439E-03 1.98655E-14-3.15459E-14
 -1        97 1.50503E-04-1.29676E-03 9.86863E-27 1.81257E-03 2.03312E-14-7.42151E-14
 -1        98 1.38107E-04-1.25540E-03 5.57392E-26 1.55835E-03 1.81824E-14-1.68489E-13
 -1        99 2.20084E-04-1.22679E-03 7.09074E-26 1.16743E-03 1.80206E-14-1.88124E-13
 -1       100 2.20495E-04-1.17982E-03 3.52774E-26 7.63351E-04 4.45646E-15-1.35777E-13
 -1       101 1.91787E-04-1.08745E-03 9.63293E-27 5.63119E-04-1.35319E-14-7.35855E-14
 -1       102 1.07250E-04-9.74259E-04 6.86734E-27 6.18931E-04-3.63824E-14-5.01064E-14
 -1       103 1.26044E-04-8.62872E-04 1.99933E-26 7.88119E-04-6.22173E-14-8.03695E-14
 -1       104 8.45859E-05-7.29268E-04 2.74456E-26 9.08388E-04-7.78977E-14-9.73844E-14
 -1       105 2.48750E-05-5.57313E-04 4.16140E-27 9.17807E-04-9.97809E-14-1.03899E-14
 -1       106-7.91935E-05-3.66839E-04 4.79689E-26 8.02909E-04-1.17872E-13 1.77566E-13
 -1       107-1.25857E-04-1.93329E-04 4.57318E-25 4.98694E-04-1.17236E-13 5.03897E-13
 -1       108-1.25857E-04-1.93329E-04 4.57325E-25 4.98694E-04-1.17225E-13 5.03920E-13
 -1       109-7.91935E-05-3.66839E-04 4.79642E-26 8.02909E-04-1.17885E-13 1.77518E-13
 -1       110 2.48750E-05-5.57313E-04 4.16723E-27 9.17807E-04-9.97646E-14-1.03613E-14
 -1       111 8.45859E-05-7.29268E-04 2.74449E-26 9.08388E-04-7.78962E-14-9.73816E-14
 -1       112 1.26044E-04-8.62872E-04 1.99978E-26 7.88119E-04-6.22168E-14-8.03835E-14
 -1       113 1.07250E-04-9.74259E-04 6.86862E-27 6.18931E-04-3.63890E-14-5.01097E-14
 -1       114 1.91787E-04-1.08745E-03 9.63367E-27 5.63119E-04-1.35233E-14-7.35887E-14
 -1       115 2.20495E-04-1.17982E-03 3.52908E-26 7.63351E-04 4.44595E-15-1.35800E-13
 -1       116 2.20084E-04-1.22679E-03 7.08980E-26 1.16743E-03 1.80277E-14-1.88109E-13
 -1       117 1.38107E-04-1.25540E-03 5.57255E-26 1.55835E-03 1.81861E-14-1.68466E-13
 -1       118 1.50503E-04-1.29676E-03 9.87159E-27 1.81257E-03 2.03263E-14-7.42196E-14
 -1       119 9.53697E-05-1.33414E-03 2.08837E-27 2.04439E-03 1.98652E-14-3.15450E-14
 -1       120 1.39960E-05-1.36293E-03 1.00804E-26 2.41966E-03 1.67192E-14-8.20598E-14
 -1       121-1.45623E-04-1.44816E-03 7.28285E-26 2.90739E-03 1.67884E-14-2.01435E-13
 -1       122-2.03392E-04-1.65294E-03 2.45489E-25 3.30595E-03 3.08263E-14-3.52634E-13
 -1       123-3.35164E-04-1.95952E-03 3.25116E-25 3.47146E-03 4.52909E-14-4.01492E-13
 -1       124-4.74691E-04-2.29768E-03 1.69700E-25 3.33498E-03 4.40768E-14-2.96457E-13
 -1       125-7.92245E-04-2.59064E-03 1.26729E-26 3.38353E-03 3.49351E-14-1.02163E-13
 -1       126-5.04074E-04-3.23830E-03-8.58033E-28 1.55234E-03 2.06042E-14-1.30673E-14
 -3
    1PSTEP                       380          95           1          
  100CL  195 9.50000E-01         126                     1   95           1
 -4  ERROR       1    1
 -5  STR(%)      1    1    0    0
 -1         1 6.65436E+01
 -1         2 6.65436E+01
 -1         3 5.11555E+01
 -1         4 5.11555E+01
 -1         5 2.65151E+01
 -1         6 2.65151E+01
 -1         7 5.61232E+01
 -1         8 5.61232E+01
 -1         9 5.11555E+01
 -1        10 5.11555E+01
 -1        11 6.65436E+01
 -1        12 6.65436E+01
 -1        13 6.65436E+01
 -1        14 6.62380E+01
 -1        15 6.63162E+01
 -1        16 6.63409E+01
 -1        17 6.64595E+01
 -1        18 6.65988E+01
 -1        19 6.71089E+01
 -1        20 6.78801E+01
 -1        21 6.90297E+01
 -1        22 7.01172E+01
 -1        23 7.10838E+01
 -1        24 7.10838E+01
 -1        25 7.13083E+01
 -1        26 7.19923E+01
 -1        27 7.33626E+01
 -1        28 7.38307E+01
 -1        29 7.38307E+01
 -1        30 7.22623E+01
 -1        31 6.54676E+01
 -1        32 6.65436E+01
 -1        33 6.62380E+01
 -1        34 6.63162E+01
 -1        35 6.63409E+01
 -1        36 6.64595E+01
 -1        37 6.65988E+01
 -1        38 6.71089E+01
 -1        39 6.78801E+01
 -1        40 6.90297E+01
 -1        41 7.01172E+01
 -1        42 7.10838E+01
 -1        43 7.10838E+01
 -1        44 7.13083E+01
 -1        45 7.19923E+01
 -1        46 7.33626E+01
 -1        47 7.38307E+01
 -1        48 7.38307E+01
 -1        49 7.22623E+01
 -1        50 6.54676E+01
 -1        51 3.99397E+01
 -1        52 4.87821E+01
 -1        53 5.22930E+01
 -1        54 5.34937E+01
 -1        55 5.38109E+01
 -1        56 5.38109E+01
 -1        57 5.35039E+01
 -1        58 5.43173E+01
 -1        59 5.54298E+01
 -1        60 5.61456E+01
 -1        61 5.67246E+01
 -1        62 5.72202E+01
 -1        63 5.76656E+01
 -1        64 5.77164E+01
 -1        65 5.77164E+01
 -1        66 5.74900E+01
 -1        67 5.70192E+01
 -1        68 5.66103E+01
 -1        69 5.62282E+01
 -1        70 3.99397E+01
 -1        71 4.87821E+01
 -1        72 5.22930E+01
 -1        73 5.34937E+01
 -1        74 5.38109E+01
 -1        75 5.38109E+01
 -1        76 5.35039E+01
 -1        77 5.43173E+01
 -1        78 5.54298E+01
 -1        79 5.61456E+01
 -1        80 5.67246E+01
 -1        81 5.72202E+01
 -1        82 5.76656E+01
 -1        83 5.77164E+01
 -1        84 5.77164E+01
 -1        85 5.74900E+01
 -1        86 5.70192E+01
 -1        87 5.66103E+01
 -1        88 5.62282E+01
 -1        89 6.65436E+01
 -1        90 6.62380E+01
 -1        91 6.63162E+01
 -1        92 6.63409E+01
 -1        93 6.64595E+01
 -1        94 6.65988E+01
 -1        95 6.71089E+01
 -1        96 6.78801E+01
 -1        97 6.90297E+01
 -1        98 7.01172E+01
 -1        99 7.10838E+01
 -1       100 7.10838E+01
 -1       101 7.13083E+01
 -1       102 7.19923E+01
 -1       103 7.33626E+01
 -1       104 7.38307E+01
 -1       105 7.38307E+01
 -1       106 7.22623E+01
 -1       107 6.54676E+01
 -1       108 6.54676E+01
 -1       109 7.22623E+01
 -1       110 7.38307E+01
 -1       111 7.38307E+01
 -1       112 7.33626E+01
 -1       113 7.19923E+01
 -1       114 7.13083E+01
 -1       115 7.10838E+01
 -1       116 7.10838E+01
 -1       117 7.01172E+01
 -1       118 6.90297E+01
 -1       119 6.78801E+01
 -1       120 6.71089E+01
 -1       121 6.65988E+01
 -1       122 6.64595E+01
 -1       123 6.63409E+01
 -1       124 6.63162E+01
 -1       125 6.62380E+01
 -1       126 6.65436E+01
 -3
    1PSTEP                       381          96           1          
  100CL  196 9.60000E-01         126                     1   96           1
 -4  DISP        4    1
 -5  D1          1    2    1    0
 -5  D2          1    2    2    0
 -5  D3          1    2    3    0
 -5  ALL         1    2    0    0    1ALL
 -1         1 0.00000E+00 0.00000E+00 0.00000E+00
 -1         2 0.00000E+00 0.00000E+00 0.00000E+00
 -1         3 3.80972E-01-5.99923E-02 0.00000E+00
 -1         4 3.80972E-01-5.99923E-02 0.00000E+00
 -1         5 3.67706E-01-1.09737E-01 0.00000E+00
 -1         6 3.67706E-01-1.09737E-01 0.00000E+00
 -1         7 0.00000E+00 0.00000E+00 0.00000E+00
 -1         8 0.00000E+00 0.00000E+00 0.00000E+00
 -1         9 3.74334E-01-8.48637E-02 0.00000E+00
 -1        10 3.74334E-01-8.48637E-02 0.00000E+00
 -1        11 0.00000E+00 0.00000E+00 0.00000E+00
 -1        12 0.00000E+00 0.00000E+00 0.00000E+00
 -1        13 2.54436E-03 3.24481E-03 0.00000E+00
 -1        14 8.31078E-03 6.22971E-03 0.00000E+00
 -1        15 1.77003E-02 8.37836E-03 0.00000E+00
 -1        16 3.01265E-02 9.51483E-03 0.00000E+00
 -1        17 4.50227E-02 9.55998E-03 0.00000E+00
 -1        18 6.18519E-02 8.58102E-03 0.00000E+00
 -1        19 8.01903E-02 6.71028E-03 0.00000E+00
 -1        20 9.97578E-02 4.07104E-03 0.00000E+00
 -1        21 1.20332E-01 7.69416E-04 0.00000E+00
 -1        22 1.41732E-01-3.10232E-03 0.00000E+00
 -1        23 1.63795E-01-7.44609E-03 0.00000E+00
 -1        24 1.86427E-01-1.21814E-02 0.00000E+00
 -1        25 2.09572E-01-1.72500E-02 0.00000E+00
 -1        26 2.33200E-01-2.26299E-02 0.00000E+00
 -1        27 2.57249E-01-2.83057E-02 0.00000E+00
 -1        28 2.81649E-01-3.42593E-02 0.00000E+00
 -1        29 3.06309E-01-4.04517E-02 0.00000E+00
 -1        30 3.31146E-01-4.68429E-02 0.00000E+00
 -1        31 3.56064E-01-5.33812E-02 0.00000E+00
 -1        32 2.54436E-03 3.24481E-03 0.00000E+00
 -1        33 8.31078E-03 6.22971E-03 0.00000E+00
 -1        34 1.77003E-02 8.37836E-03 0.00000E+00
 -1        35 3.01265E-02 9.51483E-03 0.00000E+00
 -1        36 4.50227E-02 9.55998E-03 0.00000E+00
 -1        37 6.18519E-02 8.58102E-03 0.00000E+00
 -1        38 8.01903E-02 6.71028E-03 0.00000E+00
 -1        39 9.97578E-02 4.07104E-03 0.00000E+00
 -1        40 1.20332E-01 7.69416E-04 0.00000E+00
 -1        41 1.41732E-01-3.10232E-03 0.00000E+00
 -1        42 1.63795E-01-7.44609E-03 0.00000E+00
 -1        43 1.86427E-01-1.21814E-02 0.00000E+00
 -1        44 2.09572E-01-1.72500E-02 0.00000E+00
 -1        45 2.33200E-01-2.26299E-02 0.00000E+00
 -1        46 2.57249E-01-2.83057E-02 0.00000E+00
 -1        47 2.81649E-01-3.42593E-02 0.00000E+00
 -1        48 3.06309E-01-4.04517E-02 0.00000E+00
 -1        49 3.31146E-01-4.68429E-02 0.00000E+00
 -1        50 3.56064E-01-5.33812E-02 0.00000E+00
 -1        51 3.42829E-01-1.03068E-01 0.00000E+00
 -1        52 3.18018E-01-9.63443E-02 0.00000E+00
 -1        53 2.93388E-01-8.96067E-02 0.00000E+00
 -1        54 2.69021E-01-8.29036E-02 0.00000E+00
 -1        55 2.44995E-01-7.62809E-02 0.00000E+00
 -1        56 2.21387E-01-6.97855E-02 0.00000E+00
 -1        57 1.98265E-01-6.34667E-02 0.00000E+00
 -1        58 1.75661E-01-5.73496E-02 0.00000E+00
 -1        59 1.53616E-01-5.14361E-02 0.00000E+00
 -1        60 1.32206E-01-4.57174E-02 0.00000E+00
 -1        61 1.11566E-01-4.02007E-02 0.00000E+00
 -1        62 9.18575E-02-3.49038E-02 0.00000E+00
 -1        63 7.32701E-02-2.98468E-02 0.00000E+00
 -1        64 5.60232E-02-2.50291E-02 0.00000E+00
 -1        65 4.04077E-02-2.04315E-02 0.00000E+00
 -1        66 2.67898E-02-1.60246E-02 0.00000E+00
 -1        67 1.56136E-02-1.17915E-02 0.00000E+00
 -1        68 7.27418E-03-7.72354E-03 0.00000E+00
 -1        69 2.27339E-03-3.73288E-03 0.00000E+00
 -1        70 3.42829E-01-1.03068E-01 0.00000E+00
 -1        71 3.18018E-01-9.63443E-02 0.00000E+00
 -1        72 2.93388E-01-8.96067E-02 0.00000E+00
 -1        73 2.69021E-01-8.29036E-02 0.00000E+00
 -1        74 2.44995E-01-7.62809E-02 0.00000E+00
 -1        75 2.21387E-01-6.97855E-02 0.00000E+00
 -1        76 1.98265E-01-6.34667E-02 0.00000E+00
 -1        77 1.75661E-01-5.73496E-02 0.00000E+00
 -1        78 1.53616E-01-5.14361E-02 0.00000E+00
 -1        79 1.32206E-01-4.57174E-02 0.00000E+00
 -1        80 1.11566E-01-4.02007E-02 0.00000E+00
 -1        81 9.18575E-02-3.49038E-02 0.00000E+00
 -1        82 7.32701E-02-2.98468E-02 0.00000E+00
 -1        83 5.60232E-02-2.50291E-02 0.00000E+00
 -1        84 4.04077E-02-2.04315E-02 0.00000E+00
 -1        85 2.67898E-02-1.60246E-02 0.00000E+00
 -1        86 1.56136E-02-1.17915E-02 0.00000E+00
 -1        87 7.27418E-03-7.72354E-03 0.00000E+00
 -1        88 2.27339E-03-3.73288E-03 0.00000E+00
 -1        89 1.49256E-03-1.94764E-04 0.00000E+00
 -1        90 7.10710E-03-6.37431E-04 0.00000E+00
 -1        91 1.60300E-02-1.55936E-03 0.00000E+00
 -1        92 2.79348E-02-3.10067E-03 0.00000E+00
 -1        93 4.22860E-02-5.28909E-03 0.00000E+00
 -1        94 5.85883E-02-8.09055E-03 0.00000E+00
 -1        95 7.64457E-02-1.14495E-02 0.00000E+00
 -1        96 9.55726E-02-1.53124E-02 0.00000E+00
 -1        97 1.15754E-01-1.96257E-02 0.00000E+00
 -1        98 1.36807E-01-2.43315E-02 0.00000E+00
 -1        99 1.58570E-01-2.93728E-02 0.00000E+00
 -1       100 1.80924E-01-3.47047E-02 0.00000E+00
 -1       101 2.03810E-01-4.03029E-02 0.00000E+00
 -1       102 2.27197E-01-4.61565E-02 0.00000E+00
 -1       103 2.51041E-01-5.22490E-02 0.00000E+00
 -1       104 2.75270E-01-5.85463E-02 0.00000E+00
 -1       105 2.99800E-01-6.50038E-02 0.00000E+00
 -1       106 3.24552E-01-7.15776E-02 0.00000E+00
 -1       107 3.49434E-01-7.82180E-02 0.00000E+00
 -1       108 3.49434E-01-7.82180E-02 0.00000E+00
 -1       109 3.24552E-01-7.15776E-02 0.00000E+00
 -1       110 2.99800E-01-6.50038E-02 0.00000E+00
 -1       111 2.75270E-01-5.85463E-02 0.00000E+00
 -1       112 2.51041E-01-5.22490E-02 0.00000E+00
 -1       113 2.27197E-01-4.61565E-02 0.00000E+00
 -1       114 2.03810E-01-4.03029E-02 0.00000E+00
 -1       115 1.80924E-01-3.47047E-02 0.00000E+00
 -1       116 1.58570E-01-2.93728E-02 0.00000E+00
 -1       117 1.36807E-01-2.43315E-02 0.00000E+00
 -1       118 1.15754E-01-1.96257E-02 0.00000E+00
 -1       119 9.55726E-02-1.53124E-02 0.00000E+00
 -1       120 7.64457E-02-1.14495E-02 0.00000E+00
 -1       121 5.85883E-02-8.09055E-03 0.00000E+00
 -1       122 4.22860E-02-5.28909E-03 0.00000E+00
 -1       123 2.79348E-02-3.10067E-03 0.00000E+00
 -1       124 1.60300E-02-1.55936E-03 0.00000E+00
 -1       125 7.10710E-03-6.37431E-04 0.00000E+00
 -1       126 1.49256E-03-1.94764E-04 0.00000E+00
 -3
    1PSTEP                       382          96           1          
  100CL  196 9.60000E-01         126                     1   96           1
 -4  STRESS      6    1
 -5  SXX         1    4    1    1
 -5  SYY         1    4    2    2
 -5  SZZ         1    4    3    3
 -5  SXY         1    4    1    2
 -5  SYZ         1    4    2    3
 -5  SZX         1    4    3    1
 -1         1 1.54270E+04 3.81083E+04 1.47923E+04 9.42869E+03-8.95161E-11-1.62625E-10
 -1         2 1.54270E+04 3.81083E+04 1.47923E+04 9.42869E+03-8.95161E-11-1.62625E-10
 -1         3 1.23182E+02 1.57654E+02 8.41779E+01 1.39889E+02-4.64229E-08 6.92186E-08
 -1         4 1.23182E+02 1.57654E+02 8.41779E+01 1.39889E+02-4.64266E-08 6.92225E-08
 -1         5-1.70884E+02-4.02702E+02-1.72238E+02-5.31699E+01-1.16776E-07 1.34425E-08
 -1         6-1.70884E+02-4.02702E+02-1.72238E+02-5.31699E+01-1.16776E-07 1.34619E-08
 -1         7-1.72432E+04-3.62476E+04-1.76536E+04 5.45441E+03-9.66608E-11 1.83541E-10
 -1         8-1.72432E+04-3.62476E+04-1.76536E+04 5.45441E+03-9.66606E-11 1.83533E-10
 -1         9-6.90604E+00-1.58325E+02-4.95850E+01 5.42214E+01-8.42298E-08 3.55990E-08
 -1        10-6.90604E+00-1.58325E+02-4.95850E+01 5.42214E+01-8.42229E-08 3.55872E-08
 -1        11-7.18517E+02-2.84984E+03-7.96041E+02 4.50057E+03-5.11120E-11 2.24411E-11
 -1        12-7.18517E+02-2.84984E+03-7.96041E+02 4.50057E+03-5.11124E-11 2.24559E-11
 -1        13 5.90765E+03 3.38484E+04 1.09807E+04 3.44545E+03-1.04317E-08-8.35905E-09
 -1        14 7.71856E+03 3.24439E+04 1.11226E+04 4.19798E+03-1.30773E-08-2.55828E-08
 -1        15 7.42053E+03 2.79421E+04 9.87606E+03 5.46379E+03-1.57150E-09-5.19178E-08
 -1        16 7.13776E+03 2.32653E+04 8.57487E+03 5.74688E+03 1.46856E-08-4.54815E-08
 -1        17 6.49919E+03 1.87363E+04 7.19011E+03 5.43264E+03 3.29510E-08-1.81448E-08
 -1        18 5.67638E+03 1.49378E+04 5.92726E+03 4.81337E+03 2.29619E-08 4.48456E-08
 -1        19 4.94449E+03 1.20036E+04 4.90992E+03 4.13881E+03-1.69231E-08 1.02585E-07
 -1        20 4.26169E+03 9.69491E+03 4.06792E+03 3.54044E+03-6.54882E-08 1.05183E-07
 -1        21 3.64964E+03 7.84697E+03 3.36782E+03 3.00630E+03-7.08006E-08 4.55265E-08
 -1        22 3.06636E+03 6.38094E+03 2.77925E+03 2.53541E+03-4.57457E-08-1.97778E-08
 -1        23 2.64874E+03 5.35691E+03 2.36282E+03 2.13750E+03-1.23946E-09-6.48361E-08
 -1        24 2.32644E+03 4.65199E+03 2.06399E+03 1.87321E+03 3.06596E-08-7.55524E-08
 -1        25 2.10552E+03 4.12514E+03 1.84520E+03 1.70442E+03 4.38495E-08-6.17898E-08
 -1        26 1.88158E+03 3.57973E+03 1.61941E+03 1.55960E+03 2.34689E-08-3.34598E-08
 -1        27 1.67797E+03 2.98844E+03 1.38599E+03 1.35734E+03 3.16299E-09-3.52353E-08
 -1        28 1.38508E+03 2.31286E+03 1.10043E+03 1.12200E+03-7.69170E-09-4.65661E-08
 -1        29 1.04307E+03 1.61406E+03 7.92199E+02 8.61095E+02-7.95264E-09-5.87423E-08
 -1        30 6.48201E+02 9.06589E+02 4.64413E+02 5.82731E+02-9.45968E-09-2.60133E-08
 -1        31 2.90955E+02 3.55376E+02 1.93429E+02 2.90094E+02-2.41068E-08 1.85581E-08
 -1        32 5.90765E+03 3.38484E+04 1.09807E+04 3.44545E+03-1.04317E-08-8.35904E-09
 -1        33 7.71856E+03 3.24439E+04 1.11226E+04 4.19798E+03-1.30773E-08-2.55828E-08
 -1        34 7.42053E+03 2.79421E+04 9.87606E+03 5.46379E+03-1.57151E-09-5.19178E-08
 -1        35 7.13776E+03 2.32653E+04 8.57487E+03 5.74688E+03 1.46855E-08-4.54815E-08
 -1        36 6.49919E+03 1.87363E+04 7.19011E+03 5.43264E+03 3.29511E-08-1.81452E-08
 -1        37 5.67638E+03 1.49378E+04 5.92726E+03 4.81337E+03 2.29616E-08 4.48439E-08
 -1        38 4.94449E+03 1.20036E+04 4.90992E+03 4.13881E+03-1.69229E-08 1.02591E-07
 -1        39 4.26169E+03 9.69491E+03 4.06792E+03 3.54044E+03-6.54882E-08 1.05185E-07
 -1        40 3.64964E+03 7.84697E+03 3.36782E+03 3.00630E+03-7.08005E-08 4.55265E-08
 -1        41 3.06636E+03 6.38094E+03 2.77925E+03 2.53541E+03-4.57462E-08-1.97778E-08
 -1        42 2.64874E+03 5.35691E+03 2.36282E+03 2.13750E+03-1.23921E-09-6.48314E-08
 -1        43 2.32644E+03 4.65199E+03 2.06399E+03 1.87321E+03 3.06597E-08-7.55570E-08
 -1        44 2.10552E+03 4.12514E+03 1.84520E+03 1.70442E+03 4.38484E-08-6.17844E-08
 -1        45 1.88158E+03 3.57973E+03 1.61941E+03 1.55960E+03 2.34699E-08-3.34741E-08
 -1        46 1.67797E+03 2.98844E+03 1.38599E+03 1.35734E+03 3.16297E-09-3.52391E-08
 -1        47 1.38508E+03 2.31286E+03 1.10043E+03 1.12200E+03-7.69169E-09-4.65582E-08
 -1        48 1.04307E+03 1.61406E+03 7.92199E+02 8.61095E+02-7.95258E-09-5.87257E-08
 -1        49 6.48201E+02 9.06589E+02 4.64413E+02 5.82731E+02-9.45781E-09-2.60065E-08
 -1        50 2.90955E+02 3.55376E+02 1.93429E+02 2.90094E+02-2.41068E-08 1.85563E-08
 -1        51-3.02045E+02-7.68069E+02-3.21828E+02-1.55989E+02-9.53158E-08-2.06135E-08
 -1        52-6.14144E+02-1.52238E+03-6.44061E+02-4.21498E+02-5.61524E-08-5.12992E-08
 -1        53-9.85439E+02-2.30776E+03-9.95248E+02-7.37032E+02-2.32660E-08-5.59260E-08
 -1        54-1.36157E+03-3.08021E+03-1.34574E+03-1.03762E+03-1.24771E-08-4.41429E-08
 -1        55-1.71316E+03-3.81235E+03-1.67812E+03-1.31534E+03-1.17591E-08-3.27229E-08
 -1        56-2.03847E+03-4.46591E+03-1.97956E+03-1.55083E+03-6.79441E-09-4.40960E-08
 -1        57-2.25698E+03-5.00896E+03-2.21513E+03-1.73765E+03 1.53902E-08-7.49094E-08
 -1        58-2.44579E+03-5.60286E+03-2.45783E+03-1.87803E+03 3.72129E-08-7.25767E-08
 -1        59-2.67291E+03-6.42084E+03-2.78333E+03-2.03699E+03 5.03163E-08-3.88252E-08
 -1        60-3.02604E+03-7.58055E+03-3.25732E+03-2.26103E+03 4.52010E-08 1.66889E-08
 -1        61-3.45624E+03-9.05302E+03-3.85861E+03-2.55838E+03 1.00720E-08 8.61729E-08
 -1        62-3.99038E+03-1.08694E+04-4.60788E+03-2.87291E+03-4.15619E-08 1.08058E-07
 -1        63-4.60817E+03-1.31100E+04-5.52945E+03-3.17529E+03-7.57376E-08 7.58014E-08
 -1        64-5.35718E+03-1.59504E+04-6.70438E+03-3.44571E+03-6.18022E-08 1.48922E-08
 -1        65-6.20005E+03-1.94459E+04-8.15437E+03-3.65139E+03-2.70089E-08-4.06918E-08
 -1        66-7.17479E+03-2.34576E+04-9.85886E+03-3.67585E+03 2.77291E-09-4.97983E-08
 -1        67-8.01185E+03-2.74230E+04-1.15416E+04-3.33149E+03 1.66846E-08-4.13607E-08
 -1        68-9.33488E+03-3.12377E+04-1.33571E+04-2.67525E+03 1.67669E-08-2.00770E-08
 -1        69-7.18689E+03-3.20222E+04-1.29726E+04-6.18328E+02 9.79774E-09-4.73214E-09
 -1        70-3.02045E+02-7.68069E+02-3.21828E+02-1.55989E+02-9.53163E-08-2.06499E-08
 -1        71-6.14144E+02-1.52238E+03-6.44061E+02-4.21498E+02-5.61591E-08-5.12643E-08
 -1        72-9.85439E+02-2.30776E+03-9.95248E+02-7.37032E+02-2.32642E-08-5.59349E-08
 -1        73-1.36157E+03-3.08021E+03-1.34574E+03-1.03762E+03-1.24771E-08-4.41154E-08
 -1        74-1.71316E+03-3.81235E+03-1.67812E+03-1.31534E+03-1.17591E-08-3.27303E-08
 -1        75-2.03847E+03-4.46591E+03-1.97956E+03-1.55083E+03-6.79334E-09-4.40944E-08
 -1        76-2.25698E+03-5.00896E+03-2.21513E+03-1.73765E+03 1.53894E-08-7.49115E-08
 -1        77-2.44579E+03-5.60286E+03-2.45783E+03-1.87803E+03 3.72120E-08-7.25807E-08
 -1        78-2.67291E+03-6.42084E+03-2.78333E+03-2.03699E+03 5.03195E-08-3.88114E-08
 -1        79-3.02604E+03-7.58055E+03-3.25732E+03-2.26103E+03 4.52035E-08 1.66881E-08
 -1        80-3.45624E+03-9.05302E+03-3.85861E+03-2.55838E+03 1.00742E-08 8.61759E-08
 -1        81-3.99038E+03-1.08694E+04-4.60788E+03-2.87291E+03-4.15619E-08 1.08058E-07
 -1        82-4.60817E+03-1.31100E+04-5.52945E+03-3.17529E+03-7.57375E-08 7.58064E-08
 -1        83-5.35718E+03-1.59504E+04-6.70438E+03-3.44571E+03-6.18027E-08 1.48972E-08
 -1        84-6.20005E+03-1.94459E+04-8.15437E+03-3.65139E+03-2.70086E-08-4.06936E-08
 -1        85-7.17479E+03-2.34576E+04-9.85886E+03-3.67585E+03 2.77293E-09-4.97985E-08
 -1        86-8.01185E+03-2.74230E+04-1.15416E+04-3.33149E+03 1.66847E-08-4.13606E-08
 -1        87-9.33488E+03-3.12377E+04-1.33571E+04-2.67525E+03 1.67669E-08-2.00770E-08
 -1        88-7.18689E+03-3.20222E+04-1.29726E+04-6.18328E+02 9.79771E-09-4.73211E-09
 -1        89-1.80908E+02-2.72498E+03-7.90852E+02 6.47980E+01 2.53765E-09-4.17044E-09
 -1        90-2.52860E+02-2.59498E+03-7.17355E+02 6.51999E+02 4.48201E-09-2.48282E-08
 -1        91 4.29272E+01-2.34419E+03-5.93556E+02 6.85755E+02 7.29711E-09-4.83149E-08
 -1        92 2.35765E+02-2.07952E+03-4.78231E+02 7.38504E+02 7.98563E-09-5.50629E-08
 -1        93 3.33289E+02-1.75630E+03-3.73223E+02 6.60691E+02 1.76030E-11-3.38837E-08
 -1        94 2.99295E+02-1.47062E+03-3.14156E+02 5.21527E+02-2.37609E-08 2.61613E-08
 -1        95 2.71264E+02-1.22743E+03-2.61368E+02 3.66688E+02-5.05743E-08 9.57188E-08
 -1        96 2.12951E+02-1.06982E+03-2.39747E+02 2.52572E+02-5.39479E-08 1.16894E-07
 -1        97 1.62949E+02-9.45963E+02-2.22957E+02 1.71890E+02-3.01594E-08 7.06012E-08
 -1        98 7.68847E+01-8.44324E+02-2.21742E+02 1.04670E+02 3.01193E-09-1.43428E-09
 -1        99 2.49030E+01-7.14880E+02-2.00661E+02 2.25870E+01 2.73807E-08-5.64280E-08
 -1       100-4.09694E+01-6.15265E+02-1.92106E+02-3.17195E+01 3.66380E-08-8.10491E-08
 -1       101-5.67035E+01-5.48291E+02-1.77945E+02-3.99422E+01 2.94589E-08-7.07744E-08
 -1       102-4.72810E+01-5.33083E+02-1.71528E+02-5.28263E+00 7.95344E-09-3.75019E-08
 -1       103 2.06519E+01-5.00188E+02-1.42025E+02 2.38024E+01-4.74560E-09-3.26713E-08
 -1       104 5.27945E+01-4.65272E+02-1.22618E+02 5.40619E+01-1.06058E-08-4.64603E-08
 -1       105 7.73331E+01-4.13698E+02-1.00403E+02 8.34390E+01-1.35525E-08-5.87553E-08
 -1       106 7.26978E+01-3.61194E+02-8.64304E+01 1.09556E+02-3.01967E-08-4.28969E-08
 -1       107 3.21189E+01-2.48249E+02-6.48133E+01 8.84035E+01-6.04614E-08-2.34611E-09
 -1       108 3.21189E+01-2.48249E+02-6.48133E+01 8.84035E+01-6.04613E-08-2.32497E-09
 -1       109 7.26978E+01-3.61194E+02-8.64304E+01 1.09556E+02-3.01996E-08-4.29160E-08
 -1       110 7.73331E+01-4.13698E+02-1.00403E+02 8.34390E+01-1.35518E-08-5.87505E-08
 -1       111 5.27945E+01-4.65272E+02-1.22618E+02 5.40619E+01-1.06061E-08-4.64787E-08
 -1       112 2.06519E+01-5.00188E+02-1.42025E+02 2.38024E+01-4.74537E-09-3.26631E-08
 -1       113-4.72810E+01-5.33083E+02-1.71528E+02-5.28263E+00 7.95131E-09-3.75031E-08
 -1       114-5.67035E+01-5.48291E+02-1.77945E+02-3.99422E+01 2.94606E-08-7.07712E-08
 -1       115-4.09694E+01-6.15265E+02-1.92106E+02-3.17195E+01 3.66378E-08-8.10395E-08
 -1       116 2.49030E+01-7.14880E+02-2.00661E+02 2.25870E+01 2.73798E-08-5.64386E-08
 -1       117 7.68847E+01-8.44324E+02-2.21742E+02 1.04670E+02 3.01250E-09-1.43438E-09
 -1       118 1.62949E+02-9.45963E+02-2.22957E+02 1.71890E+02-3.01596E-08 7.06016E-08
 -1       119 2.12951E+02-1.06982E+03-2.39747E+02 2.52572E+02-5.39480E-08 1.16890E-07
 -1       120 2.71264E+02-1.22743E+03-2.61368E+02 3.66688E+02-5.05747E-08 9.57183E-08
 -1       121 2.99295E+02-1.47062E+03-3.14156E+02 5.21527E+02-2.37600E-08 2.61606E-08
 -1       122 3.33289E+02-1.75630E+03-3.73223E+02 6.60691E+02 1.75587E-11-3.38827E-08
 -1       123 2.35765E+02-2.07952E+03-4.78231E+02 7.38504E+02 7.98589E-09-5.50625E-08
 -1       124 4.29272E+01-2.34419E+03-5.93556E+02 6.85755E+02 7.29693E-09-4.83150E-08
 -1       125-2.52860E+02-2.59498E+03-7.17355E+02 6.51999E+02 4.48194E-09-2.48282E-08
 -1       126-1.80908E+02-2.72498E+03-7.90852E+02 6.47980E+01 2.53772E-09-4.17050E-09
 -3
    1PSTEP                       383          96           1          
  100CL  196 9.60000E-01         126                     1   96           1
 -4  TOSTRAIN    6    1
 -5  EXX         1    4    1    1
 -5  EYY         1    4    2    2
 -5  EZZ         1    4    3    3
 -5  EXY         1    4    1    2
 -5  EYZ         1    4    2    3
 -5  EZX         1    4    3    1
 -1         1-4.30902E-04 6.78639E-02-4.39235E-28 2.54434E-02-6.09149E-20-4.31291E-16
 -1         2-4.30902E-04 6.78639E-02-4.39235E-28 2.54434E-02-6.09149E-20-4.31291E-16
 -1         3-2.38114E-04 6.02933E-04 1.27135E-25 1.80791E-04-1.89230E-14 2.70233E-13
 -1         4-2.38114E-04 6.02933E-04 1.27148E-25 1.80791E-04-1.89270E-14 2.70251E-13
 -1         5-3.31417E-05-7.12739E-04 2.81729E-25 2.38539E-04-3.07817E-13 2.26943E-13
 -1         6-3.31417E-05-7.12739E-04 2.81721E-25 2.38539E-04-3.07786E-13 2.26998E-13
 -1         7-4.37889E-04-7.12730E-02-5.10170E-28 2.27337E-02-8.11902E-19 4.89005E-16
 -1         8-4.37889E-04-7.12730E-02-5.10169E-28 2.27337E-02-8.12736E-19 4.88979E-16
 -1         9-1.35628E-04-7.92618E-05 1.62696E-25 3.01492E-04-1.79927E-13 2.36723E-13
 -1        10-1.35628E-04-7.92618E-05 1.62672E-25 3.01492E-04-1.79927E-13 2.36678E-13
 -1        11-4.34396E-04-3.87645E-03-1.36607E-29 1.49254E-02 1.05504E-19 8.49010E-17
 -1        12-4.34396E-04-3.87645E-03-1.36627E-29 1.49254E-02 1.07060E-19 8.49485E-17
 -1        13-1.88599E-02 6.78002E-02 1.90536E-27 4.14122E-03-3.30975E-14-2.42690E-14
 -1        14-1.47086E-02 6.44712E-02 1.32512E-26 1.75865E-03-4.96586E-14-7.50391E-14
 -1        15-1.33809E-02 5.74132E-02 5.44006E-26 2.79253E-03-3.63245E-14-1.61994E-13
 -1        16-1.12551E-02 4.93631E-02 4.62259E-26 2.97801E-03 7.92727E-15-1.53348E-13
 -1        17-9.28656E-03 4.11207E-02 1.54677E-26 2.84020E-03 8.03744E-14-8.79637E-14
 -1        18-7.65239E-03 3.37992E-02 2.59711E-26 2.39596E-03 1.14282E-13 1.10947E-13
 -1        19-6.20150E-03 2.77957E-02 2.11826E-25 1.92742E-03 6.81861E-14 3.28323E-13
 -1        20-5.10395E-03 2.29492E-02 3.15265E-25 1.59043E-03-6.10127E-14 3.96133E-13
 -1        21-4.20560E-03 1.89481E-02 1.25284E-25 1.33579E-03-1.45643E-13 2.28741E-13
 -1        22-3.53562E-03 1.56790E-02 2.47045E-26 1.05692E-03-1.58604E-13 5.52037E-15
 -1        23-2.90686E-03 1.32176E-02 7.61872E-26 7.58881E-04-9.45878E-14-1.86857E-13
 -1        24-2.55133E-03 1.15494E-02 1.38126E-25 5.44011E-04-2.16127E-14-2.63474E-13
 -1        25-2.32757E-03 1.03664E-02 1.17782E-25 4.71852E-04 3.31368E-14-2.43526E-13
 -1        26-2.16506E-03 9.21538E-03 3.15890E-26 5.08833E-04 1.57876E-14-1.31694E-13
 -1        27-1.80632E-03 7.83671E-03 2.48759E-26 5.77935E-04-4.54013E-14-1.05236E-13
 -1        28-1.47514E-03 6.25921E-03 4.56944E-26 6.30296E-04-9.46092E-14-1.19836E-13
 -1        29-1.14091E-03 4.58200E-03 7.14062E-26 6.45038E-04-1.15630E-13-1.53305E-13
 -1        30-8.30147E-04 2.84567E-03 7.95648E-27 6.00505E-04-6.82982E-14-5.81302E-14
 -1        31-4.45322E-04 1.28425E-03 4.21922E-27 3.85406E-04-3.79379E-14 9.13105E-14
 -1        32-1.88599E-02 6.78002E-02 1.90536E-27 4.14122E-03-3.30975E-14-2.42690E-14
 -1        33-1.47086E-02 6.44712E-02 1.32512E-26 1.75865E-03-4.96585E-14-7.50391E-14
 -1        34-1.33809E-02 5.74132E-02 5.44006E-26 2.79253E-03-3.63246E-14-1.61994E-13
 -1        35-1.12551E-02 4.93631E-02 4.62259E-26 2.97801E-03 7.92679E-15-1.53347E-13
 -1        36-9.28656E-03 4.11207E-02 1.54681E-26 2.84020E-03 8.03741E-14-8.79652E-14
 -1        37-7.65239E-03 3.37992E-02 2.59642E-26 2.39596E-03 1.14279E-13 1.10942E-13
 -1        38-6.20150E-03 2.77957E-02 2.11849E-25 1.92742E-03 6.81937E-14 3.28342E-13
 -1        39-5.10395E-03 2.29492E-02 3.15274E-25 1.59043E-03-6.10103E-14 3.96138E-13
 -1        40-4.20560E-03 1.89481E-02 1.25284E-25 1.33579E-03-1.45643E-13 2.28741E-13
 -1        41-3.53562E-03 1.56790E-02 2.47047E-26 1.05692E-03-1.58606E-13 5.52100E-15
 -1        42-2.90686E-03 1.32176E-02 7.61745E-26 7.58881E-04-9.45803E-14-1.86844E-13
 -1        43-2.55133E-03 1.15494E-02 1.38141E-25 5.44011E-04-2.16191E-14-2.63488E-13
 -1        44-2.32757E-03 1.03664E-02 1.17770E-25 4.71852E-04 3.31418E-14-2.43508E-13
 -1        45-2.16506E-03 9.21538E-03 3.16150E-26 5.08833E-04 1.57689E-14-1.31736E-13
 -1        46-1.80632E-03 7.83671E-03 2.48823E-26 5.77935E-04-4.54073E-14-1.05246E-13
 -1        47-1.47514E-03 6.25921E-03 4.56801E-26 6.30296E-04-9.45967E-14-1.19814E-13
 -1        48-1.14091E-03 4.58200E-03 7.13635E-26 6.45038E-04-1.15604E-13-1.53258E-13
 -1        49-8.30147E-04 2.84567E-03 7.93535E-27 6.00505E-04-6.82820E-14-5.81137E-14
 -1        50-4.45322E-04 1.28425E-03 4.20998E-27 3.85406E-04-3.79408E-14 9.13052E-14
 -1        51 1.26899E-04-1.51933E-03 1.89757E-25 3.98463E-04-3.02772E-13 9.60948E-14
 -1        52 5.48999E-04-3.33291E-03 1.15067E-25 5.75719E-04-2.42228E-13-5.42873E-14
 -1        53 1.03689E-03-5.33430E-03 7.58925E-26 6.09251E-04-1.56351E-13-1.21067E-13
 -1        54 1.48053E-03-7.28490E-03 4.44166E-26 6.07551E-04-1.06273E-13-1.05640E-13
 -1        55 1.89491E-03-9.12515E-03 2.54416E-26 5.76315E-04-8.56201E-14-7.50078E-14
 -1        56 2.21859E-03-1.07392E-02 3.89651E-26 4.93779E-04-8.83982E-14-1.16108E-13
 -1        57 2.55047E-03-1.20778E-02 1.19655E-25 4.42671E-04-6.93227E-14-2.39457E-13
 -1        58 2.82807E-03-1.33906E-02 1.36973E-25 5.38352E-04 1.43411E-15-2.65689E-13
 -1        59 3.18575E-03-1.51338E-02 7.57679E-26 7.82242E-04 9.33440E-14-1.85878E-13
 -1        60 3.66232E-03-1.76224E-02 2.90620E-26 1.07302E-03 1.60000E-13-1.38953E-14
 -1        61 4.37195E-03-2.08759E-02 1.38682E-25 1.34235E-03 1.48937E-13 2.42514E-13
 -1        62 5.17333E-03-2.48325E-02 2.71502E-25 1.62276E-03 1.28663E-14 3.77583E-13
 -1        63 6.12699E-03-2.96441E-02 2.33859E-25 1.98618E-03-1.45210E-13 3.21413E-13
 -1        64 7.29242E-03-3.56904E-02 7.61214E-26 2.44528E-03-1.82443E-13 1.14592E-13
 -1        65 8.84563E-03-4.32112E-02 4.35859E-26 2.88684E-03-1.31631E-13-9.96825E-14
 -1        66 1.05486E-02-5.18501E-02 4.96070E-26 3.05804E-03-3.52909E-14-1.59710E-13
 -1        67 1.23459E-02-6.04176E-02 4.01860E-26 2.93829E-03 2.85106E-14-1.43880E-13
 -1        68 1.30024E-02-6.82682E-02 1.39910E-26 1.77336E-03 5.00100E-14-7.30969E-14
 -1        69 1.78067E-02-7.16649E-02 2.32570E-27 4.29028E-03 3.43803E-14-1.78795E-14
 -1        70 1.26899E-04-1.51933E-03 1.89772E-25 3.98463E-04-3.02832E-13 9.59931E-14
 -1        71 5.48999E-04-3.33291E-03 1.15006E-25 5.75719E-04-2.42191E-13-5.41780E-14
 -1        72 1.03689E-03-5.33430E-03 7.59079E-26 6.09251E-04-1.56361E-13-1.21096E-13
 -1        73 1.48053E-03-7.28490E-03 4.43672E-26 6.07551E-04-1.06229E-13-1.05562E-13
 -1        74 1.89491E-03-9.12515E-03 2.54548E-26 5.76315E-04-8.56320E-14-7.50287E-14
 -1        75 2.21859E-03-1.07392E-02 3.89618E-26 4.93779E-04-8.83926E-14-1.16105E-13
 -1        76 2.55047E-03-1.20778E-02 1.19659E-25 4.42671E-04-6.93282E-14-2.39462E-13
 -1        77 2.82807E-03-1.33906E-02 1.36980E-25 5.38352E-04 1.42577E-15-2.65700E-13
 -1        78 3.18575E-03-1.51338E-02 7.57458E-26 7.82242E-04 9.33737E-14-1.85842E-13
 -1        79 3.66232E-03-1.76224E-02 2.90637E-26 1.07302E-03 1.60006E-13-1.39011E-14
 -1        80 4.37195E-03-2.08759E-02 1.38691E-25 1.34235E-03 1.48947E-13 2.42519E-13
 -1        81 5.17333E-03-2.48325E-02 2.71504E-25 1.62276E-03 1.28669E-14 3.77584E-13
 -1        82 6.12699E-03-2.96441E-02 2.33871E-25 1.98618E-03-1.45204E-13 3.21428E-13
 -1        83 7.29242E-03-3.56904E-02 7.61180E-26 2.44528E-03-1.82439E-13 1.14608E-13
 -1        84 8.84563E-03-4.32112E-02 4.35849E-26 2.88684E-03-1.31631E-13-9.96885E-14
 -1        85 1.05486E-02-5.18501E-02 4.96075E-26 3.05804E-03-3.52910E-14-1.59711E-13
 -1        86 1.23459E-02-6.04176E-02 4.01860E-26 2.93829E-03 2.85110E-14-1.43880E-13
 -1        87 1.30024E-02-6.82682E-02 1.39910E-26 1.77336E-03 5.00100E-14-7.30969E-14
 -1        88 1.78067E-02-7.16649E-02 2.32569E-27 4.29028E-03 3.43802E-14-1.78794E-14
 -1        89-5.26594E-04-3.39907E-03-6.71397E-28 7.73095E-04 7.19304E-15-1.41244E-14
 -1        90-8.53093E-04-2.79900E-03 1.09146E-26 3.11940E-03 3.13010E-15-8.20548E-14
 -1        91-5.17496E-04-2.46814E-03 4.91481E-26 3.60009E-03-8.46095E-15-1.58714E-13
 -1        92-3.53207E-04-2.02907E-03 6.42173E-26 3.96471E-03-2.05834E-14-1.79621E-13
 -1        93-2.20466E-04-1.61289E-03 1.20459E-26 3.71979E-03-3.28706E-14-1.04895E-13
 -1        94-1.79985E-04-1.32782E-03 2.00663E-27 3.14539E-03-4.42364E-14 1.06359E-13
 -1        95-3.72531E-05-1.19536E-03 2.34249E-25 2.53978E-03-3.93447E-14 3.50002E-13
 -1        96 3.46910E-05-1.14243E-03 3.45038E-25 2.07530E-03-1.34958E-14 4.18431E-13
 -1        97 8.31722E-05-1.09689E-03 1.01703E-25 1.72398E-03 4.54684E-15 2.49528E-13
 -1        98 6.33492E-05-1.05709E-03-2.56042E-26 1.37549E-03 6.85144E-15-8.39420E-15
 -1        99 1.39446E-04-1.03272E-03 7.27850E-26 9.97797E-04-7.37215E-16-2.03892E-13
 -1       100 1.38370E-04-9.88969E-04 1.65682E-25 6.93017E-04-1.27203E-14-2.88846E-13
 -1       101 1.11450E-04-8.97094E-04 1.20297E-25 5.81790E-04-2.14244E-14-2.48267E-13
 -1       102 2.67639E-05-7.81405E-04 2.70000E-26 6.48385E-04-3.47264E-14-1.19669E-13
 -1       103 4.42950E-05-6.68070E-04 2.20521E-26 7.55576E-04-6.44968E-14-8.57001E-14
 -1       104 2.69395E-06-5.39378E-04 4.71636E-26 8.09363E-04-1.03605E-13-1.15025E-13
 -1       105-5.20111E-05-3.85958E-04 7.52961E-26 8.24233E-04-1.32288E-13-1.44465E-13
 -1       106-1.40574E-04-2.35105E-04 5.01406E-26 7.88810E-04-1.54341E-13-7.23239E-14
 -1       107-1.59212E-04-1.21920E-04 6.36873E-26 5.38697E-04-1.74344E-13 9.12480E-14
 -1       108-1.59212E-04-1.21920E-04 6.36930E-26 5.38697E-04-1.74310E-13 9.13075E-14
 -1       109-1.40574E-04-2.35105E-04 5.01829E-26 7.88810E-04-1.54380E-13-7.23730E-14
 -1       110-5.20111E-05-3.85958E-04 7.52865E-26 8.24233E-04-1.32278E-13-1.44453E-13
 -1       111 2.69395E-06-5.39378E-04 4.71971E-26 8.09363E-04-1.03635E-13-1.15077E-13
 -1       112 4.42950E-05-6.68070E-04 2.20382E-26 7.55576E-04-6.44834E-14-8.56773E-14
 -1       113 2.67639E-05-7.81405E-04 2.70027E-26 6.48385E-04-3.47344E-14-1.19670E-13
 -1       114 1.11450E-04-8.97094E-04 1.20290E-25 5.81790E-04-2.14144E-14-2.48260E-13
 -1       115 1.38370E-04-9.88969E-04 1.65653E-25 6.93017E-04-1.27067E-14-2.88817E-13
 -1       116 1.39446E-04-1.03272E-03 7.28116E-26 9.97797E-04-7.55203E-16-2.03921E-13
 -1       117 6.33492E-05-1.05709E-03-2.56055E-26 1.37549E-03 6.85294E-15-8.39527E-15
 -1       118 8.31722E-05-1.09689E-03 1.01704E-25 1.72398E-03 4.54669E-15 2.49530E-13
 -1       119 3.46910E-05-1.14243E-03 3.45021E-25 2.07530E-03-1.35002E-14 4.18421E-13
 -1       120-3.72531E-05-1.19536E-03 2.34250E-25 2.53978E-03-3.93466E-14 3.50001E-13
 -1       121-1.79985E-04-1.32782E-03 2.00745E-27 3.14539E-03-4.42343E-14 1.06356E-13
 -1       122-2.20466E-04-1.61289E-03 1.20455E-26 3.71979E-03-3.28697E-14-1.04892E-13
 -1       123-3.53207E-04-2.02907E-03 6.42165E-26 3.96471E-03-2.05822E-14-1.79620E-13
 -1       124-5.17496E-04-2.46814E-03 4.91482E-26 3.60009E-03-8.46158E-15-1.58714E-13
 -1       125-8.53093E-04-2.79900E-03 1.09146E-26 3.11940E-03 3.12987E-15-8.20548E-14
 -1       126-5.26594E-04-3.39907E-03-6.71371E-28 7.73095E-04 7.19324E-15-1.41246E-14
 -3
    1PSTEP                       384          96           1          
  100CL  196 9.60000E-01         126                     1   96           1
 -4  ERROR       1    1
 -5  STR(%)      1    1    0    0
 -1         1 6.60097E+01
 -1         2 6.60097E+01
 -1         3 5.64640E+01
 -1         4 5.64640E+01
 -1         5 3.12657E+01
 -1         6 3.12657E+01
 -1         7 5.54808E+01
 -1         8 5.54808E+01
 -1         9 5.64640E+01
 -1        10 5.64640E+01
 -1        11 6.60097E+01
 -1        12 6.60097E+01
 -1        13 6.60110E+01
 -1        14 6.63864E+01
 -1        15 6.65686E+01
 -1        16 6.65686E+01
 -1        17 6.64826E+01
 -1        18 6.64092E+01
 -1        19 6.67810E+01
 -1        20 6.74117E+01
 -1        21 6.83193E+01
 -1        22 6.89720E+01
 -1        23 6.94702E+01
 -1        24 6.94702E+01
 -1        25 6.97914E+01
 -1        26 7.01557E+01
 -1        27 7.09168E+01
 -1        28 7.10551E+01
 -1        29 7.10551E+01
 -1        30 6.96372E+01
 -1        31 6.21129E+01
 -1        32 6.60110E+01
 -1        33 6.63864E+01
 -1        34 6.65686E+01
 -1        35 6.65686E+01
 -1        36 6.64826E+01
 -1        37 6.64092E+01
 -1        38 6.67810E+01
 -1        39 6.74117E+01
 -1        40 6.83193E+01
 -1        41 6.89720E+01
 -1        42 6.94702E+01
 -1        43 6.94702E+01
 -1        44 6.97914E+01
 -1        45 7.01557E+01
 -1        46 7.09168E+01
 -1        47 7.10551E+01
 -1        48 7.10551E+01
 -1        49 6.96372E+01
 -1        50 6.21129E+01
 -1        51 4.49518E+01
 -1        52 5.28826E+01
 -1        53 5.47660E+01
 -1        54 5.50615E+01
 -1        55 5.51108E+01
 -1        56 5.51108E+01
 -1        57 5.45961E+01
 -1        58 5.50631E+01
 -1        59 5.60063E+01
 -1        60 5.66528E+01
 -1        61 5.72297E+01
 -1        62 5.76855E+01
 -1        63 5.80339E+01
 -1        64 5.80339E+01
 -1        65 5.79777E+01
 -1        66 5.76345E+01
 -1        67 5.69998E+01
 -1        68 5.63491E+01
 -1        69 5.57939E+01
 -1        70 4.49518E+01
 -1        71 5.28826E+01
 -1        72 5.47660E+01
 -1        73 5.50615E+01
 -1        74 5.51108E+01
 -1        75 5.51108E+01
 -1        76 5.45961E+01
 -1        77 5.50631E+01
 -1        78 5.60063E+01
 -1        79 5.66528E+01
 -1        80 5.72297E+01
 -1        81 5.76855E+01
 -1        82 5.80339E+01
 -1        83 5.80339E+01
 -1        84 5.79777E+01
 -1        85 5.76345E+01
 -1        86 5.69998E+01
 -1        87 5.63491E+01
 -1        88 5.57939E+01
 -1        89 6.60110E+01
 -1        90 6.63864E+01
 -1        91 6.65686E+01
 -1        92 6.65686E+01
 -1        93 6.64826E+01
 -1        94 6.64092E+01
 -1        95 6.67810E+01
 -1        96 6.74117E+01
 -1        97 6.83193E+01
 -1        98 6.89720E+01
 -1        99 6.94702E+01
 -1       100 6.94702E+01
 -1       101 6.97914E+01
 -1       102 7.01557E+01
 -1       103 7.09168E+01
 -1       104 7.10551E+01
 -1       105 7.10551E+01
 -1       106 6.96372E+01
 -1       107 6.21129E+01
 -1       108 6.21129E+01
 -1       109 6.96372E+01
 -1       110 7.10551E+01
 -1       111 7.10551E+01
 -1       112 7.09168E+01
 -1       113 7.01557E+01
 -1       114 6.97914E+01
 -1       115 6.94702E+01
 -1       116 6.94702E+01
 -1       117 6.89720E+01
 -1       118 6.83193E+01
 -1       119 6.74117E+01
 -1       120 6.67810E+01
 -1       121 6.64092E+01
 -1       122 6.64826E+01
 -1       123 6.65686E+01
 -1       124 6.65686E+01
 -1       125 6.63864E+01
 -1       126 6.60110E+01
 -3
    1PSTEP                       385          97           1          
  100CL  197 9.70000E-01         126                     1   97           1
 -4  DISP        4    1
 -5  D1          1    2    1    0
 -5  D2          1    2    2    0
 -5  D3          1    2    3    0
 -5  ALL         1    2    0    0    1ALL
 -1         1 0.00000E+00 0.00000E+00 0.00000E+00
 -1         2 0.00000E+00 0.00000E+00 0.00000E+00
 -1         3 3.84437E-01-6.11895E-02 0.00000E+00
 -1         4 3.84437E-01-6.11895E-02 0.00000E+00
 -1         5 3.71092E-01-1.11069E-01 0.00000E+00
 -1         6 3.71092E-01-1.11069E-01 0.00000E+00
 -1         7 0.00000E+00 0.00000E+00 0.00000E+00
 -1         8 0.00000E+00 0.00000E+00 0.00000E+00
 -1         9 3.77760E-01-8.61284E-02 0.00000E+00
 -1        10 3.77760E-01-8.61284E-02 0.00000E+00
 -1        11 0.00000E+00 0.00000E+00 0.00000E+00
 -1        12 0.00000E+00 0.00000E+00 0.00000E+00
 -1        13 2.57368E-03 3.28267E-03 0.00000E+00
 -1        14 8.43465E-03 6.30550E-03 0.00000E+00
 -1        15 1.79975E-02 8.47897E-03 0.00000E+00
 -1        16 3.06812E-02 9.61277E-03 0.00000E+00
 -1        17 4.59082E-02 9.61143E-03 0.00000E+00
 -1        18 6.31101E-02 8.53416E-03 0.00000E+00
 -1        19 8.18179E-02 6.51821E-03 0.00000E+00
 -1        20 1.01699E-01 3.71040E-03 0.00000E+00
 -1        21 1.22495E-01 2.57595E-04 0.00000E+00
 -1        22 1.44041E-01-3.71452E-03 0.00000E+00
 -1        23 1.66231E-01-8.11300E-03 0.00000E+00
 -1        24 1.89020E-01-1.28965E-02 0.00000E+00
 -1        25 2.12342E-01-1.80358E-02 0.00000E+00
 -1        26 2.36123E-01-2.34995E-02 0.00000E+00
 -1        27 2.60287E-01-2.92471E-02 0.00000E+00
 -1        28 2.84784E-01-3.52550E-02 0.00000E+00
 -1        29 3.09543E-01-4.14992E-02 0.00000E+00
 -1        30 3.34473E-01-4.79468E-02 0.00000E+00
 -1        31 3.59465E-01-5.45368E-02 0.00000E+00
 -1        32 2.57368E-03 3.28267E-03 0.00000E+00
 -1        33 8.43465E-03 6.30550E-03 0.00000E+00
 -1        34 1.79975E-02 8.47897E-03 0.00000E+00
 -1        35 3.06812E-02 9.61277E-03 0.00000E+00
 -1        36 4.59082E-02 9.61143E-03 0.00000E+00
 -1        37 6.31101E-02 8.53416E-03 0.00000E+00
 -1        38 8.18179E-02 6.51821E-03 0.00000E+00
 -1        39 1.01699E-01 3.71040E-03 0.00000E+00
 -1        40 1.22495E-01 2.57595E-04 0.00000E+00
 -1        41 1.44041E-01-3.71452E-03 0.00000E+00
 -1        42 1.66231E-01-8.11300E-03 0.00000E+00
 -1        43 1.89020E-01-1.28965E-02 0.00000E+00
 -1        44 2.12342E-01-1.80358E-02 0.00000E+00
 -1        45 2.36123E-01-2.34995E-02 0.00000E+00
 -1        46 2.60287E-01-2.92471E-02 0.00000E+00
 -1        47 2.84784E-01-3.52550E-02 0.00000E+00
 -1        48 3.09543E-01-4.14992E-02 0.00000E+00
 -1        49 3.34473E-01-4.79468E-02 0.00000E+00
 -1        50 3.59465E-01-5.45368E-02 0.00000E+00
 -1        51 3.46143E-01-1.04368E-01 0.00000E+00
 -1        52 3.21245E-01-9.76137E-02 0.00000E+00
 -1        53 2.96509E-01-9.08375E-02 0.00000E+00
 -1        54 2.72035E-01-8.40942E-02 0.00000E+00
 -1        55 2.47900E-01-7.74405E-02 0.00000E+00
 -1        56 2.24155E-01-7.09152E-02 0.00000E+00
 -1        57 2.00863E-01-6.45474E-02 0.00000E+00
 -1        58 1.78085E-01-5.83608E-02 0.00000E+00
 -1        59 1.55894E-01-5.23856E-02 0.00000E+00
 -1        60 1.34350E-01-4.66384E-02 0.00000E+00
 -1        61 1.13531E-01-4.11150E-02 0.00000E+00
 -1        62 9.35587E-02-3.57948E-02 0.00000E+00
 -1        63 7.46382E-02-3.06688E-02 0.00000E+00
 -1        64 5.70378E-02-2.57363E-02 0.00000E+00
 -1        65 4.10960E-02-2.09966E-02 0.00000E+00
 -1        66 2.72095E-02-1.64423E-02 0.00000E+00
 -1        67 1.58369E-02-1.20739E-02 0.00000E+00
 -1        68 7.37160E-03-7.89272E-03 0.00000E+00
 -1        69 2.30605E-03-3.80917E-03 0.00000E+00
 -1        70 3.46143E-01-1.04368E-01 0.00000E+00
 -1        71 3.21245E-01-9.76137E-02 0.00000E+00
 -1        72 2.96509E-01-9.08375E-02 0.00000E+00
 -1        73 2.72035E-01-8.40942E-02 0.00000E+00
 -1        74 2.47900E-01-7.74405E-02 0.00000E+00
 -1        75 2.24155E-01-7.09152E-02 0.00000E+00
 -1        76 2.00863E-01-6.45474E-02 0.00000E+00
 -1        77 1.78085E-01-5.83608E-02 0.00000E+00
 -1        78 1.55894E-01-5.23856E-02 0.00000E+00
 -1        79 1.34350E-01-4.66384E-02 0.00000E+00
 -1        80 1.13531E-01-4.11150E-02 0.00000E+00
 -1        81 9.35587E-02-3.57948E-02 0.00000E+00
 -1        82 7.46382E-02-3.06688E-02 0.00000E+00
 -1        83 5.70378E-02-2.57363E-02 0.00000E+00
 -1        84 4.10960E-02-2.09966E-02 0.00000E+00
 -1        85 2.72095E-02-1.64423E-02 0.00000E+00
 -1        86 1.58369E-02-1.20739E-02 0.00000E+00
 -1        87 7.37160E-03-7.89272E-03 0.00000E+00
 -1        88 2.30605E-03-3.80917E-03 0.00000E+00
 -1        89 1.50814E-03-2.11791E-04 0.00000E+00
 -1        90 7.20370E-03-6.80922E-04 0.00000E+00
 -1        91 1.62753E-02-1.64494E-03 0.00000E+00
 -1        92 2.84090E-02-3.25406E-03 0.00000E+00
 -1        93 4.30646E-02-5.54021E-03 0.00000E+00
 -1        94 5.97237E-02-8.46458E-03 0.00000E+00
 -1        95 7.79505E-02-1.19575E-02 0.00000E+00
 -1        96 9.74063E-02-1.59428E-02 0.00000E+00
 -1        97 1.17830E-01-2.03442E-02 0.00000E+00
 -1        98 1.39039E-01-2.51010E-02 0.00000E+00
 -1        99 1.60926E-01-3.01804E-02 0.00000E+00
 -1       100 1.83431E-01-3.55663E-02 0.00000E+00
 -1       101 2.06496E-01-4.12363E-02 0.00000E+00
 -1       102 2.30047E-01-4.71580E-02 0.00000E+00
 -1       103 2.54016E-01-5.33010E-02 0.00000E+00
 -1       104 2.78346E-01-5.96398E-02 0.00000E+00
 -1       105 3.02979E-01-6.61431E-02 0.00000E+00
 -1       106 3.27831E-01-7.27651E-02 0.00000E+00
 -1       107 3.52794E-01-7.94463E-02 0.00000E+00
 -1       108 3.52794E-01-7.94463E-02 0.00000E+00
 -1       109 3.27831E-01-7.27651E-02 0.00000E+00
 -1       110 3.02979E-01-6.61431E-02 0.00000E+00
 -1       111 2.78346E-01-5.96398E-02 0.00000E+00
 -1       112 2.54016E-01-5.33010E-02 0.00000E+00
 -1       113 2.30047E-01-4.71580E-02 0.00000E+00
 -1       114 2.06496E-01-4.12363E-02 0.00000E+00
 -1       115 1.83431E-01-3.55663E-02 0.00000E+00
 -1       116 1.60926E-01-3.01804E-02 0.00000E+00
 -1       117 1.39039E-01-2.51010E-02 0.00000E+00
 -1       118 1.17830E-01-2.03442E-02 0.00000E+00
 -1       119 9.74063E-02-1.59428E-02 0.00000E+00
 -1       120 7.79505E-02-1.19575E-02 0.00000E+00
 -1       121 5.97237E-02-8.46458E-03 0.00000E+00
 -1       122 4.30646E-02-5.54021E-03 0.00000E+00
 -1       123 2.84090E-02-3.25406E-03 0.00000E+00
 -1       124 1.62753E-02-1.64494E-03 0.00000E+00
 -1       125 7.20370E-03-6.80922E-04 0.00000E+00
 -1       126 1.50814E-03-2.11791E-04 0.00000E+00
 -3
    1PSTEP                       386          97           1          
  100CL  197 9.70000E-01         126                     1   97           1
 -4  STRESS      6    1
 -5  SXX         1    4    1    1
 -5  SYY         1    4    2    2
 -5  SZZ         1    4    3    3
 -5  SXY         1    4    1    2
 -5  SYZ         1    4    2    3
 -5  SZX         1    4    3    1
 -1         1 1.56115E+04 3.85818E+04 1.49627E+04 9.55561E+03-1.36368E-10-1.08438E-10
 -1         2 1.56115E+04 3.85818E+04 1.49627E+04 9.55561E+03-1.36368E-10-1.08438E-10
 -1         3 9.70855E+01 1.24989E+02 6.65662E+01 1.25263E+02 2.82273E-08-2.19412E-07
 -1         4 9.70855E+01 1.24989E+02 6.65662E+01 1.25263E+02 2.82273E-08-2.19412E-07
 -1         5-1.39911E+02-3.39113E+02-1.43820E+02-2.96848E+01 1.28592E-07-1.48374E-07
 -1         6-1.39911E+02-3.39113E+02-1.43820E+02-2.96848E+01 1.28605E-07-1.48318E-07
 -1         7-1.76072E+04-3.69068E+04-1.80270E+04 5.50336E+03-8.68181E-11-6.22358E-11
 -1         8-1.76072E+04-3.69068E+04-1.80270E+04 5.50336E+03-8.68181E-11-6.22358E-11
 -1         9-8.22449E+00-1.40897E+02-4.47549E+01 5.65312E+01 7.32397E-08-1.90884E-07
 -1        10-8.22449E+00-1.40897E+02-4.47549E+01 5.65312E+01 7.32375E-08-1.90894E-07
 -1        11-7.95901E+02-3.05870E+03-8.72596E+02 4.54247E+03-1.19359E-10-8.83454E-11
 -1        12-7.95901E+02-3.05870E+03-8.72596E+02 4.54247E+03-1.19359E-10-8.83454E-11
 -1        13 6.02306E+03 3.43318E+04 1.11367E+04 3.50190E+03-1.21000E-09-1.27162E-08
 -1        14 7.88750E+03 3.30044E+04 1.13121E+04 4.31232E+03 3.57324E-09 1.63055E-09
 -1        15 7.62700E+03 2.85096E+04 1.00787E+04 5.65301E+03-6.37378E-10 3.25572E-08
 -1        16 7.37661E+03 2.37508E+04 8.76687E+03 5.98593E+03-1.43393E-08 6.18071E-08
 -1        17 6.72687E+03 1.90227E+04 7.32804E+03 5.66874E+03-2.62168E-08 8.54708E-08
 -1        18 5.83074E+03 1.49367E+04 5.96772E+03 4.98487E+03-4.09675E-08 1.06658E-07
 -1        19 4.97434E+03 1.17090E+04 4.83423E+03 4.19661E+03-5.89398E-08 1.28157E-07
 -1        20 4.16134E+03 9.24331E+03 3.91061E+03 3.48027E+03-7.74406E-08 1.19995E-07
 -1        21 3.48410E+03 7.48636E+03 3.21673E+03 2.89592E+03-8.97833E-08 8.03681E-08
 -1        22 2.94582E+03 6.29257E+03 2.71815E+03 2.48041E+03-7.82388E-08 2.58550E-08
 -1        23 2.64069E+03 5.49159E+03 2.39823E+03 2.18715E+03-4.97864E-08-3.06538E-08
 -1        24 2.38935E+03 4.79462E+03 2.12260E+03 1.97318E+03-1.43278E-08-6.12570E-08
 -1        25 2.14155E+03 4.13449E+03 1.85771E+03 1.76624E+03 1.24962E-08-7.54231E-08
 -1        26 1.85133E+03 3.50562E+03 1.58843E+03 1.56143E+03 1.49194E-08-5.07268E-08
 -1        27 1.62634E+03 2.94355E+03 1.35726E+03 1.34617E+03 4.76923E-09-3.48068E-08
 -1        28 1.35982E+03 2.31157E+03 1.09223E+03 1.13213E+03-8.09604E-09-4.02707E-08
 -1        29 1.03335E+03 1.59200E+03 7.82520E+02 8.73975E+02-1.21636E-08-5.85025E-08
 -1        30 6.23320E+02 8.45937E+02 4.38837E+02 5.73035E+02-1.22649E-08-1.01678E-07
 -1        31 2.58165E+02 3.03376E+02 1.68057E+02 2.71139E+02 1.91069E-09-1.54914E-07
 -1        32 6.02306E+03 3.43318E+04 1.11367E+04 3.50190E+03-1.21000E-09-1.27162E-08
 -1        33 7.88750E+03 3.30044E+04 1.13121E+04 4.31232E+03 3.57326E-09 1.63055E-09
 -1        34 7.62700E+03 2.85096E+04 1.00787E+04 5.65301E+03-6.37441E-10 3.25572E-08
 -1        35 7.37661E+03 2.37508E+04 8.76687E+03 5.98593E+03-1.43392E-08 6.18074E-08
 -1        36 6.72687E+03 1.90227E+04 7.32804E+03 5.66874E+03-2.62166E-08 8.54687E-08
 -1        37 5.83074E+03 1.49367E+04 5.96772E+03 4.98487E+03-4.09674E-08 1.06658E-07
 -1        38 4.97434E+03 1.17090E+04 4.83423E+03 4.19661E+03-5.89397E-08 1.28163E-07
 -1        39 4.16134E+03 9.24331E+03 3.91061E+03 3.48027E+03-7.74406E-08 1.19995E-07
 -1        40 3.48410E+03 7.48636E+03 3.21673E+03 2.89592E+03-8.97836E-08 8.03690E-08
 -1        41 2.94582E+03 6.29257E+03 2.71815E+03 2.48041E+03-7.82392E-08 2.58513E-08
 -1        42 2.64069E+03 5.49159E+03 2.39823E+03 2.18715E+03-4.97864E-08-3.06538E-08
 -1        43 2.38935E+03 4.79462E+03 2.12260E+03 1.97318E+03-1.43276E-08-6.12570E-08
 -1        44 2.14155E+03 4.13449E+03 1.85771E+03 1.76624E+03 1.24961E-08-7.54176E-08
 -1        45 1.85133E+03 3.50562E+03 1.58843E+03 1.56143E+03 1.49194E-08-5.07347E-08
 -1        46 1.62634E+03 2.94355E+03 1.35726E+03 1.34617E+03 4.76898E-09-3.48049E-08
 -1        47 1.35982E+03 2.31157E+03 1.09223E+03 1.13213E+03-8.09513E-09-4.02781E-08
 -1        48 1.03335E+03 1.59200E+03 7.82520E+02 8.73975E+02-1.21689E-08-5.85044E-08
 -1        49 6.23320E+02 8.45937E+02 4.38837E+02 5.73035E+02-1.22610E-08-1.01685E-07
 -1        50 2.58165E+02 3.03376E+02 1.68057E+02 2.71139E+02 1.91180E-09-1.54884E-07
 -1        51-2.56926E+02-6.73809E+02-2.79804E+02-1.12673E+02 9.22704E-08-9.69680E-08
 -1        52-5.47359E+02-1.39986E+03-5.86703E+02-3.54407E+02 4.97066E-08-5.91346E-08
 -1        53-9.23360E+02-2.18591E+03-9.39193E+02-6.72527E+02 2.52914E-08-3.25489E-08
 -1        54-1.30551E+03-2.91291E+03-1.27719E+03-9.71774E+02 7.55893E-09-2.81949E-08
 -1        55-1.63176E+03-3.55841E+03-1.57456E+03-1.21992E+03-1.07757E-09-3.77021E-08
 -1        56-1.92982E+03-4.19358E+03-1.86126E+03-1.42881E+03 1.05505E-08-6.15912E-08
 -1        57-2.17388E+03-4.83274E+03-2.13411E+03-1.63771E+03 2.81940E-08-5.60234E-08
 -1        58-2.42721E+03-5.50766E+03-2.42191E+03-1.83201E+03 4.20228E-08-3.57799E-08
 -1        59-2.67319E+03-6.22613E+03-2.72176E+03-2.00466E+03 3.68260E-08 1.52188E-08
 -1        60-2.95153E+03-7.13127E+03-3.09115E+03-2.16935E+03 1.06234E-08 6.90920E-08
 -1        61-3.27766E+03-8.41013E+03-3.59640E+03-2.39168E+03-2.82709E-08 1.15085E-07
 -1        62-3.78656E+03-1.02722E+04-4.34994E+03-2.69865E+03-6.02461E-08 1.35806E-07
 -1        63-4.49078E+03-1.27830E+04-5.38488E+03-3.08124E+03-7.31054E-08 1.30736E-07
 -1        64-5.38201E+03-1.59789E+04-6.72283E+03-3.47164E+03-7.40688E-08 9.80048E-08
 -1        65-6.35242E+03-1.97899E+04-8.32373E+03-3.77863E+03-6.96982E-08 7.79635E-08
 -1        66-7.40318E+03-2.40145E+04-1.01332E+04-3.85490E+03-5.96343E-08 5.00055E-08
 -1        67-8.25540E+03-2.80725E+04-1.18617E+04-3.50905E+03-4.50727E-08 2.32242E-08
 -1        68-9.56303E+03-3.18931E+04-1.36818E+04-2.81129E+03-2.50328E-08-4.34106E-09
 -1        69-7.32847E+03-3.26158E+04-1.32464E+04-6.77481E+02-8.33082E-09-9.36391E-09
 -1        70-2.56926E+02-6.73809E+02-2.79804E+02-1.12673E+02 9.22689E-08-9.69741E-08
 -1        71-5.47359E+02-1.39986E+03-5.86703E+02-3.54407E+02 4.97152E-08-5.91282E-08
 -1        72-9.23360E+02-2.18591E+03-9.39193E+02-6.72527E+02 2.52908E-08-3.25448E-08
 -1        73-1.30551E+03-2.91291E+03-1.27719E+03-9.71774E+02 7.55347E-09-2.81949E-08
 -1        74-1.63176E+03-3.55841E+03-1.57456E+03-1.21992E+03-1.08084E-09-3.77021E-08
 -1        75-1.92982E+03-4.19358E+03-1.86126E+03-1.42881E+03 1.05506E-08-6.15921E-08
 -1        76-2.17388E+03-4.83274E+03-2.13411E+03-1.63771E+03 2.81941E-08-5.60359E-08
 -1        77-2.42721E+03-5.50766E+03-2.42191E+03-1.83201E+03 4.20166E-08-3.57485E-08
 -1        78-2.67319E+03-6.22613E+03-2.72176E+03-2.00466E+03 3.68247E-08 1.51979E-08
 -1        79-2.95153E+03-7.13127E+03-3.09115E+03-2.16935E+03 1.06227E-08 6.90783E-08
 -1        80-3.27766E+03-8.41013E+03-3.59640E+03-2.39168E+03-2.82676E-08 1.15088E-07
 -1        81-3.78656E+03-1.02722E+04-4.34994E+03-2.69865E+03-6.02455E-08 1.35813E-07
 -1        82-4.49078E+03-1.27830E+04-5.38488E+03-3.08124E+03-7.31086E-08 1.30732E-07
 -1        83-5.38201E+03-1.59789E+04-6.72283E+03-3.47164E+03-7.40686E-08 9.80092E-08
 -1        84-6.35242E+03-1.97899E+04-8.32373E+03-3.77863E+03-6.96980E-08 7.79624E-08
 -1        85-7.40318E+03-2.40145E+04-1.01332E+04-3.85490E+03-5.96340E-08 5.00062E-08
 -1        86-8.25540E+03-2.80725E+04-1.18617E+04-3.50905E+03-4.50734E-08 2.32228E-08
 -1        87-9.56303E+03-3.18931E+04-1.36818E+04-2.81129E+03-2.50329E-08-4.34106E-09
 -1        88-7.32847E+03-3.26158E+04-1.32464E+04-6.77481E+02-8.33080E-09-9.36391E-09
 -1        89-1.81110E+02-2.91081E+03-8.43731E+02 2.76320E+01-6.82741E-09-1.06647E-08
 -1        90-2.69914E+02-2.77933E+03-7.72337E+02 6.08429E+02-1.28107E-08-3.89520E-09
 -1        91 3.37926E+01-2.50263E+03-6.39867E+02 6.50578E+02-2.50764E-08 2.75954E-08
 -1        92 2.49704E+02-2.20693E+03-5.09509E+02 7.35692E+02-3.86971E-08 5.65080E-08
 -1        93 3.81336E+02-1.84308E+03-3.83716E+02 7.00547E+02-4.95151E-08 8.01430E-08
 -1        94 3.78548E+02-1.50929E+03-3.02383E+02 6.00941E+02-5.75032E-08 1.06344E-07
 -1        95 3.60058E+02-1.20660E+03-2.29623E+02 4.63339E+02-6.79184E-08 1.29943E-07
 -1        96 2.71692E+02-9.71898E+02-1.93728E+02 3.29366E+02-7.08054E-08 1.32090E-07
 -1        97 1.62965E+02-7.68785E+02-1.70305E+02 2.06233E+02-6.00738E-08 1.01792E-07
 -1        98 4.02445E+01-6.30760E+02-1.68923E+02 1.16630E+02-3.51841E-08 4.85964E-08
 -1        99 1.33635E+01-5.33916E+02-1.50061E+02 5.67852E+01-4.35520E-09-1.11371E-08
 -1       100 4.64728E+00-4.98074E+02-1.43410E+02 4.30139E+01 1.78389E-08-5.02184E-08
 -1       101 1.21345E+01-4.61729E+02-1.31315E+02 4.80549E+01 2.26687E-08-6.75616E-08
 -1       102-5.17566E+00-4.32385E+02-1.28631E+02 6.08243E+01 1.47744E-08-5.79986E-08
 -1       103 3.19104E+01-3.87670E+02-1.04926E+02 6.52039E+01 2.28955E-09-3.40147E-08
 -1       104 6.59901E+01-3.76789E+02-9.22191E+01 9.11213E+01-1.89625E-09-2.84723E-08
 -1       105 1.05816E+02-3.63613E+02-7.69116E+01 1.23566E+02 3.22633E-09-4.52567E-08
 -1       106 9.45752E+01-3.30305E+02-7.06282E+01 1.38925E+02 1.58278E-08-7.59359E-08
 -1       107 3.53888E+01-2.25352E+02-5.69874E+01 9.89992E+01 4.04448E-08-1.26365E-07
 -1       108 3.53888E+01-2.25352E+02-5.69874E+01 9.89992E+01 4.04463E-08-1.26374E-07
 -1       109 9.45752E+01-3.30305E+02-7.06282E+01 1.38925E+02 1.58260E-08-7.59383E-08
 -1       110 1.05816E+02-3.63613E+02-7.69116E+01 1.23566E+02 3.22788E-09-4.52521E-08
 -1       111 6.59901E+01-3.76789E+02-9.22191E+01 9.11213E+01-1.89723E-09-2.84585E-08
 -1       112 3.19104E+01-3.87670E+02-1.04926E+02 6.52039E+01 2.29044E-09-3.40183E-08
 -1       113-5.17566E+00-4.32385E+02-1.28631E+02 6.08243E+01 1.47744E-08-5.79941E-08
 -1       114 1.21345E+01-4.61729E+02-1.31315E+02 4.80549E+01 2.26690E-08-6.75675E-08
 -1       115 4.64728E+00-4.98074E+02-1.43410E+02 4.30139E+01 1.78393E-08-5.02225E-08
 -1       116 1.33635E+01-5.33916E+02-1.50061E+02 5.67852E+01-4.35502E-09-1.11347E-08
 -1       117 4.02445E+01-6.30760E+02-1.68923E+02 1.16630E+02-3.51833E-08 4.86051E-08
 -1       118 1.62965E+02-7.68785E+02-1.70305E+02 2.06233E+02-6.00737E-08 1.01789E-07
 -1       119 2.71692E+02-9.71898E+02-1.93728E+02 3.29366E+02-7.08053E-08 1.32088E-07
 -1       120 3.60058E+02-1.20660E+03-2.29623E+02 4.63339E+02-6.79180E-08 1.29944E-07
 -1       121 3.78548E+02-1.50929E+03-3.02383E+02 6.00941E+02-5.75037E-08 1.06340E-07
 -1       122 3.81336E+02-1.84308E+03-3.83716E+02 7.00547E+02-4.95159E-08 8.01475E-08
 -1       123 2.49704E+02-2.20693E+03-5.09509E+02 7.35692E+02-3.86968E-08 5.65069E-08
 -1       124 3.37926E+01-2.50263E+03-6.39867E+02 6.50578E+02-2.50763E-08 2.75957E-08
 -1       125-2.69914E+02-2.77933E+03-7.72337E+02 6.08429E+02-1.28107E-08-3.89520E-09
 -1       126-1.81110E+02-2.91081E+03-8.43731E+02 2.76320E+01-6.82744E-09-1.06647E-08
 -3
    1PSTEP                       387          97           1          
  100CL  197 9.70000E-01         126                     1   97           1
 -4  TOSTRAIN    6    1
 -5  EXX         1    4    1    1
 -5  EYY         1    4    2    2
 -5  EZZ         1    4    3    3
 -5  EXY         1    4    1    2
 -5  EYZ         1    4    2    3
 -5  EZX         1    4    3    1
 -1         1-4.44556E-04 6.86870E-02-5.48700E-28 2.57366E-02 2.96614E-19-1.72116E-16
 -1         2-4.44556E-04 6.86870E-02-5.48700E-28 2.57366E-02 2.96614E-19-1.72116E-16
 -1         3-2.30440E-04 5.18916E-04 1.00655E-24 1.64931E-04-2.76070E-13-6.63746E-13
 -1         4-2.30440E-04 5.18916E-04 1.00655E-24 1.64931E-04-2.76070E-13-6.63746E-13
 -1         5-6.52174E-05-5.57659E-04 7.84446E-25 2.31957E-04 1.21751E-13-6.26705E-13
 -1         6-6.52174E-05-5.57659E-04 7.84160E-25 2.31957E-04 1.21879E-13-6.26567E-13
 -1         7-4.52891E-04-7.26688E-02-6.45411E-28 2.30603E-02-1.03204E-19-3.14331E-16
 -1         8-4.52891E-04-7.26688E-02-6.45411E-28 2.30603E-02-1.03204E-19-3.14331E-16
 -1         9-1.47829E-04-4.61178E-05 8.51524E-25 2.78792E-04-1.03214E-13-6.56515E-13
 -1        10-1.47829E-04-4.61178E-05 8.51573E-25 2.78792E-04-1.03236E-13-6.56538E-13
 -1        11-4.48724E-04-4.22055E-03-5.39323E-28 1.50813E-02 4.22407E-19-2.73729E-16
 -1        12-4.48724E-04-4.22055E-03-5.39323E-28 1.50813E-02 4.22407E-19-2.73729E-16
 -1        13-1.90670E-02 6.87161E-02 2.67489E-27 4.12630E-03-6.05110E-15-4.03612E-14
 -1        14-1.49251E-02 6.55558E-02-2.75463E-27 1.72593E-03 1.14017E-14 3.56389E-15
 -1        15-1.36504E-02 5.86064E-02 1.66478E-26 2.81394E-03 1.85073E-14 1.02515E-13
 -1        16-1.15229E-02 5.05028E-02 7.99104E-26 3.08584E-03 7.12585E-15 2.03733E-13
 -1        17-9.49362E-03 4.19515E-02 1.64703E-25 3.04096E-03 3.95783E-15 2.87906E-13
 -1        18-7.74579E-03 3.40764E-02 2.73001E-25 2.65866E-03-6.00651E-15 3.68737E-13
 -1        19-6.15273E-03 2.74123E-02 4.19271E-25 2.17290E-03-2.21292E-14 4.55474E-13
 -1        20-4.95458E-03 2.21042E-02 4.27760E-25 1.69807E-03-7.49040E-14 4.55955E-13
 -1        21-4.08520E-03 1.81613E-02 2.92258E-25 1.23687E-03-1.53884E-13 3.57647E-13
 -1        22-3.57208E-03 1.54471E-02 1.19119E-25 8.42162E-04-1.89709E-13 1.84851E-13
 -1        23-3.09380E-03 1.35610E-02 4.93425E-26 6.23515E-04-1.85895E-13-1.74201E-14
 -1        24-2.75500E-03 1.20114E-02 7.27814E-26 5.80075E-04-1.29959E-13-1.55664E-13
 -1        25-2.43781E-03 1.05327E-02 1.20054E-25 5.75549E-04-7.70469E-14-2.35389E-13
 -1        26-2.19922E-03 9.11485E-03 5.72403E-26 5.36279E-04-3.51276E-14-1.67852E-13
 -1        27-1.84593E-03 7.75130E-03 2.50218E-26 5.25218E-04-4.05467E-14-1.06420E-13
 -1        28-1.54311E-03 6.29173E-03 3.37016E-26 5.97022E-04-8.61879E-14-1.01174E-13
 -1        29-1.18966E-03 4.58891E-03 6.94343E-26 6.71263E-04-1.27429E-13-1.45623E-13
 -1        30-8.31385E-04 2.73596E-03 2.06771E-25 6.27379E-04-1.98050E-13-2.66719E-13
 -1        31-4.32913E-04 1.16177E-03 4.84289E-25 3.78529E-04-2.45185E-13-4.39427E-13
 -1        32-1.90670E-02 6.87161E-02 2.67489E-27 4.12630E-03-6.05110E-15-4.03612E-14
 -1        33-1.49251E-02 6.55558E-02-2.75464E-27 1.72593E-03 1.14017E-14 3.56388E-15
 -1        34-1.36504E-02 5.86064E-02 1.66479E-26 2.81394E-03 1.85071E-14 1.02515E-13
 -1        35-1.15229E-02 5.05028E-02 7.99110E-26 3.08584E-03 7.12639E-15 2.03733E-13
 -1        36-9.49362E-03 4.19515E-02 1.64695E-25 3.04096E-03 3.95634E-15 2.87900E-13
 -1        37-7.74579E-03 3.40764E-02 2.72998E-25 2.65866E-03-6.00687E-15 3.68736E-13
 -1        38-6.15273E-03 2.74123E-02 4.19304E-25 2.17290E-03-2.21217E-14 4.55493E-13
 -1        39-4.95458E-03 2.21042E-02 4.27761E-25 1.69807E-03-7.49038E-14 4.55955E-13
 -1        40-4.08520E-03 1.81613E-02 2.92261E-25 1.23687E-03-1.53884E-13 3.57650E-13
 -1        41-3.57208E-03 1.54471E-02 1.19111E-25 8.42162E-04-1.89715E-13 1.84840E-13
 -1        42-3.09380E-03 1.35610E-02 4.93425E-26 6.23515E-04-1.85895E-13-1.74201E-14
 -1        43-2.75500E-03 1.20114E-02 7.27816E-26 5.80075E-04-1.29958E-13-1.55664E-13
 -1        44-2.43781E-03 1.05327E-02 1.20039E-25 5.75549E-04-7.70386E-14-2.35373E-13
 -1        45-2.19922E-03 9.11485E-03 5.72597E-26 5.36279E-04-3.51398E-14-1.67875E-13
 -1        46-1.84593E-03 7.75130E-03 2.50191E-26 5.25218E-04-4.05443E-14-1.06414E-13
 -1        47-1.54311E-03 6.29173E-03 3.37114E-26 5.97022E-04-8.61970E-14-1.01196E-13
 -1        48-1.18966E-03 4.58891E-03 6.94428E-26 6.71263E-04-1.27447E-13-1.45620E-13
 -1        49-8.31385E-04 2.73596E-03 2.06818E-25 6.27379E-04-1.98051E-13-2.66746E-13
 -1        50-4.32913E-04 1.16177E-03 4.84120E-25 3.78529E-04-2.45134E-13-4.39345E-13
 -1        51 5.36388E-05-1.26449E-03 3.54215E-25 4.02940E-04 1.03078E-13-4.22988E-13
 -1        52 4.34409E-04-2.97088E-03 1.13430E-25 6.15607E-04 4.49012E-14-2.47298E-13
 -1        53 9.21185E-04-4.97743E-03 3.09016E-26 6.46968E-04 1.93895E-14-1.32733E-13
 -1        54 1.34118E-03-6.85160E-03 1.69782E-26 5.84278E-04-2.35826E-14-9.20486E-14
 -1        55 1.69072E-03-8.47773E-03 2.87483E-26 5.32034E-04-6.29203E-14-1.05776E-13
 -1        56 1.97688E-03-9.99201E-03 8.08587E-26 5.28893E-04-6.56908E-14-1.92794E-13
 -1        57 2.35379E-03-1.15358E-02 8.08633E-26 5.53602E-04-3.69171E-15-2.04245E-13
 -1        58 2.69535E-03-1.31057E-02 5.64189E-26 5.79778E-04 7.00000E-14-1.66133E-13
 -1        59 3.01858E-03-1.47064E-02 1.60328E-26 6.46621E-04 1.31822E-13-8.85014E-15
 -1        60 3.35796E-03-1.66153E-02 8.31698E-26 8.50339E-04 1.30518E-13 1.88332E-13
 -1        61 3.95619E-03-1.93538E-02 2.83103E-25 1.23066E-03 7.30213E-14 3.79622E-13
 -1        62 4.78564E-03-2.33608E-02 4.61898E-25 1.71604E-03-5.74511E-15 4.84732E-13
 -1        63 5.90269E-03-2.88152E-02 4.72318E-25 2.21574E-03-6.54416E-14 4.85273E-13
 -1        64 7.28253E-03-3.57549E-02 3.20548E-25 2.69027E-03-1.23374E-13 3.84525E-13
 -1        65 9.02362E-03-4.40798E-02 2.37021E-25 3.07063E-03-1.47576E-13 3.13405E-13
 -1        66 1.08507E-02-5.32580E-02 1.36016E-25 3.15083E-03-1.57125E-13 2.09925E-13
 -1        67 1.27073E-02-6.20531E-02 6.08370E-26 2.94608E-03-1.40953E-13 1.05664E-13
 -1        68 1.33621E-02-6.99010E-02 1.57534E-26 1.72360E-03-9.23539E-14-2.06718E-15
 -1        69 1.82226E-02-7.31599E-02 2.87444E-27 4.31156E-03-3.25767E-14-2.83207E-14
 -1        70 5.36388E-05-1.26449E-03 3.54248E-25 4.02940E-04 1.03063E-13-4.23003E-13
 -1        71 4.34409E-04-2.97088E-03 1.13426E-25 6.15607E-04 4.49362E-14-2.47294E-13
 -1        72 9.21185E-04-4.97743E-03 3.08945E-26 6.46968E-04 1.93945E-14-1.32721E-13
 -1        73 1.34118E-03-6.85160E-03 1.69770E-26 5.84278E-04-2.35982E-14-9.20399E-14
 -1        74 1.69072E-03-8.47773E-03 2.87485E-26 5.32034E-04-6.29297E-14-1.05771E-13
 -1        75 1.97688E-03-9.99201E-03 8.08611E-26 5.28893E-04-6.56922E-14-1.92796E-13
 -1        76 2.35379E-03-1.15358E-02 8.08926E-26 5.53602E-04-3.71078E-15-2.04282E-13
 -1        77 2.69535E-03-1.31057E-02 5.63745E-26 5.79778E-04 7.00284E-14-1.66033E-13
 -1        78 3.01858E-03-1.47064E-02 1.60399E-26 6.46621E-04 1.31787E-13-8.90896E-15
 -1        79 3.35796E-03-1.66153E-02 8.31271E-26 8.50339E-04 1.30497E-13 1.88293E-13
 -1        80 3.95619E-03-1.93538E-02 2.83111E-25 1.23066E-03 7.30364E-14 3.79628E-13
 -1        81 4.78564E-03-2.33608E-02 4.61936E-25 1.71604E-03-5.73355E-15 4.84752E-13
 -1        82 5.90269E-03-2.88152E-02 4.72307E-25 2.21574E-03-6.54562E-14 4.85266E-13
 -1        83 7.28253E-03-3.57549E-02 3.20565E-25 2.69027E-03-1.23368E-13 3.84538E-13
 -1        84 9.02362E-03-4.40798E-02 2.37016E-25 3.07063E-03-1.47577E-13 3.13401E-13
 -1        85 1.08507E-02-5.32580E-02 1.36016E-25 3.15083E-03-1.57124E-13 2.09927E-13
 -1        86 1.27073E-02-6.20531E-02 6.08371E-26 2.94608E-03-1.40956E-13 1.05660E-13
 -1        87 1.33621E-02-6.99010E-02 1.57534E-26 1.72360E-03-9.23541E-14-2.06716E-15
 -1        88 1.82226E-02-7.31599E-02 2.87443E-27 4.31156E-03-3.25767E-14-2.83207E-14
 -1        89-4.22181E-04-3.74960E-03 2.87311E-27 7.04224E-04-2.44117E-14-3.30309E-14
 -1        90-7.81487E-04-3.13051E-03 5.61363E-28 3.07705E-03-4.30102E-14-6.36580E-15
 -1        91-4.71536E-04-2.73422E-03 2.35579E-26 3.61533E-03-6.13680E-14 1.05044E-13
 -1        92-3.36118E-04-2.19714E-03 9.46988E-26 4.09547E-03-7.34981E-14 2.10824E-13
 -1        93-2.34997E-04-1.65278E-03 1.84388E-25 3.97268E-03-7.34200E-14 2.97946E-13
 -1        94-2.31631E-04-1.22716E-03 3.06663E-25 3.48139E-03-5.71861E-14 3.89354E-13
 -1        95-1.25024E-04-9.66589E-04 4.54420E-25 2.85483E-03-4.79951E-14 4.74574E-13
 -1        96-8.44700E-05-8.17977E-04 4.73627E-25 2.20867E-03-4.18868E-14 4.85638E-13
 -1        97-6.45023E-05-7.16051E-04 2.83861E-25 1.58509E-03-4.09956E-14 3.82217E-13
 -1        98-1.07061E-04-6.55536E-04 5.37976E-26 1.08733E-03-3.56107E-14 1.91891E-13
 -1        99-3.76077E-05-6.36372E-04-1.67899E-26 8.19937E-04-2.88717E-14-2.61543E-14
 -1       100-2.98270E-05-6.10240E-04 5.27412E-26 7.45014E-04-2.26820E-14-1.71738E-13
 -1       101-4.20134E-05-5.41384E-04 1.06112E-25 7.23905E-04-3.70209E-14-2.28675E-13
 -1       102-1.11172E-04-4.56888E-04 7.40417E-26 6.89435E-04-4.72068E-14-1.88718E-13
 -1       103-7.76036E-05-3.84829E-04 2.31614E-26 6.90064E-04-4.68446E-14-1.00411E-13
 -1       104-1.00963E-04-3.03749E-04 1.62203E-26 7.68887E-04-5.06389E-14-7.76822E-14
 -1       105-1.34240E-04-2.01814E-04 3.92353E-26 8.61449E-04-6.35086E-14-1.33036E-13
 -1       106-1.98488E-04-1.08612E-04 1.14656E-25 8.24528E-04-7.79980E-14-2.39697E-13
 -1       107-1.89637E-04-5.75242E-05 3.47022E-25 5.28301E-04-9.07625E-14-4.21594E-13
 -1       108-1.89637E-04-5.75242E-05 3.47064E-25 5.28301E-04-9.07722E-14-4.21620E-13
 -1       109-1.98488E-04-1.08612E-04 1.14651E-25 8.24528E-04-7.80071E-14-2.39701E-13
 -1       110-1.34240E-04-2.01814E-04 3.92248E-26 8.61449E-04-6.34969E-14-1.33026E-13
 -1       111-1.00963E-04-3.03749E-04 1.62022E-26 7.68887E-04-5.06200E-14-7.76415E-14
 -1       112-7.76036E-05-3.84829E-04 2.31663E-26 6.90064E-04-4.68479E-14-1.00423E-13
 -1       113-1.11172E-04-4.56888E-04 7.40298E-26 6.89435E-04-4.72001E-14-1.88705E-13
 -1       114-4.20134E-05-5.41384E-04 1.06130E-25 7.23905E-04-3.70290E-14-2.28692E-13
 -1       115-2.98270E-05-6.10240E-04 5.27468E-26 7.45014E-04-2.26869E-14-1.71750E-13
 -1       116-3.76077E-05-6.36372E-04-1.67906E-26 8.19937E-04-2.88676E-14-2.61476E-14
 -1       117-1.07061E-04-6.55536E-04 5.38182E-26 1.08733E-03-3.55964E-14 1.91915E-13
 -1       118-6.45023E-05-7.16051E-04 2.83854E-25 1.58509E-03-4.09983E-14 3.82210E-13
 -1       119-8.44700E-05-8.17977E-04 4.73621E-25 2.20867E-03-4.18881E-14 4.85635E-13
 -1       120-1.25024E-04-9.66589E-04 4.54422E-25 2.85483E-03-4.79930E-14 4.74576E-13
 -1       121-2.31631E-04-1.22716E-03 3.06646E-25 3.48139E-03-5.71922E-14 3.89341E-13
 -1       122-2.34997E-04-1.65278E-03 1.84405E-25 3.97268E-03-7.34180E-14 2.97960E-13
 -1       123-3.36118E-04-2.19714E-03 9.46951E-26 4.09547E-03-7.34981E-14 2.10821E-13
 -1       124-4.71536E-04-2.73422E-03 2.35580E-26 3.61533E-03-6.13673E-14 1.05045E-13
 -1       125-7.81487E-04-3.13051E-03 5.61311E-28 3.07705E-03-4.30099E-14-6.36583E-15
 -1       126-4.22181E-04-3.74960E-03 2.87313E-27 7.04224E-04-2.44118E-14-3.30309E-14
 -3
    1PSTEP                       388          97           1          
  100CL  197 9.70000E-01         126                     1   97           1
 -4  ERROR       1    1
 -5  STR(%)      1    1    0    0
 -1         1 6.62514E+01
 -1         2 6.62514E+01
 -1         3 5.28554E+01
 -1         4 5.28554E+01
 -1         5 2.89257E+01
 -1         6 2.89257E+01
 -1         7 5.51987E+01
 -1         8 5.51987E+01
 -1         9 5.28554E+01
 -1        10 5.28554E+01
 -1        11 6.62514E+01
 -1        12 6.62514E+01
 -1        13 6.63427E+01
 -1        14 6.66845E+01
 -1        15 6.68418E+01
 -1        16 6.68418E+01
 -1        17 6.66578E+01
 -1        18 6.63759E+01
 -1        19 6.61130E+01
 -1        20 6.62774E+01
 -1        21 6.64286E+01
 -1        22 6.64286E+01
 -1        23 6.65619E+01
 -1        24 6.70188E+01
 -1        25 6.74612E+01
 -1        26 6.74612E+01
 -1        27 6.78051E+01
 -1        28 6.78051E+01
 -1        29 6.76775E+01
 -1        30 6.52284E+01
 -1        31 5.70814E+01
 -1        32 6.63427E+01
 -1        33 6.66845E+01
 -1        34 6.68418E+01
 -1        35 6.68418E+01
 -1        36 6.66578E+01
 -1        37 6.63759E+01
 -1        38 6.61130E+01
 -1        39 6.62774E+01
 -1        40 6.64286E+01
 -1        41 6.64286E+01
 -1        42 6.65619E+01
 -1        43 6.70188E+01
 -1        44 6.74612E+01
 -1        45 6.74612E+01
 -1        46 6.78051E+01
 -1        47 6.78051E+01
 -1        48 6.76775E+01
 -1        49 6.52284E+01
 -1        50 5.70814E+01
 -1        51 4.38672E+01
 -1        52 5.40117E+01
 -1        53 5.70805E+01
 -1        54 5.72195E+01
 -1        55 5.72195E+01
 -1        56 5.71886E+01
 -1        57 5.69411E+01
 -1        58 5.69709E+01
 -1        59 5.74351E+01
 -1        60 5.79201E+01
 -1        61 5.83654E+01
 -1        62 5.85337E+01
 -1        63 5.85337E+01
 -1        64 5.84976E+01
 -1        65 5.80883E+01
 -1        66 5.74987E+01
 -1        67 5.67118E+01
 -1        68 5.59836E+01
 -1        69 5.54235E+01
 -1        70 4.38672E+01
 -1        71 5.40117E+01
 -1        72 5.70805E+01
 -1        73 5.72195E+01
 -1        74 5.72195E+01
 -1        75 5.71886E+01
 -1        76 5.69411E+01
 -1        77 5.69709E+01
 -1        78 5.74351E+01
 -1        79 5.79201E+01
 -1        80 5.83654E+01
 -1        81 5.85337E+01
 -1        82 5.85337E+01
 -1        83 5.84976E+01
 -1        84 5.80883E+01
 -1        85 5.74987E+01
 -1        86 5.67118E+01
 -1        87 5.59836E+01
 -1        88 5.54235E+01
 -1        89 6.63427E+01
 -1        90 6.66845E+01
 -1        91 6.68418E+01
 -1        92 6.68418E+01
 -1        93 6.66578E+01
 -1        94 6.63759E+01
 -1        95 6.61130E+01
 -1        96 6.62774E+01
 -1        97 6.64286E+01
 -1        98 6.64286E+01
 -1        99 6.65619E+01
 -1       100 6.70188E+01
 -1       101 6.74612E+01
 -1       102 6.74612E+01
 -1       103 6.78051E+01
 -1       104 6.78051E+01
 -1       105 6.76775E+01
 -1       106 6.52284E+01
 -1       107 5.70814E+01
 -1       108 5.70814E+01
 -1       109 6.52284E+01
 -1       110 6.76775E+01
 -1       111 6.78051E+01
 -1       112 6.78051E+01
 -1       113 6.74612E+01
 -1       114 6.74612E+01
 -1       115 6.70188E+01
 -1       116 6.65619E+01
 -1       117 6.64286E+01
 -1       118 6.64286E+01
 -1       119 6.62774E+01
 -1       120 6.61130E+01
 -1       121 6.63759E+01
 -1       122 6.66578E+01
 -1       123 6.68418E+01
 -1       124 6.68418E+01
 -1       125 6.66845E+01
 -1       126 6.63427E+01
 -3
    1PSTEP                       389          98           1          
  100CL  198 9.80000E-01         126                     1   98           1
 -4  DISP        4    1
 -5  D1          1    2    1    0
 -5  D2          1    2    2    0
 -5  D3          1    2    3    0
 -5  ALL         1    2    0    0    1ALL
 -1         1 0.00000E+00 0.00000E+00 0.00000E+00
 -1         2 0.00000E+00 0.00000E+00 0.00000E+00
 -1         3 3.87735E-01-6.23499E-02 0.00000E+00
 -1         4 3.87735E-01-6.23499E-02 0.00000E+00
 -1         5 3.74381E-01-1.12244E-01 0.00000E+00
 -1         6 3.74381E-01-1.12244E-01 0.00000E+00
 -1         7 0.00000E+00 0.00000E+00 0.00000E+00
 -1         8 0.00000E+00 0.00000E+00 0.00000E+00
 -1         9 3.81055E-01-8.72962E-02 0.00000E+00
 -1        10 3.81055E-01-8.72962E-02 0.00000E+00
 -1        11 0.00000E+00 0.00000E+00 0.00000E+00
 -1        12 0.00000E+00 0.00000E+00 0.00000E+00
 -1        13 2.72731E-03 3.34565E-03 0.00000E+00
 -1        14 8.75540E-03 6.36512E-03 0.00000E+00
 -1        15 1.84542E-02 8.51247E-03 0.00000E+00
 -1        16 3.12789E-02 9.63994E-03 0.00000E+00
 -1        17 4.67300E-02 9.63267E-03 0.00000E+00
 -1        18 6.42565E-02 8.50164E-03 0.00000E+00
 -1        19 8.33262E-02 6.36666E-03 0.00000E+00
 -1        20 1.03527E-01 3.40589E-03 0.00000E+00
 -1        21 1.24569E-01-1.87559E-04 0.00000E+00
 -1        22 1.46309E-01-4.26584E-03 0.00000E+00
 -1        23 1.68676E-01-8.74352E-03 0.00000E+00
 -1        24 1.91643E-01-1.35986E-02 0.00000E+00
 -1        25 2.15139E-01-1.88142E-02 0.00000E+00
 -1        26 2.39076E-01-2.43578E-02 0.00000E+00
 -1        27 2.63368E-01-3.01816E-02 0.00000E+00
 -1        28 2.87967E-01-3.62600E-02 0.00000E+00
 -1        29 3.12799E-01-4.25697E-02 0.00000E+00
 -1        30 3.37767E-01-4.90701E-02 0.00000E+00
 -1        31 3.62765E-01-5.56887E-02 0.00000E+00
 -1        32 2.72731E-03 3.34565E-03 0.00000E+00
 -1        33 8.75540E-03 6.36512E-03 0.00000E+00
 -1        34 1.84542E-02 8.51247E-03 0.00000E+00
 -1        35 3.12789E-02 9.63994E-03 0.00000E+00
 -1        36 4.67300E-02 9.63267E-03 0.00000E+00
 -1        37 6.42565E-02 8.50164E-03 0.00000E+00
 -1        38 8.33262E-02 6.36666E-03 0.00000E+00
 -1        39 1.03527E-01 3.40589E-03 0.00000E+00
 -1        40 1.24569E-01-1.87559E-04 0.00000E+00
 -1        41 1.46309E-01-4.26584E-03 0.00000E+00
 -1        42 1.68676E-01-8.74352E-03 0.00000E+00
 -1        43 1.91643E-01-1.35986E-02 0.00000E+00
 -1        44 2.15139E-01-1.88142E-02 0.00000E+00
 -1        45 2.39076E-01-2.43578E-02 0.00000E+00
 -1        46 2.63368E-01-3.01816E-02 0.00000E+00
 -1        47 2.87967E-01-3.62600E-02 0.00000E+00
 -1        48 3.12799E-01-4.25697E-02 0.00000E+00
 -1        49 3.37767E-01-4.90701E-02 0.00000E+00
 -1        50 3.62765E-01-5.56887E-02 0.00000E+00
 -1        51 3.49424E-01-1.05549E-01 0.00000E+00
 -1        52 3.24493E-01-9.88094E-02 0.00000E+00
 -1        53 2.99684E-01-9.20376E-02 0.00000E+00
 -1        54 2.75103E-01-8.52815E-02 0.00000E+00
 -1        55 2.50838E-01-7.86029E-02 0.00000E+00
 -1        56 2.26943E-01-7.20432E-02 0.00000E+00
 -1        57 2.03477E-01-6.56290E-02 0.00000E+00
 -1        58 1.80518E-01-5.93865E-02 0.00000E+00
 -1        59 1.58146E-01-5.33567E-02 0.00000E+00
 -1        60 1.36415E-01-4.75658E-02 0.00000E+00
 -1        61 1.15381E-01-4.20070E-02 0.00000E+00
 -1        62 9.51381E-02-3.66390E-02 0.00000E+00
 -1        63 7.58932E-02-3.14241E-02 0.00000E+00
 -1        64 5.79645E-02-2.63525E-02 0.00000E+00
 -1        65 4.17627E-02-2.14517E-02 0.00000E+00
 -1        66 2.77172E-02-1.67630E-02 0.00000E+00
 -1        67 1.62471E-02-1.23148E-02 0.00000E+00
 -1        68 7.67170E-03-8.08853E-03 0.00000E+00
 -1        69 2.46367E-03-3.93914E-03 0.00000E+00
 -1        70 3.49424E-01-1.05549E-01 0.00000E+00
 -1        71 3.24493E-01-9.88094E-02 0.00000E+00
 -1        72 2.99684E-01-9.20376E-02 0.00000E+00
 -1        73 2.75103E-01-8.52815E-02 0.00000E+00
 -1        74 2.50838E-01-7.86029E-02 0.00000E+00
 -1        75 2.26943E-01-7.20432E-02 0.00000E+00
 -1        76 2.03477E-01-6.56290E-02 0.00000E+00
 -1        77 1.80518E-01-5.93865E-02 0.00000E+00
 -1        78 1.58146E-01-5.33567E-02 0.00000E+00
 -1        79 1.36415E-01-4.75658E-02 0.00000E+00
 -1        80 1.15381E-01-4.20070E-02 0.00000E+00
 -1        81 9.51381E-02-3.66390E-02 0.00000E+00
 -1        82 7.58932E-02-3.14241E-02 0.00000E+00
 -1        83 5.79645E-02-2.63525E-02 0.00000E+00
 -1        84 4.17627E-02-2.14517E-02 0.00000E+00
 -1        85 2.77172E-02-1.67630E-02 0.00000E+00
 -1        86 1.62471E-02-1.23148E-02 0.00000E+00
 -1        87 7.67170E-03-8.08853E-03 0.00000E+00
 -1        88 2.46367E-03-3.93914E-03 0.00000E+00
 -1        89 1.64550E-03-2.38605E-04 0.00000E+00
 -1        90 7.51315E-03-7.46980E-04 0.00000E+00
 -1        91 1.67041E-02-1.74824E-03 0.00000E+00
 -1        92 2.89494E-02-3.39763E-03 0.00000E+00
 -1        93 4.37945E-02-5.75058E-03 0.00000E+00
 -1        94 6.07527E-02-8.78350E-03 0.00000E+00
 -1        95 7.93347E-02-1.24103E-02 0.00000E+00
 -1        96 9.91186E-02-1.65205E-02 0.00000E+00
 -1        97 1.19801E-01-2.10168E-02 0.00000E+00
 -1        98 1.41211E-01-2.58428E-02 0.00000E+00
 -1        99 1.63277E-01-3.09819E-02 0.00000E+00
 -1       100 1.85961E-01-3.64303E-02 0.00000E+00
 -1       101 2.09205E-01-4.21669E-02 0.00000E+00
 -1       102 2.32922E-01-4.81524E-02 0.00000E+00
 -1       103 2.57031E-01-5.43511E-02 0.00000E+00
 -1       104 2.81478E-01-6.07380E-02 0.00000E+00
 -1       105 3.06202E-01-6.72812E-02 0.00000E+00
 -1       106 3.31108E-01-7.39274E-02 0.00000E+00
 -1       107 3.56087E-01-8.06141E-02 0.00000E+00
 -1       108 3.56087E-01-8.06141E-02 0.00000E+00
 -1       109 3.31108E-01-7.39274E-02 0.00000E+00
 -1       110 3.06202E-01-6.72812E-02 0.00000E+00
 -1       111 2.81478E-01-6.07380E-02 0.00000E+00
 -1       112 2.57031E-01-5.43511E-02 0.00000E+00
 -1       113 2.32922E-01-4.81524E-02 0.00000E+00
 -1       114 2.09205E-01-4.21669E-02 0.00000E+00
 -1       115 1.85961E-01-3.64303E-02 0.00000E+00
 -1       116 1.63277E-01-3.09819E-02 0.00000E+00
 -1       117 1.41211E-01-2.58428E-02 0.00000E+00
 -1       118 1.19801E-01-2.10168E-02 0.00000E+00
 -1       119 9.91186E-02-1.65205E-02 0.00000E+00
 -1       120 7.93347E-02-1.24103E-02 0.00000E+00
 -1       121 6.07527E-02-8.78350E-03 0.00000E+00
 -1       122 4.37945E-02-5.75058E-03 0.00000E+00
 -1       123 2.89494E-02-3.39763E-03 0.00000E+00
 -1       124 1.67041E-02-1.74824E-03 0.00000E+00
 -1       125 7.51315E-03-7.46980E-04 0.00000E+00
 -1       126 1.64550E-03-2.38605E-04 0.00000E+00
 -3
    1PSTEP                       390          98           1          
  100CL  198 9.80000E-01         126                     1   98           1
 -4  STRESS      6    1
 -5  SXX         1    4    1    1
 -5  SYY         1    4    2    2
 -5  SZZ         1    4    3    3
 -5  SXY         1    4    1    2
 -5  SYZ         1    4    2    3
 -5  SZX         1    4    3    1
 -1         1 1.60164E+04 3.94358E+04 1.52702E+04 1.01736E+04-5.74903E-11 5.72661E-11
 -1         2 1.60164E+04 3.94358E+04 1.52702E+04 1.01736E+04-5.74903E-11 5.72661E-11
 -1         3 4.53386E+01 6.93398E+01 3.43761E+01 9.31928E+01 8.40971E-08-3.49831E-07
 -1         4 4.53386E+01 6.93398E+01 3.43761E+01 9.31928E+01 8.40971E-08-3.49812E-07
 -1         5-1.01638E+02-2.42853E+02-1.03406E+02-4.61849E+00 2.92937E-07-2.33348E-07
 -1         6-1.01638E+02-2.42853E+02-1.03406E+02-4.61849E+00 2.92924E-07-2.33234E-07
 -1         7-1.81450E+04-3.79744E+04-1.86396E+04 5.81589E+03 2.13935E-10-4.99079E-10
 -1         8-1.81450E+04-3.79744E+04-1.86396E+04 5.81589E+03 2.13949E-10-4.99072E-10
 -1         9-2.17429E+01-1.15449E+02-4.11740E+01 4.92561E+01 1.93561E-07-2.87115E-07
 -1        10-2.17429E+01-1.15449E+02-4.11740E+01 4.92561E+01 1.93563E-07-2.87165E-07
 -1        11-8.56837E+02-3.35357E+03-9.76500E+02 4.95000E+03-3.01122E-11-1.15591E-10
 -1        12-8.56837E+02-3.35357E+03-9.76500E+02 4.95000E+03-3.01396E-11-1.15605E-10
 -1        13 6.16908E+03 3.47692E+04 1.12898E+04 3.78946E+03 9.99192E-09-5.21953E-09
 -1        14 8.01834E+03 3.30734E+04 1.13717E+04 4.43506E+03 1.48611E-08 3.76754E-08
 -1        15 7.71695E+03 2.86483E+04 1.01433E+04 5.69964E+03 3.32058E-10 8.79418E-08
 -1        16 7.52653E+03 2.41806E+04 8.92110E+03 6.10512E+03-2.93570E-08 1.27371E-07
 -1        17 6.96648E+03 1.95241E+04 7.52612E+03 5.90614E+03-6.52633E-08 1.41094E-07
 -1        18 6.07235E+03 1.51855E+04 6.10046E+03 5.22917E+03-7.99959E-08 1.14492E-07
 -1        19 5.09661E+03 1.16095E+04 4.83922E+03 4.32487E+03-6.88450E-08 7.93931E-08
 -1        20 4.13654E+03 8.96697E+03 3.82425E+03 3.48339E+03-4.95461E-08 5.81408E-08
 -1        21 3.39131E+03 7.26728E+03 3.12634E+03 2.85711E+03-4.58013E-08 6.88290E-08
 -1        22 2.87852E+03 6.23797E+03 2.68168E+03 2.47820E+03-5.74213E-08 6.27676E-08
 -1        23 2.63101E+03 5.55598E+03 2.41266E+03 2.23900E+03-6.40563E-08 4.12630E-08
 -1        24 2.41007E+03 4.87003E+03 2.14927E+03 2.04685E+03-5.52888E-08 7.60294E-09
 -1        25 2.14962E+03 4.14925E+03 1.86338E+03 1.82077E+03-3.28275E-08-2.14447E-08
 -1        26 1.82456E+03 3.45371E+03 1.56464E+03 1.58009E+03-4.65354E-09-3.21225E-08
 -1        27 1.56904E+03 2.84010E+03 1.30944E+03 1.33442E+03 1.16990E-08-2.63219E-08
 -1        28 1.27907E+03 2.15200E+03 1.02088E+03 1.09279E+03 5.00698E-09-1.77169E-08
 -1        29 9.28161E+02 1.38497E+03 6.89727E+02 8.03559E+02-1.40663E-08-4.94116E-08
 -1        30 5.09062E+02 6.56035E+02 3.48159E+02 4.88831E+02-9.83822E-09-1.29870E-07
 -1        31 1.75743E+02 1.96866E+02 1.11544E+02 2.13984E+02 2.71887E-08-2.38353E-07
 -1        32 6.16908E+03 3.47692E+04 1.12898E+04 3.78946E+03 9.99192E-09-5.21953E-09
 -1        33 8.01834E+03 3.30734E+04 1.13717E+04 4.43506E+03 1.48611E-08 3.76754E-08
 -1        34 7.71695E+03 2.86483E+04 1.01433E+04 5.69964E+03 3.32059E-10 8.79418E-08
 -1        35 7.52653E+03 2.41806E+04 8.92110E+03 6.10512E+03-2.93572E-08 1.27371E-07
 -1        36 6.96648E+03 1.95241E+04 7.52612E+03 5.90614E+03-6.52631E-08 1.41096E-07
 -1        37 6.07235E+03 1.51855E+04 6.10046E+03 5.22917E+03-7.99960E-08 1.14492E-07
 -1        38 5.09661E+03 1.16095E+04 4.83922E+03 4.32487E+03-6.88456E-08 7.93951E-08
 -1        39 4.13654E+03 8.96697E+03 3.82425E+03 3.48339E+03-4.95461E-08 5.81407E-08
 -1        40 3.39131E+03 7.26728E+03 3.12634E+03 2.85711E+03-4.58012E-08 6.88289E-08
 -1        41 2.87852E+03 6.23797E+03 2.68168E+03 2.47820E+03-5.74218E-08 6.27710E-08
 -1        42 2.63101E+03 5.55598E+03 2.41266E+03 2.23900E+03-6.40567E-08 4.12657E-08
 -1        43 2.41007E+03 4.87003E+03 2.14927E+03 2.04685E+03-5.52870E-08 7.60194E-09
 -1        44 2.14962E+03 4.14925E+03 1.86338E+03 1.82077E+03-3.28275E-08-2.14382E-08
 -1        45 1.82456E+03 3.45371E+03 1.56464E+03 1.58009E+03-4.65360E-09-3.21304E-08
 -1        46 1.56904E+03 2.84010E+03 1.30944E+03 1.33442E+03 1.16981E-08-2.63220E-08
 -1        47 1.27907E+03 2.15200E+03 1.02088E+03 1.09279E+03 5.00723E-09-1.77169E-08
 -1        48 9.28161E+02 1.38497E+03 6.89727E+02 8.03559E+02-1.40627E-08-4.93871E-08
 -1        49 5.09062E+02 6.56035E+02 3.48159E+02 4.88831E+02-9.83621E-09-1.29876E-07
 -1        50 1.75743E+02 1.96866E+02 1.11544E+02 2.13984E+02 2.71850E-08-2.38371E-07
 -1        51-1.91371E+02-5.06965E+02-2.09816E+02-5.71412E+01 2.26502E-07-1.24925E-07
 -1        52-4.22099E+02-1.12900E+03-4.66911E+02-2.44724E+02 1.46021E-07-4.23987E-08
 -1        53-7.65337E+02-1.88287E+03-7.99048E+02-5.35184E+02 6.66406E-08-1.48221E-09
 -1        54-1.15365E+03-2.61148E+03-1.13862E+03-8.32437E+02 2.78074E-08-1.30877E-08
 -1        55-1.49464E+03-3.25338E+03-1.43859E+03-1.08150E+03 2.15748E-08-2.94784E-08
 -1        56-1.80570E+03-3.89630E+03-1.73085E+03-1.29126E+03 2.21702E-08-2.64927E-08
 -1        57-2.07367E+03-4.56826E+03-2.02051E+03-1.51378E+03 1.73648E-08-3.31763E-09
 -1        58-2.35761E+03-5.26137E+03-2.32283E+03-1.73046E+03 1.46971E-09 3.59281E-08
 -1        59-2.61141E+03-5.92642E+03-2.60789E+03-1.91111E+03-1.94826E-08 5.80513E-08
 -1        60-2.85820E+03-6.70840E+03-2.92799E+03-2.05548E+03-3.56316E-08 7.07259E-08
 -1        61-3.13786E+03-7.89151E+03-3.38691E+03-2.24811E+03-3.89195E-08 6.52596E-08
 -1        62-3.64396E+03-9.83397E+03-4.16311E+03-2.56325E+03-2.87454E-08 6.73658E-08
 -1        63-4.44093E+03-1.26664E+04-5.33076E+03-3.02910E+03-2.39189E-08 8.89036E-08
 -1        64-5.49587E+03-1.62843E+04-6.86342E+03-3.55495E+03-4.14866E-08 1.36377E-07
 -1        65-6.58987E+03-2.03428E+04-8.59435E+03-3.96871E+03-6.52064E-08 1.47846E-07
 -1        66-7.63071E+03-2.44943E+04-1.03809E+04-4.05880E+03-7.83849E-08 1.22932E-07
 -1        67-8.37221E+03-2.83287E+04-1.19952E+04-3.64609E+03-7.41319E-08 7.33482E-08
 -1        68-9.65033E+03-3.21591E+04-1.38114E+04-2.86315E+03-5.62692E-08 4.22756E-08
 -1        69-7.40194E+03-3.32449E+04-1.35138E+04-6.00508E+02-2.72030E-08 7.83684E-09
 -1        70-1.91371E+02-5.06965E+02-2.09816E+02-5.71412E+01 2.26500E-07-1.24961E-07
 -1        71-4.22099E+02-1.12900E+03-4.66911E+02-2.44724E+02 1.46027E-07-4.24130E-08
 -1        72-7.65337E+02-1.88287E+03-7.99048E+02-5.35184E+02 6.66435E-08-1.50933E-09
 -1        73-1.15365E+03-2.61148E+03-1.13862E+03-8.32437E+02 2.78006E-08-1.30854E-08
 -1        74-1.49464E+03-3.25338E+03-1.43859E+03-1.08150E+03 2.15757E-08-2.94839E-08
 -1        75-1.80570E+03-3.89630E+03-1.73085E+03-1.29126E+03 2.21699E-08-2.64935E-08
 -1        76-2.07367E+03-4.56826E+03-2.02051E+03-1.51378E+03 1.73645E-08-3.32132E-09
 -1        77-2.35761E+03-5.26137E+03-2.32283E+03-1.73046E+03 1.46882E-09 3.59454E-08
 -1        78-2.61141E+03-5.92642E+03-2.60789E+03-1.91111E+03-1.94792E-08 5.80513E-08
 -1        79-2.85820E+03-6.70840E+03-2.92799E+03-2.05548E+03-3.56350E-08 7.07269E-08
 -1        80-3.13786E+03-7.89151E+03-3.38691E+03-2.24811E+03-3.89185E-08 6.52561E-08
 -1        81-3.64396E+03-9.83397E+03-4.16311E+03-2.56325E+03-2.87455E-08 6.73653E-08
 -1        82-4.44093E+03-1.26664E+04-5.33076E+03-3.02910E+03-2.39181E-08 8.88986E-08
 -1        83-5.49587E+03-1.62843E+04-6.86342E+03-3.55495E+03-4.14867E-08 1.36378E-07
 -1        84-6.58987E+03-2.03428E+04-8.59435E+03-3.96871E+03-6.52065E-08 1.47846E-07
 -1        85-7.63071E+03-2.44943E+04-1.03809E+04-4.05880E+03-7.83850E-08 1.22932E-07
 -1        86-8.37221E+03-2.83287E+04-1.19952E+04-3.64609E+03-7.41319E-08 7.33488E-08
 -1        87-9.65033E+03-3.21591E+04-1.38114E+04-2.86315E+03-5.62693E-08 4.22755E-08
 -1        88-7.40194E+03-3.32449E+04-1.35138E+04-6.00508E+02-2.72031E-08 7.83681E-09
 -1        89-1.39505E+02-3.15505E+03-8.99969E+02 1.89760E+02-9.88464E-09-3.21891E-09
 -1        90-2.52405E+02-2.95347E+03-8.13114E+02 6.44323E+02-2.87590E-08 3.53385E-08
 -1        91 7.03723E+00-2.60675E+03-6.75323E+02 5.68427E+02-4.29496E-08 8.07046E-08
 -1        92 2.07668E+02-2.29186E+03-5.45277E+02 6.46026E+02-5.58542E-08 1.28505E-07
 -1        93 3.91920E+02-1.93638E+03-4.07462E+02 6.92178E+02-6.56978E-08 1.51069E-07
 -1        94 4.60625E+02-1.58862E+03-3.01314E+02 6.78306E+02-6.14138E-08 1.26907E-07
 -1        95 4.63085E+02-1.21674E+03-2.01999E+02 5.68507E+02-4.54000E-08 8.29187E-08
 -1        96 3.37965E+02-8.79872E+02-1.46720E+02 4.12930E+02-3.81544E-08 5.95178E-08
 -1        97 1.83915E+02-5.93862E+02-1.12063E+02 2.63582E+02-4.58123E-08 6.52395E-08
 -1        98 4.73301E+01-4.23666E+02-1.05091E+02 1.71192E+02-4.87641E-08 6.90221E-08
 -1        99 3.72443E+01-3.38360E+02-8.45291E+01 1.28554E+02-4.07014E-08 5.40388E-08
 -1       100 5.34201E+01-3.31818E+02-7.91079E+01 1.33329E+02-2.58341E-08 2.25166E-08
 -1       101 7.24030E+01-3.19803E+02-7.08166E+01 1.42392E+02-5.30468E-09-1.41946E-08
 -1       102 4.83907E+01-3.06593E+02-7.49963E+01 1.43821E+02 8.88607E-09-3.40335E-08
 -1       103 7.53802E+01-2.83287E+02-6.07934E+01 1.32651E+02 1.39613E-08-3.05859E-08
 -1       104 1.04888E+02-3.04224E+02-5.90095E+01 1.44978E+02 1.45698E-08-1.31102E-08
 -1       105 1.32977E+02-3.14974E+02-5.43178E+01 1.59130E+02 2.34737E-08-1.26979E-08
 -1       106 9.43988E+01-2.85684E+02-5.73530E+01 1.49454E+02 6.65158E-08-7.68563E-08
 -1       107 1.87733E+01-1.89047E+02-5.11062E+01 9.38712E+01 1.28539E-07-1.78205E-07
 -1       108 1.87733E+01-1.89047E+02-5.11062E+01 9.38712E+01 1.28539E-07-1.78145E-07
 -1       109 9.43988E+01-2.85684E+02-5.73530E+01 1.49454E+02 6.65145E-08-7.68600E-08
 -1       110 1.32977E+02-3.14974E+02-5.43178E+01 1.59130E+02 2.34701E-08-1.27008E-08
 -1       111 1.04888E+02-3.04224E+02-5.90095E+01 1.44978E+02 1.45701E-08-1.31114E-08
 -1       112 7.53802E+01-2.83287E+02-6.07934E+01 1.32651E+02 1.39645E-08-3.05875E-08
 -1       113 4.83907E+01-3.06593E+02-7.49963E+01 1.43821E+02 8.88672E-09-3.40293E-08
 -1       114 7.24030E+01-3.19803E+02-7.08166E+01 1.42392E+02-5.30411E-09-1.42047E-08
 -1       115 5.34201E+01-3.31818E+02-7.91079E+01 1.33329E+02-2.58376E-08 2.25161E-08
 -1       116 3.72443E+01-3.38360E+02-8.45291E+01 1.28554E+02-4.07010E-08 5.40337E-08
 -1       117 4.73301E+01-4.23666E+02-1.05091E+02 1.71192E+02-4.87627E-08 6.90156E-08
 -1       118 1.83915E+02-5.93862E+02-1.12063E+02 2.63582E+02-4.58128E-08 6.52401E-08
 -1       119 3.37965E+02-8.79872E+02-1.46720E+02 4.12930E+02-3.81543E-08 5.95181E-08
 -1       120 4.63085E+02-1.21674E+03-2.01999E+02 5.68507E+02-4.54012E-08 8.29181E-08
 -1       121 4.60625E+02-1.58862E+03-3.01314E+02 6.78306E+02-6.14139E-08 1.26908E-07
 -1       122 3.91920E+02-1.93638E+03-4.07462E+02 6.92178E+02-6.56981E-08 1.51066E-07
 -1       123 2.07668E+02-2.29186E+03-5.45277E+02 6.46026E+02-5.58538E-08 1.28505E-07
 -1       124 7.03723E+00-2.60675E+03-6.75323E+02 5.68427E+02-4.29497E-08 8.07041E-08
 -1       125-2.52405E+02-2.95347E+03-8.13114E+02 6.44323E+02-2.87588E-08 3.53386E-08
 -1       126-1.39505E+02-3.15505E+03-8.99969E+02 1.89760E+02-9.88459E-09-3.21886E-09
 -3
    1PSTEP                       391          98           1          
  100CL  198 9.80000E-01         126                     1   98           1
 -4  TOSTRAIN    6    1
 -5  EXX         1    4    1    1
 -5  EYY         1    4    2    2
 -5  EZZ         1    4    3    3
 -5  EXY         1    4    1    2
 -5  EYZ         1    4    2    3
 -5  EZX         1    4    3    1
 -1         1-4.66903E-04 7.01706E-02-1.85733E-28 2.72728E-02 2.28469E-19 2.86988E-16
 -1         2-4.66903E-04 7.01706E-02-1.85733E-28 2.72728E-02 2.28469E-19 2.86988E-16
 -1         3-2.07015E-04 3.55971E-04 2.62441E-24 1.18144E-04-3.30392E-13-1.12173E-12
 -1         4-2.07015E-04 3.55971E-04 2.62420E-24 1.18144E-04-3.30361E-13-1.12168E-12
 -1         5-9.57341E-05-3.52175E-04 2.86555E-24 1.91205E-04 4.46866E-13-1.13281E-12
 -1         6-9.57341E-05-3.52175E-04 2.86436E-24 1.91205E-04 4.47015E-13-1.13247E-12
 -1         7-4.79084E-04-7.49425E-02-3.63399E-27 2.46364E-02 1.19259E-18-1.38739E-15
 -1         8-4.79084E-04-7.49425E-02-3.63400E-27 2.46364E-02 1.24279E-18-1.38737E-15
 -1         9-1.51375E-04-2.70351E-05 2.42811E-24 2.12108E-04 7.95101E-14-1.12286E-12
 -1        10-1.51375E-04-2.70351E-05 2.42866E-24 2.12108E-04 7.94341E-14-1.12301E-12
 -1        11-4.72994E-04-4.69204E-03-6.04185E-29 1.64548E-02 6.44546E-19-3.83254E-16
 -1        12-4.72994E-04-4.69204E-03-6.04041E-29 1.64548E-02 5.50863E-19-3.83296E-16
 -1        13-1.92736E-02 6.96169E-02-2.05398E-27 4.70573E-03 2.89726E-14-1.92533E-14
 -1        14-1.47969E-02 6.57027E-02 1.87390E-26 1.88515E-03 6.09433E-14 1.12069E-13
 -1        15-1.36373E-02 5.88854E-02 1.46763E-25 2.70806E-03 5.67741E-14 2.75284E-13
 -1        16-1.17398E-02 5.14168E-02 3.52851E-25 2.95553E-03 1.63050E-14 4.19418E-13
 -1        17-9.82045E-03 4.31718E-02 5.08224E-25 3.12567E-03-5.59440E-14 4.97388E-13
 -1        18-7.97116E-03 3.48995E-02 4.06512E-25 2.95268E-03-1.08923E-13 4.36872E-13
 -1        19-6.19403E-03 2.74792E-02 2.26766E-25 2.47400E-03-1.05713E-13 3.22260E-13
 -1        20-4.90038E-03 2.16695E-02 1.20963E-25 1.83166E-03-6.98543E-14 2.36942E-13
 -1        21-4.07104E-03 1.77495E-02 1.44162E-25 1.19797E-03-4.06624E-14 2.64730E-13
 -1        22-3.66242E-03 1.53783E-02 1.51356E-25 7.41688E-04-7.82725E-14 2.64145E-13
 -1        23-3.26410E-03 1.37962E-02 1.16097E-25 5.63943E-04-1.24239E-13 2.12565E-13
 -1        24-2.93723E-03 1.23121E-02 5.56728E-26 5.90076E-04-1.46061E-13 1.04226E-13
 -1        25-2.57519E-03 1.06962E-02 2.44840E-26 6.18597E-04-1.25144E-13-1.14342E-14
 -1        26-2.27996E-03 9.09255E-03 1.93554E-26 5.66982E-04-6.23297E-14-8.43488E-14
 -1        27-1.88068E-03 7.57782E-03 1.68288E-26 5.42674E-04-8.09436E-15-9.31412E-14
 -1        28-1.52703E-03 5.96497E-03 4.73187E-27 6.23494E-04-1.39840E-14-5.81000E-14
 -1        29-1.11456E-03 4.11021E-03 3.28517E-26 6.88474E-04-1.18609E-13-1.16742E-13
 -1        30-7.32656E-04 2.24339E-03 2.92848E-25 5.92890E-04-2.37085E-13-3.49949E-13
 -1        31-3.76059E-04 8.59721E-04 1.11579E-24 3.18901E-04-3.09413E-13-7.15418E-13
 -1        32-1.92736E-02 6.96169E-02-2.05398E-27 4.70573E-03 2.89726E-14-1.92533E-14
 -1        33-1.47969E-02 6.57027E-02 1.87390E-26 1.88515E-03 6.09433E-14 1.12069E-13
 -1        34-1.36373E-02 5.88854E-02 1.46763E-25 2.70806E-03 5.67741E-14 2.75284E-13
 -1        35-1.17398E-02 5.14168E-02 3.52850E-25 2.95553E-03 1.63043E-14 4.19417E-13
 -1        36-9.82045E-03 4.31718E-02 5.08235E-25 3.12567E-03-5.59413E-14 4.97394E-13
 -1        37-7.97116E-03 3.48995E-02 4.06511E-25 2.95268E-03-1.08923E-13 4.36871E-13
 -1        38-6.19403E-03 2.74792E-02 2.26775E-25 2.47400E-03-1.05712E-13 3.22267E-13
 -1        39-4.90038E-03 2.16695E-02 1.20963E-25 1.83166E-03-6.98544E-14 2.36942E-13
 -1        40-4.07104E-03 1.77495E-02 1.44161E-25 1.19797E-03-4.06621E-14 2.64730E-13
 -1        41-3.66242E-03 1.53783E-02 1.51367E-25 7.41688E-04-7.82690E-14 2.64156E-13
 -1        42-3.26410E-03 1.37962E-02 1.16104E-25 5.63943E-04-1.24237E-13 2.12574E-13
 -1        43-2.93723E-03 1.23121E-02 5.56705E-26 5.90076E-04-1.46057E-13 1.04220E-13
 -1        44-2.57519E-03 1.06962E-02 2.44791E-26 6.18597E-04-1.25133E-13-1.14155E-14
 -1        45-2.27996E-03 9.09255E-03 1.93649E-26 5.66982E-04-6.23419E-14-8.43713E-14
 -1        46-1.88068E-03 7.57782E-03 1.68283E-26 5.42674E-04-8.09698E-15-9.31397E-14
 -1        47-1.52703E-03 5.96497E-03 4.73201E-27 6.23494E-04-1.39833E-14-5.81004E-14
 -1        48-1.11456E-03 4.11021E-03 3.27910E-26 6.88474E-04-1.18559E-13-1.16679E-13
 -1        49-7.32656E-04 2.24339E-03 2.92851E-25 5.92890E-04-2.37089E-13-3.49969E-13
 -1        50-3.76059E-04 8.59721E-04 1.11593E-24 3.18901E-04-3.09453E-13-7.15463E-13
 -1        51-3.50900E-05-8.73193E-04 1.32227E-24 3.51252E-04 4.36127E-13-7.19684E-13
 -1        52 2.61484E-04-2.28089E-03 4.28792E-25 5.93514E-04 3.44195E-13-3.56293E-13
 -1        53 7.10382E-04-4.16298E-03 7.20660E-26 6.80494E-04 1.86863E-13-1.11694E-13
 -1        54 1.11331E-03-6.02836E-03 1.63965E-26 6.28812E-04 5.83401E-14-8.15556E-14
 -1        55 1.44036E-03-7.64456E-03 2.74926E-26 5.66458E-04 1.50466E-14-1.17981E-13
 -1        56 1.70878E-03-9.16631E-03 2.34754E-26 5.74123E-04 2.25057E-14-1.10282E-13
 -1        57 2.09185E-03-1.07893E-02 3.99819E-28 6.07580E-04 4.54890E-14-3.60777E-14
 -1        58 2.44743E-03-1.24366E-02 1.94748E-26 5.94962E-04 5.86892E-14 1.01790E-13
 -1        59 2.75654E-03-1.39613E-02 7.51548E-26 5.85175E-04 2.80240E-14 1.97604E-13
 -1        60 3.04081E-03-1.56071E-02 1.31037E-25 7.40316E-04-5.03963E-15 2.58128E-13
 -1        61 3.58943E-03-1.81019E-02 1.21818E-25 1.17341E-03-2.70055E-14 2.46446E-13
 -1        62 4.46635E-03-2.22552E-02 1.11768E-25 1.82563E-03 2.04003E-15 2.38934E-13
 -1        63 5.77525E-03-2.84597E-02 1.71560E-25 2.49464E-03 3.88655E-14 2.98120E-13
 -1        64 7.41496E-03-3.64656E-02 4.19365E-25 2.96728E-03 2.96364E-14 4.64843E-13
 -1        65 9.32443E-03-4.54848E-02 5.47426E-25 3.13634E-03-5.59511E-14 5.26284E-13
 -1        66 1.11425E-02-5.45489E-02 4.51830E-25 2.99120E-03-1.52732E-13 4.56737E-13
 -1        67 1.29125E-02-6.27889E-02 2.43921E-25 2.81175E-03-2.05118E-13 2.86651E-13
 -1        68 1.35473E-02-7.05886E-02 1.17268E-25 1.86930E-03-1.80362E-13 1.64464E-13
 -1        69 1.87679E-02-7.47583E-02 1.61613E-26 4.97387E-03-9.71576E-14 3.26668E-14
 -1        70-3.50900E-05-8.73193E-04 1.32254E-24 3.51252E-04 4.36064E-13-7.19784E-13
 -1        71 2.61484E-04-2.28089E-03 4.28848E-25 5.93514E-04 3.44189E-13-3.56344E-13
 -1        72 7.10382E-04-4.16298E-03 7.20796E-26 6.80494E-04 1.86828E-13-1.11775E-13
 -1        73 1.11331E-03-6.02836E-03 1.63868E-26 6.28812E-04 5.83245E-14-8.15381E-14
 -1        74 1.44036E-03-7.64456E-03 2.74994E-26 5.66458E-04 1.50404E-14-1.17998E-13
 -1        75 1.70878E-03-9.16631E-03 2.34761E-26 5.74123E-04 2.25036E-14-1.10283E-13
 -1        76 2.09185E-03-1.07893E-02 3.94433E-28 6.07580E-04 4.54825E-14-3.60879E-14
 -1        77 2.44743E-03-1.24366E-02 1.94938E-26 5.94962E-04 5.87128E-14 1.01841E-13
 -1        78 2.75654E-03-1.39613E-02 7.51519E-26 5.85175E-04 2.80338E-14 1.97599E-13
 -1        79 3.04081E-03-1.56071E-02 1.31045E-25 7.40316E-04-5.04841E-15 2.58135E-13
 -1        80 3.58943E-03-1.81019E-02 1.21807E-25 1.17341E-03-2.70074E-14 2.46435E-13
 -1        81 4.46635E-03-2.22552E-02 1.11766E-25 1.82563E-03 2.03926E-15 2.38933E-13
 -1        82 5.77525E-03-2.84597E-02 1.71537E-25 2.49464E-03 3.88617E-14 2.98104E-13
 -1        83 7.41496E-03-3.64656E-02 4.19371E-25 2.96728E-03 2.96376E-14 4.64847E-13
 -1        84 9.32443E-03-4.54848E-02 5.47427E-25 3.13634E-03-5.59513E-14 5.26285E-13
 -1        85 1.11425E-02-5.45489E-02 4.51826E-25 2.99120E-03-1.52733E-13 4.56734E-13
 -1        86 1.29125E-02-6.27889E-02 2.43923E-25 2.81175E-03-2.05118E-13 2.86653E-13
 -1        87 1.35473E-02-7.05886E-02 1.17268E-25 1.86930E-03-1.80362E-13 1.64464E-13
 -1        88 1.87679E-02-7.47583E-02 1.61613E-26 4.97387E-03-9.71577E-14 3.26667E-14
 -1        89-2.52839E-04-4.17897E-03-2.83696E-27 1.31470E-03-3.25346E-14-8.21509E-15
 -1        90-6.24796E-04-3.47255E-03 3.15251E-26 3.29955E-03-7.57407E-14 1.27656E-13
 -1        91-3.62418E-04-3.00382E-03 1.63472E-25 3.43973E-03-8.17766E-14 2.86382E-13
 -1        92-2.98660E-04-2.40224E-03 4.09347E-25 3.89630E-03-6.49605E-14 4.51527E-13
 -1        93-2.48011E-04-1.75584E-03 5.74173E-25 4.06636E-03-5.04813E-14 5.33745E-13
 -1        94-2.78103E-04-1.18308E-03 4.15616E-25 3.85579E-03-4.33239E-14 4.56751E-13
 -1        95-2.09388E-04-7.62429E-04 1.83058E-25 3.23621E-03-3.47322E-14 3.05670E-13
 -1        96-2.17017E-04-4.78165E-04 1.04508E-25 2.36717E-03-3.62532E-14 2.27177E-13
 -1        97-2.40805E-04-2.83959E-04 1.34543E-25 1.51871E-03-4.66688E-14 2.55131E-13
 -1        98-3.10808E-04-1.73333E-04 1.50395E-25 9.45949E-04-4.57983E-14 2.71056E-13
 -1        99-2.53780E-04-1.35534E-04 9.23993E-26 7.39292E-04-4.00915E-14 2.16353E-13
 -1       100-2.44900E-04-1.16185E-04 1.62526E-26 7.61702E-04-4.11940E-14 1.03610E-13
 -1       101-2.41667E-04-7.90409E-05-1.71719E-27 7.87617E-04-3.68753E-14-3.26316E-14
 -1       102-2.85590E-04-4.93224E-05 2.43879E-26 7.38782E-04-2.74150E-14-1.10988E-13
 -1       103-2.20162E-04-5.02173E-05 2.32124E-26 7.23080E-04-8.49847E-15-1.08961E-13
 -1       104-2.06856E-04-5.31865E-05 7.38219E-27 8.13173E-04 2.03049E-14-6.03987E-14
 -1       105-2.02088E-04-3.54454E-05-3.02437E-27 8.90278E-04 4.57987E-14-7.37130E-14
 -1       106-2.35586E-04-1.36406E-05 1.55563E-25 7.78699E-04 6.32088E-14-3.24440E-13
 -1       107-2.05574E-04-1.59869E-05 9.21958E-25 4.45433E-04 7.32459E-14-7.10632E-13
 -1       108-2.05574E-04-1.59869E-05 9.21503E-25 4.45433E-04 7.33450E-14-7.10462E-13
 -1       109-2.35586E-04-1.36406E-05 1.55607E-25 7.78699E-04 6.31992E-14-3.24448E-13
 -1       110-2.02088E-04-3.54454E-05-3.01609E-27 8.90278E-04 4.57837E-14-7.37153E-14
 -1       111-2.06856E-04-5.31865E-05 7.38431E-27 8.13173E-04 2.03039E-14-6.04025E-14
 -1       112-2.20162E-04-5.02173E-05 2.32171E-26 7.23080E-04-8.49180E-15-1.08970E-13
 -1       113-2.85590E-04-4.93224E-05 2.43839E-26 7.38782E-04-2.74068E-14-1.10977E-13
 -1       114-2.41667E-04-7.90409E-05-1.71057E-27 7.87617E-04-3.68891E-14-3.26615E-14
 -1       115-2.44900E-04-1.16185E-04 1.62546E-26 7.61702E-04-4.12048E-14 1.03614E-13
 -1       116-2.53780E-04-1.35534E-04 9.23874E-26 7.39292E-04-4.00976E-14 2.16337E-13
 -1       117-3.10808E-04-1.73333E-04 1.50374E-25 9.45949E-04-4.58035E-14 2.71035E-13
 -1       118-2.40805E-04-2.83959E-04 1.34545E-25 1.51871E-03-4.66693E-14 2.55134E-13
 -1       119-2.17017E-04-4.78165E-04 1.04509E-25 2.36717E-03-3.62525E-14 2.27178E-13
 -1       120-2.09388E-04-7.62429E-04 1.83059E-25 3.23621E-03-3.47367E-14 3.05670E-13
 -1       121-2.78103E-04-1.18308E-03 4.15622E-25 3.85579E-03-4.33229E-14 4.56755E-13
 -1       122-2.48011E-04-1.75584E-03 5.74153E-25 4.06636E-03-5.04856E-14 5.33735E-13
 -1       123-2.98660E-04-2.40224E-03 4.09347E-25 3.89630E-03-6.49590E-14 4.51528E-13
 -1       124-3.62418E-04-3.00382E-03 1.63471E-25 3.43973E-03-8.17771E-14 2.86381E-13
 -1       125-6.24796E-04-3.47255E-03 3.15251E-26 3.29955E-03-7.57403E-14 1.27656E-13
 -1       126-2.52839E-04-4.17897E-03-2.83698E-27 1.31470E-03-3.25344E-14-8.21492E-15
 -3
    1PSTEP                       392          98           1          
  100CL  198 9.80000E-01         126                     1   98           1
 -4  ERROR       1    1
 -5  STR(%)      1    1    0    0
 -1         1 6.71094E+01
 -1         2 6.71094E+01
 -1         3 4.57631E+01
 -1         4 4.57631E+01
 -1         5 2.38699E+01
 -1         6 2.38699E+01
 -1         7 5.52943E+01
 -1         8 5.52943E+01
 -1         9 4.57631E+01
 -1        10 4.57631E+01
 -1        11 6.71094E+01
 -1        12 6.71094E+01
 -1        13 6.71094E+01
 -1        14 6.70272E+01
 -1        15 6.70360E+01
 -1        16 6.70360E+01
 -1        17 6.68279E+01
 -1        18 6.64174E+01
 -1        19 6.57459E+01
 -1        20 6.52880E+01
 -1        21 6.48067E+01
 -1        22 6.41190E+01
 -1        23 6.33750E+01
 -1        24 6.36878E+01
 -1        25 6.39796E+01
 -1        26 6.39796E+01
 -1        27 6.44370E+01
 -1        28 6.44370E+01
 -1        29 6.41492E+01
 -1        30 6.08304E+01
 -1        31 5.26056E+01
 -1        32 6.71094E+01
 -1        33 6.70272E+01
 -1        34 6.70360E+01
 -1        35 6.70360E+01
 -1        36 6.68279E+01
 -1        37 6.64174E+01
 -1        38 6.57459E+01
 -1        39 6.52880E+01
 -1        40 6.48067E+01
 -1        41 6.41190E+01
 -1        42 6.33750E+01
 -1        43 6.36878E+01
 -1        44 6.39796E+01
 -1        45 6.39796E+01
 -1        46 6.44370E+01
 -1        47 6.44370E+01
 -1        48 6.41492E+01
 -1        49 6.08304E+01
 -1        50 5.26056E+01
 -1        51 4.01743E+01
 -1        52 5.30575E+01
 -1        53 5.90310E+01
 -1        54 6.01882E+01
 -1        55 6.04145E+01
 -1        56 6.04145E+01
 -1        57 6.02344E+01
 -1        58 6.00152E+01
 -1        59 5.96247E+01
 -1        60 5.97723E+01
 -1        61 5.98202E+01
 -1        62 5.98202E+01
 -1        63 5.93815E+01
 -1        64 5.88258E+01
 -1        65 5.80513E+01
 -1        66 5.71970E+01
 -1        67 5.62966E+01
 -1        68 5.56581E+01
 -1        69 5.52943E+01
 -1        70 4.01743E+01
 -1        71 5.30575E+01
 -1        72 5.90310E+01
 -1        73 6.01882E+01
 -1        74 6.04145E+01
 -1        75 6.04145E+01
 -1        76 6.02344E+01
 -1        77 6.00152E+01
 -1        78 5.96247E+01
 -1        79 5.97723E+01
 -1        80 5.98202E+01
 -1        81 5.98202E+01
 -1        82 5.93815E+01
 -1        83 5.88258E+01
 -1        84 5.80513E+01
 -1        85 5.71970E+01
 -1        86 5.62966E+01
 -1        87 5.56581E+01
 -1        88 5.52943E+01
 -1        89 6.71094E+01
 -1        90 6.70272E+01
 -1        91 6.70360E+01
 -1        92 6.70360E+01
 -1        93 6.68279E+01
 -1        94 6.64174E+01
 -1        95 6.57459E+01
 -1        96 6.52880E+01
 -1        97 6.48067E+01
 -1        98 6.41190E+01
 -1        99 6.33750E+01
 -1       100 6.36878E+01
 -1       101 6.39796E+01
 -1       102 6.39796E+01
 -1       103 6.44370E+01
 -1       104 6.44370E+01
 -1       105 6.41492E+01
 -1       106 6.08304E+01
 -1       107 5.26056E+01
 -1       108 5.26056E+01
 -1       109 6.08304E+01
 -1       110 6.41492E+01
 -1       111 6.44370E+01
 -1       112 6.44370E+01
 -1       113 6.39796E+01
 -1       114 6.39796E+01
 -1       115 6.36878E+01
 -1       116 6.33750E+01
 -1       117 6.41190E+01
 -1       118 6.48067E+01
 -1       119 6.52880E+01
 -1       120 6.57459E+01
 -1       121 6.64174E+01
 -1       122 6.68279E+01
 -1       123 6.70360E+01
 -1       124 6.70360E+01
 -1       125 6.70272E+01
 -1       126 6.71094E+01
 -3
    1PSTEP                       393          99           1          
  100CL  199 9.90000E-01         126                     1   99           1
 -4  DISP        4    1
 -5  D1          1    2    1    0
 -5  D2          1    2    2    0
 -5  D3          1    2    3    0
 -5  ALL         1    2    0    0    1ALL
 -1         1 0.00000E+00 0.00000E+00 0.00000E+00
 -1         2 0.00000E+00 0.00000E+00 0.00000E+00
 -1         3 3.90922E-01-6.34749E-02 0.00000E+00
 -1         4 3.90922E-01-6.34749E-02 0.00000E+00
 -1         5 3.77588E-01-1.13333E-01 0.00000E+00
 -1         6 3.77588E-01-1.13333E-01 0.00000E+00
 -1         7 0.00000E+00 0.00000E+00 0.00000E+00
 -1         8 0.00000E+00 0.00000E+00 0.00000E+00
 -1         9 3.84253E-01-8.84032E-02 0.00000E+00
 -1        10 3.84253E-01-8.84032E-02 0.00000E+00
 -1        11 0.00000E+00 0.00000E+00 0.00000E+00
 -1        12 0.00000E+00 0.00000E+00 0.00000E+00
 -1        13 2.93094E-03 3.43504E-03 0.00000E+00
 -1        14 9.17512E-03 6.45153E-03 0.00000E+00
 -1        15 1.90340E-02 8.55165E-03 0.00000E+00
 -1        16 3.19735E-02 9.64965E-03 0.00000E+00
 -1        17 4.75731E-02 9.63343E-03 0.00000E+00
 -1        18 6.53289E-02 8.47645E-03 0.00000E+00
 -1        19 8.46898E-02 6.27199E-03 0.00000E+00
 -1        20 1.05197E-01 3.20453E-03 0.00000E+00
 -1        21 1.26536E-01-5.14669E-04 0.00000E+00
 -1        22 1.48549E-01-4.72705E-03 0.00000E+00
 -1        23 1.71153E-01-9.33640E-03 0.00000E+00
 -1        24 1.94307E-01-1.43031E-02 0.00000E+00
 -1        25 2.17958E-01-1.96026E-02 0.00000E+00
 -1        26 2.42045E-01-2.52191E-02 0.00000E+00
 -1        27 2.66481E-01-3.11261E-02 0.00000E+00
 -1        28 2.91185E-01-3.72949E-02 0.00000E+00
 -1        29 3.16057E-01-4.36751E-02 0.00000E+00
 -1        30 3.41011E-01-5.02069E-02 0.00000E+00
 -1        31 3.65976E-01-5.68245E-02 0.00000E+00
 -1        32 2.93094E-03 3.43504E-03 0.00000E+00
 -1        33 9.17512E-03 6.45153E-03 0.00000E+00
 -1        34 1.90340E-02 8.55165E-03 0.00000E+00
 -1        35 3.19735E-02 9.64965E-03 0.00000E+00
 -1        36 4.75731E-02 9.63343E-03 0.00000E+00
 -1        37 6.53289E-02 8.47645E-03 0.00000E+00
 -1        38 8.46898E-02 6.27199E-03 0.00000E+00
 -1        39 1.05197E-01 3.20453E-03 0.00000E+00
 -1        40 1.26536E-01-5.14669E-04 0.00000E+00
 -1        41 1.48549E-01-4.72705E-03 0.00000E+00
 -1        42 1.71153E-01-9.33640E-03 0.00000E+00
 -1        43 1.94307E-01-1.43031E-02 0.00000E+00
 -1        44 2.17958E-01-1.96026E-02 0.00000E+00
 -1        45 2.42045E-01-2.52191E-02 0.00000E+00
 -1        46 2.66481E-01-3.11261E-02 0.00000E+00
 -1        47 2.91185E-01-3.72949E-02 0.00000E+00
 -1        48 3.16057E-01-4.36751E-02 0.00000E+00
 -1        49 3.41011E-01-5.02069E-02 0.00000E+00
 -1        50 3.65976E-01-5.68245E-02 0.00000E+00
 -1        51 3.52650E-01-1.06656E-01 0.00000E+00
 -1        52 3.27729E-01-9.99494E-02 0.00000E+00
 -1        53 3.02890E-01-9.32176E-02 0.00000E+00
 -1        54 2.78216E-01-8.64821E-02 0.00000E+00
 -1        55 2.53803E-01-7.97860E-02 0.00000E+00
 -1        56 2.29741E-01-7.31803E-02 0.00000E+00
 -1        57 2.06115E-01-6.67184E-02 0.00000E+00
 -1        58 1.82980E-01-6.04381E-02 0.00000E+00
 -1        59 1.60393E-01-5.43660E-02 0.00000E+00
 -1        60 1.38403E-01-4.85104E-02 0.00000E+00
 -1        61 1.17087E-01-4.28620E-02 0.00000E+00
 -1        62 9.65580E-02-3.73846E-02 0.00000E+00
 -1        63 7.70356E-02-3.20418E-02 0.00000E+00
 -1        64 5.88654E-02-2.68295E-02 0.00000E+00
 -1        65 4.24908E-02-2.18003E-02 0.00000E+00
 -1        66 2.83398E-02-1.70272E-02 0.00000E+00
 -1        67 1.67769E-02-1.25458E-02 0.00000E+00
 -1        68 8.05666E-03-8.30283E-03 0.00000E+00
 -1        69 2.65939E-03-4.09082E-03 0.00000E+00
 -1        70 3.52650E-01-1.06656E-01 0.00000E+00
 -1        71 3.27729E-01-9.99494E-02 0.00000E+00
 -1        72 3.02890E-01-9.32176E-02 0.00000E+00
 -1        73 2.78216E-01-8.64821E-02 0.00000E+00
 -1        74 2.53803E-01-7.97860E-02 0.00000E+00
 -1        75 2.29741E-01-7.31803E-02 0.00000E+00
 -1        76 2.06115E-01-6.67184E-02 0.00000E+00
 -1        77 1.82980E-01-6.04381E-02 0.00000E+00
 -1        78 1.60393E-01-5.43660E-02 0.00000E+00
 -1        79 1.38403E-01-4.85104E-02 0.00000E+00
 -1        80 1.17087E-01-4.28620E-02 0.00000E+00
 -1        81 9.65580E-02-3.73846E-02 0.00000E+00
 -1        82 7.70356E-02-3.20418E-02 0.00000E+00
 -1        83 5.88654E-02-2.68295E-02 0.00000E+00
 -1        84 4.24908E-02-2.18003E-02 0.00000E+00
 -1        85 2.83398E-02-1.70272E-02 0.00000E+00
 -1        86 1.67769E-02-1.25458E-02 0.00000E+00
 -1        87 8.05666E-03-8.30283E-03 0.00000E+00
 -1        88 2.65939E-03-4.09082E-03 0.00000E+00
 -1        89 1.82269E-03-2.61698E-04 0.00000E+00
 -1        90 7.91797E-03-8.07618E-04 0.00000E+00
 -1        91 1.72612E-02-1.84424E-03 0.00000E+00
 -1        92 2.96030E-02-3.52387E-03 0.00000E+00
 -1        93 4.45691E-02-5.91992E-03 0.00000E+00
 -1        94 6.17292E-02-9.02898E-03 0.00000E+00
 -1        95 8.05825E-02-1.27630E-02 0.00000E+00
 -1        96 1.00663E-01-1.69931E-02 0.00000E+00
 -1        97 1.21640E-01-2.16088E-02 0.00000E+00
 -1        98 1.43331E-01-2.65481E-02 0.00000E+00
 -1        99 1.65646E-01-3.17864E-02 0.00000E+00
 -1       100 1.88531E-01-3.73112E-02 0.00000E+00
 -1       101 2.11937E-01-4.31070E-02 0.00000E+00
 -1       102 2.35809E-01-4.91522E-02 0.00000E+00
 -1       103 2.60076E-01-5.54172E-02 0.00000E+00
 -1       104 2.84653E-01-6.18603E-02 0.00000E+00
 -1       105 3.09443E-01-6.84286E-02 0.00000E+00
 -1       106 3.34354E-01-7.50686E-02 0.00000E+00
 -1       107 3.59308E-01-8.17361E-02 0.00000E+00
 -1       108 3.59308E-01-8.17361E-02 0.00000E+00
 -1       109 3.34354E-01-7.50686E-02 0.00000E+00
 -1       110 3.09443E-01-6.84286E-02 0.00000E+00
 -1       111 2.84653E-01-6.18603E-02 0.00000E+00
 -1       112 2.60076E-01-5.54172E-02 0.00000E+00
 -1       113 2.35809E-01-4.91522E-02 0.00000E+00
 -1       114 2.11937E-01-4.31070E-02 0.00000E+00
 -1       115 1.88531E-01-3.73112E-02 0.00000E+00
 -1       116 1.65646E-01-3.17864E-02 0.00000E+00
 -1       117 1.43331E-01-2.65481E-02 0.00000E+00
 -1       118 1.21640E-01-2.16088E-02 0.00000E+00
 -1       119 1.00663E-01-1.69931E-02 0.00000E+00
 -1       120 8.05825E-02-1.27630E-02 0.00000E+00
 -1       121 6.17292E-02-9.02898E-03 0.00000E+00
 -1       122 4.45691E-02-5.91992E-03 0.00000E+00
 -1       123 2.96030E-02-3.52387E-03 0.00000E+00
 -1       124 1.72612E-02-1.84424E-03 0.00000E+00
 -1       125 7.91797E-03-8.07618E-04 0.00000E+00
 -1       126 1.82269E-03-2.61698E-04 0.00000E+00
 -3
    1PSTEP                       394          99           1          
  100CL  199 9.90000E-01         126                     1   99           1
 -4  STRESS      6    1
 -5  SXX         1    4    1    1
 -5  SYY         1    4    2    2
 -5  SZZ         1    4    3    3
 -5  SXY         1    4    1    2
 -5  SYZ         1    4    2    3
 -5  SZX         1    4    3    1
 -1         1 1.65903E+04 4.06595E+04 1.57060E+04 1.10037E+04 2.63543E-10 2.64176E-10
 -1         2 1.65903E+04 4.06595E+04 1.57060E+04 1.10037E+04 2.63543E-10 2.64176E-10
 -1         3 1.25282E+01 5.94673E+01 2.15794E+01 7.68003E+01 1.00612E-07-2.33549E-07
 -1         4 1.25282E+01 5.94673E+01 2.15794E+01 7.68003E+01 1.00612E-07-2.33548E-07
 -1         5-8.73963E+01-1.82173E+02-8.09039E+01 4.61810E+00 2.43897E-07-1.50987E-07
 -1         6-8.73963E+01-1.82173E+02-8.09039E+01 4.61810E+00 2.43897E-07-1.50915E-07
 -1         7-1.87548E+04-3.92020E+04-1.93504E+04 6.19753E+03 4.83712E-10-6.07511E-10
 -1         8-1.87548E+04-3.92020E+04-1.93504E+04 6.19753E+03 4.83697E-10-6.07511E-10
 -1         9-3.64666E+01-8.66600E+01-3.69483E+01 4.26838E+01 1.64944E-07-1.92458E-07
 -1        10-3.64666E+01-8.66600E+01-3.69483E+01 4.26838E+01 1.64943E-07-1.92468E-07
 -1        11-8.72800E+02-3.60558E+03-1.05474E+03 5.47653E+03 2.84076E-10-8.44886E-11
 -1        12-8.72800E+02-3.60558E+03-1.05474E+03 5.47653E+03 2.84104E-10-8.44893E-11
 -1        13 6.33582E+03 3.53850E+04 1.14900E+04 4.18699E+03 7.56773E-09 2.32559E-08
 -1        14 8.14290E+03 3.30717E+04 1.14098E+04 4.61232E+03 5.15838E-09 5.86674E-08
 -1        15 7.75288E+03 2.85426E+04 1.01299E+04 5.72588E+03-7.58264E-09 8.56728E-08
 -1        16 7.58598E+03 2.43588E+04 8.98544E+03 6.13711E+03-3.34787E-08 1.05906E-07
 -1        17 7.12209E+03 1.99301E+04 7.67657E+03 6.04779E+03-5.36197E-08 9.65870E-08
 -1        18 6.29553E+03 1.55728E+04 6.26690E+03 5.43663E+03-5.35294E-08 4.80852E-08
 -1        19 5.29467E+03 1.18287E+04 4.95487E+03 4.50610E+03-3.26911E-08 7.97450E-09
 -1        20 4.25521E+03 9.02422E+03 3.87312E+03 3.60214E+03-1.13186E-09-1.90968E-08
 -1        21 3.43450E+03 7.20907E+03 3.12079E+03 2.92442E+03 1.44388E-08 1.05923E-08
 -1        22 2.86039E+03 6.09314E+03 2.63346E+03 2.50233E+03 4.39967E-09 5.17019E-08
 -1        23 2.56496E+03 5.38832E+03 2.34401E+03 2.22691E+03-2.18998E-08 8.13346E-08
 -1        24 2.33337E+03 4.77506E+03 2.09848E+03 2.03233E+03-4.40110E-08 7.88465E-08
 -1        25 2.10596E+03 4.14243E+03 1.84766E+03 1.83893E+03-4.29175E-08 5.60189E-08
 -1        26 1.80538E+03 3.42036E+03 1.54828E+03 1.61169E+03-3.05428E-08 2.40527E-08
 -1        27 1.50889E+03 2.65992E+03 1.23805E+03 1.31594E+03-1.00077E-08 6.20670E-10
 -1        28 1.13462E+03 1.84619E+03 8.87482E+02 9.94776E+02-3.39794E-09-1.36536E-08
 -1        29 7.37995E+02 1.09468E+03 5.46956E+02 6.70241E+02 5.07524E-09-4.25725E-08
 -1        30 3.55062E+02 4.92218E+02 2.53348E+02 3.88215E+02 2.19905E-08-9.19561E-08
 -1        31 1.01002E+02 1.48333E+02 7.46543E+01 1.70891E+02 5.92662E-08-1.58034E-07
 -1        32 6.33582E+03 3.53850E+04 1.14900E+04 4.18699E+03 7.56773E-09 2.32559E-08
 -1        33 8.14290E+03 3.30717E+04 1.14098E+04 4.61232E+03 5.15841E-09 5.86676E-08
 -1        34 7.75288E+03 2.85426E+04 1.01299E+04 5.72588E+03-7.58273E-09 8.56727E-08
 -1        35 7.58598E+03 2.43588E+04 8.98544E+03 6.13711E+03-3.34787E-08 1.05907E-07
 -1        36 7.12209E+03 1.99301E+04 7.67657E+03 6.04779E+03-5.36199E-08 9.65861E-08
 -1        37 6.29553E+03 1.55728E+04 6.26690E+03 5.43663E+03-5.35292E-08 4.80819E-08
 -1        38 5.29467E+03 1.18287E+04 4.95487E+03 4.50610E+03-3.26915E-08 7.98823E-09
 -1        39 4.25521E+03 9.02422E+03 3.87312E+03 3.60214E+03-1.13192E-09-1.90968E-08
 -1        40 3.43450E+03 7.20907E+03 3.12079E+03 2.92442E+03 1.44384E-08 1.05932E-08
 -1        41 2.86039E+03 6.09314E+03 2.63346E+03 2.50233E+03 4.39935E-09 5.17017E-08
 -1        42 2.56496E+03 5.38832E+03 2.34401E+03 2.22691E+03-2.18998E-08 8.13346E-08
 -1        43 2.33337E+03 4.77506E+03 2.09848E+03 2.03233E+03-4.40110E-08 7.88465E-08
 -1        44 2.10596E+03 4.14243E+03 1.84766E+03 1.83893E+03-4.29188E-08 5.60226E-08
 -1        45 1.80538E+03 3.42036E+03 1.54828E+03 1.61169E+03-3.05417E-08 2.40389E-08
 -1        46 1.50889E+03 2.65992E+03 1.23805E+03 1.31594E+03-1.00087E-08 6.22645E-10
 -1        47 1.13462E+03 1.84619E+03 8.87482E+02 9.94776E+02-3.39772E-09-1.36610E-08
 -1        48 7.37995E+02 1.09468E+03 5.46956E+02 6.70241E+02 5.07229E-09-4.25582E-08
 -1        49 3.55062E+02 4.92218E+02 2.53348E+02 3.88215E+02 2.19913E-08-9.19598E-08
 -1        50 1.01002E+02 1.48333E+02 7.46543E+01 1.70891E+02 5.92717E-08-1.58037E-07
 -1        51-1.56107E+02-3.66286E+02-1.56870E+02-2.42376E+01 1.95147E-07-9.17460E-08
 -1        52-3.17262E+02-8.12045E+02-3.39551E+02-1.45369E+02 1.43602E-07-3.42023E-08
 -1        53-5.71758E+02-1.43054E+03-6.03155E+02-3.59423E+02 9.18205E-08-1.77520E-09
 -1        54-9.20975E+02-2.16509E+03-9.31681E+02-6.25687E+02 5.58823E-08 8.30872E-09
 -1        55-1.30440E+03-2.91828E+03-1.27771E+03-9.07678E+02 3.55226E-08 1.83699E-08
 -1        56-1.68735E+03-3.63007E+03-1.61239E+03-1.16742E+03 1.46025E-08 3.98520E-08
 -1        57-1.97918E+03-4.24496E+03-1.89091E+03-1.39782E+03-1.29886E-08 6.63956E-08
 -1        58-2.22946E+03-4.83401E+03-2.14964E+03-1.58157E+03-4.44532E-08 7.38403E-08
 -1        59-2.45435E+03-5.47632E+03-2.41789E+03-1.74253E+03-6.38485E-08 6.26702E-08
 -1        60-2.72397E+03-6.34420E+03-2.77130E+03-1.91444E+03-5.30477E-08 2.42562E-08
 -1        61-3.06660E+03-7.67120E+03-3.29438E+03-2.16652E+03-1.98438E-08-8.62405E-09
 -1        62-3.65000E+03-9.79870E+03-4.15321E+03-2.55142E+03 9.26478E-09-1.14998E-08
 -1        63-4.53578E+03-1.28622E+04-5.42510E+03-3.09648E+03 1.80000E-08 2.33581E-08
 -1        64-5.67559E+03-1.66751E+04-7.05380E+03-3.69836E+03 5.44420E-09 7.30509E-08
 -1        65-6.79306E+03-2.07380E+04-8.79910E+03-4.14492E+03-1.54094E-08 1.01298E-07
 -1        66-7.75794E+03-2.46700E+04-1.04863E+04-4.20183E+03-3.38629E-08 1.09306E-07
 -1        67-8.38604E+03-2.82872E+04-1.19839E+04-3.71626E+03-4.10177E-08 8.71782E-08
 -1        68-9.69755E+03-3.22755E+04-1.38693E+04-2.86966E+03-3.72265E-08 5.01574E-08
 -1        69-7.48342E+03-3.39217E+04-1.38031E+04-4.90041E+02-2.30284E-08 2.79428E-08
 -1        70-1.56107E+02-3.66286E+02-1.56870E+02-2.42376E+01 1.95146E-07-9.17786E-08
 -1        71-3.17262E+02-8.12045E+02-3.39551E+02-1.45369E+02 1.43604E-07-3.42141E-08
 -1        72-5.71758E+02-1.43054E+03-6.03155E+02-3.59423E+02 9.18203E-08-1.76766E-09
 -1        73-9.20975E+02-2.16509E+03-9.31681E+02-6.25687E+02 5.58824E-08 8.30922E-09
 -1        74-1.30440E+03-2.91828E+03-1.27771E+03-9.07678E+02 3.55235E-08 1.83763E-08
 -1        75-1.68735E+03-3.63007E+03-1.61239E+03-1.16742E+03 1.46031E-08 3.98515E-08
 -1        76-1.97918E+03-4.24496E+03-1.89091E+03-1.39782E+03-1.29887E-08 6.63947E-08
 -1        77-2.22946E+03-4.83401E+03-2.14964E+03-1.58157E+03-4.44528E-08 7.38469E-08
 -1        78-2.45435E+03-5.47632E+03-2.41789E+03-1.74253E+03-6.38503E-08 6.26840E-08
 -1        79-2.72397E+03-6.34420E+03-2.77130E+03-1.91444E+03-5.30433E-08 2.42461E-08
 -1        80-3.06660E+03-7.67120E+03-3.29438E+03-2.16652E+03-1.98480E-08-8.63416E-09
 -1        81-3.65000E+03-9.79870E+03-4.15321E+03-2.55142E+03 9.26507E-09-1.14994E-08
 -1        82-4.53578E+03-1.28622E+04-5.42510E+03-3.09648E+03 1.79989E-08 2.33564E-08
 -1        83-5.67559E+03-1.66751E+04-7.05380E+03-3.69836E+03 5.44472E-09 7.30518E-08
 -1        84-6.79306E+03-2.07380E+04-8.79910E+03-4.14492E+03-1.54141E-08 1.01292E-07
 -1        85-7.75794E+03-2.46700E+04-1.04863E+04-4.20183E+03-3.38619E-08 1.09306E-07
 -1        86-8.38604E+03-2.82872E+04-1.19839E+04-3.71626E+03-4.10186E-08 8.71782E-08
 -1        87-9.69755E+03-3.22755E+04-1.38693E+04-2.86966E+03-3.72265E-08 5.01574E-08
 -1        88-7.48342E+03-3.39217E+04-1.38031E+04-4.90041E+02-2.30284E-08 2.79428E-08
 -1        89-8.64280E+01-3.36062E+03-9.41101E+02 4.22709E+02-8.59344E-09 2.19396E-08
 -1        90-2.12437E+02-3.06399E+03-8.28697E+02 7.49273E+02-1.67280E-08 5.40987E-08
 -1        91-2.11993E-01-2.64015E+03-6.84820E+02 5.28247E+02-2.77301E-08 8.90712E-08
 -1        92 1.61552E+02-2.30796E+03-5.62275E+02 5.54826E+02-3.69168E-08 1.10751E-07
 -1        93 3.65682E+02-1.97405E+03-4.25411E+02 6.39055E+02-3.45476E-08 1.02367E-07
 -1        94 4.87836E+02-1.63975E+03-3.07381E+02 6.90005E+02-2.27536E-08 6.26813E-08
 -1        95 5.23614E+02-1.23951E+03-1.89945E+02 6.20760E+02-6.05344E-09 1.15042E-08
 -1        96 4.03532E+02-8.47688E+02-1.17311E+02 4.82027E+02 7.12870E-09-1.80230E-08
 -1        97 2.50509E+02-5.13643E+02-6.84408E+01 3.46166E+02 4.09818E-10-4.59027E-09
 -1        98 1.13892E+02-3.07522E+02-5.08341E+01 2.63779E+02-2.19548E-08 3.89551E-08
 -1        99 8.61366E+01-1.84054E+02-2.39824E+01 2.13955E+02-4.51073E-08 7.42908E-08
 -1       100 7.62750E+01-1.48306E+02-1.75227E+01 2.02056E+02-4.70737E-08 7.97373E-08
 -1       101 9.58987E+01-1.48361E+02-1.27401E+01 2.09626E+02-3.15018E-08 6.04093E-08
 -1       102 1.04550E+02-1.87818E+02-2.29798E+01 2.26666E+02-7.03852E-09 3.43275E-08
 -1       103 1.52245E+02-2.10555E+02-1.62999E+01 2.19752E+02 1.42475E-08 1.02860E-08
 -1       104 1.54887E+02-2.34958E+02-2.34605E+01 2.05863E+02 2.67384E-08 2.12211E-09
 -1       105 1.29086E+02-2.25667E+02-2.87981E+01 1.79303E+02 4.74813E-08-1.92597E-08
 -1       106 5.79085E+01-1.97027E+02-4.17293E+01 1.42892E+02 7.98898E-08-6.09946E-08
 -1       107-1.00142E+01-1.35649E+02-4.37176E+01 8.38541E+01 1.25199E-07-1.25863E-07
 -1       108-1.00142E+01-1.35649E+02-4.37176E+01 8.38541E+01 1.25201E-07-1.25871E-07
 -1       109 5.79085E+01-1.97027E+02-4.17293E+01 1.42892E+02 7.98892E-08-6.09720E-08
 -1       110 1.29086E+02-2.25667E+02-2.87981E+01 1.79303E+02 4.74822E-08-1.92757E-08
 -1       111 1.54887E+02-2.34958E+02-2.34605E+01 2.05863E+02 2.67370E-08 2.13176E-09
 -1       112 1.52245E+02-2.10555E+02-1.62999E+01 2.19752E+02 1.42505E-08 1.02823E-08
 -1       113 1.04550E+02-1.87818E+02-2.29798E+01 2.26666E+02-7.03975E-09 3.43303E-08
 -1       114 9.58987E+01-1.48361E+02-1.27401E+01 2.09626E+02-3.15014E-08 6.04057E-08
 -1       115 7.62750E+01-1.48306E+02-1.75227E+01 2.02056E+02-4.70738E-08 7.97364E-08
 -1       116 8.61366E+01-1.84054E+02-2.39824E+01 2.13955E+02-4.51071E-08 7.42889E-08
 -1       117 1.13892E+02-3.07522E+02-5.08341E+01 2.63779E+02-2.19548E-08 3.89570E-08
 -1       118 2.50509E+02-5.13643E+02-6.84408E+01 3.46166E+02 4.11312E-10-4.59063E-09
 -1       119 4.03532E+02-8.47688E+02-1.17311E+02 4.82027E+02 7.12864E-09-1.80231E-08
 -1       120 5.23614E+02-1.23951E+03-1.89945E+02 6.20760E+02-6.05315E-09 1.15026E-08
 -1       121 4.87836E+02-1.63975E+03-3.07381E+02 6.90005E+02-2.27540E-08 6.26817E-08
 -1       122 3.65682E+02-1.97405E+03-4.25411E+02 6.39055E+02-3.45465E-08 1.02370E-07
 -1       123 1.61552E+02-2.30796E+03-5.62275E+02 5.54826E+02-3.69170E-08 1.10750E-07
 -1       124-2.11993E-01-2.64015E+03-6.84820E+02 5.28247E+02-2.77296E-08 8.90713E-08
 -1       125-2.12437E+02-3.06399E+03-8.28697E+02 7.49273E+02-1.67281E-08 5.40983E-08
 -1       126-8.64280E+01-3.36062E+03-9.41101E+02 4.22709E+02-8.59352E-09 2.19396E-08
 -3
    1PSTEP                       395          99           1          
  100CL  199 9.90000E-01         126                     1   99           1
 -4  TOSTRAIN    6    1
 -5  EXX         1    4    1    1
 -5  EYY         1    4    2    2
 -5  EZZ         1    4    3    3
 -5  EXY         1    4    1    2
 -5  EYZ         1    4    2    3
 -5  EZX         1    4    3    1
 -1         1-4.96127E-04 7.22808E-02-1.88909E-27 2.93091E-02 7.80864E-20 5.22924E-16
 -1         2-4.96127E-04 7.22808E-02-1.88909E-27 2.93091E-02 7.80864E-20 5.22924E-16
 -1         3-2.07335E-04 3.00835E-04 1.32051E-24 5.94534E-05-9.50477E-14-8.21109E-13
 -1         4-2.07335E-04 3.00835E-04 1.32051E-24 5.94534E-05-9.50454E-14-8.21106E-13
 -1         5-1.10788E-04-2.39682E-04 1.69197E-24 1.40825E-04 4.42569E-13-8.20968E-13
 -1         6-1.10788E-04-2.39682E-04 1.69155E-24 1.40825E-04 4.42688E-13-8.20764E-13
 -1         7-5.12389E-04-7.75652E-02-5.20890E-27 2.65936E-02 9.08363E-19-1.41265E-15
 -1         8-5.12389E-04-7.75652E-02-5.20889E-27 2.65936E-02 8.59125E-19-1.41264E-15
 -1         9-1.59061E-04-1.03415E-06 1.31320E-24 1.40263E-04 1.52762E-13-8.09726E-13
 -1        10-1.59061E-04-1.03415E-06 1.31325E-24 1.40263E-04 1.52744E-13-8.09752E-13
 -1        11-5.04258E-04-5.05993E-03-1.78410E-27 1.82266E-02 4.43534E-19-3.19403E-16
 -1        12-5.04258E-04-5.05993E-03-1.78411E-27 1.82266E-02 5.35414E-19-3.19408E-16
 -1        13-1.96457E-02 7.09015E-02 8.20781E-27 5.50619E-03 2.75762E-14 7.22734E-14
 -1        14-1.46675E-02 6.57540E-02 6.68376E-26 2.18509E-03 4.12510E-14 1.83008E-13
 -1        15-1.35147E-02 5.87014E-02 1.51141E-25 2.66658E-03 3.22442E-14 2.73380E-13
 -1        16-1.18126E-02 5.17794E-02 2.59041E-25 2.76973E-03-1.23970E-14 3.56587E-13
 -1        17-1.00627E-02 4.40921E-02 2.52503E-25 3.04846E-03-6.31738E-14 3.49837E-13
 -1        18-8.22704E-03 3.59032E-02 9.63079E-26 3.05250E-03-1.02723E-13 2.06696E-13
 -1        19-6.37487E-03 2.81778E-02 1.36137E-26 2.65135E-03-8.49277E-14 6.47706E-14
 -1        20-5.01791E-03 2.20056E-02 2.80230E-27 1.98947E-03-2.77344E-14-5.48852E-14
 -1        21-4.15310E-03 1.78087E-02 9.21559E-29 1.32658E-03 5.57316E-14 1.11698E-14
 -1        22-3.70962E-03 1.52147E-02 4.72094E-26 8.42329E-04 8.47428E-14 1.44317E-13
 -1        23-3.28988E-03 1.35217E-02 1.44444E-25 5.89865E-04 5.46176E-14 2.67432E-13
 -1        24-2.99537E-03 1.21485E-02 1.71197E-25 5.26615E-04-8.41925E-15 2.92823E-13
 -1        25-2.69227E-03 1.07453E-02 1.02052E-25 5.55842E-04-3.66136E-14 2.26018E-13
 -1        26-2.39074E-03 9.13264E-03 2.58817E-26 6.04291E-04-4.90031E-14 1.16147E-13
 -1        27-1.88701E-03 7.27329E-03-2.40654E-27 6.49252E-04-2.72161E-14 1.76177E-14
 -1        28-1.41585E-03 5.27294E-03-1.85001E-27 6.69363E-04-3.13041E-14-3.31363E-14
 -1        29-9.73879E-04 3.34860E-03 2.43017E-26 6.04835E-04-5.40561E-14-1.28257E-13
 -1        30-6.49661E-04 1.74864E-03 1.58879E-25 4.42663E-04-8.65418E-14-2.94754E-13
 -1        31-3.56467E-04 6.80121E-04 5.60197E-25 2.12504E-04-8.89383E-14-5.41344E-13
 -1        32-1.96457E-02 7.09015E-02 8.20781E-27 5.50619E-03 2.75762E-14 7.22734E-14
 -1        33-1.46675E-02 6.57540E-02 6.68382E-26 2.18509E-03 4.12512E-14 1.83009E-13
 -1        34-1.35147E-02 5.87014E-02 1.51141E-25 2.66658E-03 3.22439E-14 2.73380E-13
 -1        35-1.18126E-02 5.17794E-02 2.59043E-25 2.76973E-03-1.23965E-14 3.56589E-13
 -1        36-1.00627E-02 4.40921E-02 2.52499E-25 3.04846E-03-6.31755E-14 3.49835E-13
 -1        37-8.22704E-03 3.59032E-02 9.63056E-26 3.05250E-03-1.02727E-13 2.06686E-13
 -1        38-6.37487E-03 2.81778E-02 1.36252E-26 2.65135E-03-8.49125E-14 6.48122E-14
 -1        39-5.01791E-03 2.20056E-02 2.80232E-27 1.98947E-03-2.77346E-14-5.48851E-14
 -1        40-4.15310E-03 1.78087E-02 9.24125E-29 1.32658E-03 5.57315E-14 1.11731E-14
 -1        41-3.70962E-03 1.52147E-02 4.72096E-26 8.42329E-04 8.47415E-14 1.44317E-13
 -1        42-3.28988E-03 1.35217E-02 1.44444E-25 5.89865E-04 5.46176E-14 2.67432E-13
 -1        43-2.99537E-03 1.21485E-02 1.71197E-25 5.26615E-04-8.41925E-15 2.92823E-13
 -1        44-2.69227E-03 1.07453E-02 1.02059E-25 5.55842E-04-3.66116E-14 2.26031E-13
 -1        45-2.39074E-03 9.13264E-03 2.58611E-26 6.04291E-04-4.90213E-14 1.16106E-13
 -1        46-1.88701E-03 7.27329E-03-2.40693E-27 6.49252E-04-2.72156E-14 1.76248E-14
 -1        47-1.41585E-03 5.27294E-03-1.85012E-27 6.69363E-04-3.13153E-14-3.31576E-14
 -1        48-9.73879E-04 3.34860E-03 2.42622E-26 6.04835E-04-5.40413E-14-1.28212E-13
 -1        49-6.49661E-04 1.74864E-03 1.58865E-25 4.42663E-04-8.65455E-14-2.94765E-13
 -1        50-3.56467E-04 6.80121E-04 5.60215E-25 2.12504E-04-8.89265E-14-5.41360E-13
 -1        51-9.94587E-05-5.79823E-04 9.42698E-25 2.56142E-04 4.01560E-13-5.75076E-13
 -1        52 8.10496E-05-1.55041E-03 4.29284E-25 4.57595E-04 3.50284E-13-3.29170E-13
 -1        53 4.18978E-04-3.02694E-03 1.63462E-25 6.11674E-04 2.57394E-13-1.53339E-13
 -1        54 7.90427E-04-4.81492E-03 6.23754E-26 6.91030E-04 1.72523E-13-6.61613E-14
 -1        55 1.16547E-03-6.67900E-03 3.04377E-26 6.89194E-04 1.31119E-13-4.23049E-15
 -1        56 1.47620E-03-8.42674E-03 3.27904E-26 6.23406E-04 1.05050E-13 9.09212E-14
 -1        57 1.82676E-03-9.97103E-03 9.11758E-26 5.50047E-04 6.54060E-14 2.10597E-13
 -1        58 2.11266E-03-1.13636E-02 1.54229E-25 5.30357E-04-1.76252E-14 2.80275E-13
 -1        59 2.40340E-03-1.27995E-02 1.64938E-25 6.04519E-04-9.51587E-14 2.76163E-13
 -1        60 2.74662E-03-1.46476E-02 6.30965E-26 8.28898E-04-1.22950E-13 1.47019E-13
 -1        61 3.39174E-03-1.75128E-02 3.86651E-27 1.28435E-03-7.20712E-14 2.09418E-15
 -1        62 4.38565E-03-2.21328E-02 8.15467E-28 1.96273E-03 1.27987E-14-4.66319E-14
 -1        63 5.84361E-03-2.89210E-02 1.05580E-26 2.65457E-03 8.67735E-14 4.74789E-14
 -1        64 7.61999E-03-3.74560E-02 1.05143E-25 3.05605E-03 1.06071E-13 2.16465E-13
 -1        65 9.55730E-03-4.65537E-02 2.16049E-25 3.04702E-03 5.98672E-14 3.30076E-13
 -1        66 1.12752E-02-5.51080E-02 2.72096E-25 2.78455E-03-1.26796E-14 3.74438E-13
 -1        67 1.29462E-02-6.27779E-02 1.94164E-25 2.75422E-03-7.82772E-14 3.07738E-13
 -1        68 1.36030E-02-7.08660E-02 8.46019E-26 2.16838E-03-1.07163E-13 1.81228E-13
 -1        69 1.93177E-02-7.64468E-02 2.74669E-26 5.84527E-03-7.69540E-14 9.73776E-14
 -1        70-9.94587E-05-5.79823E-04 9.42857E-25 2.56142E-04 4.01504E-13-5.75166E-13
 -1        71 8.10496E-05-1.55041E-03 4.29322E-25 4.57595E-04 3.50270E-13-3.29207E-13
 -1        72 4.18978E-04-3.02694E-03 1.63451E-25 6.11674E-04 2.57405E-13-1.53318E-13
 -1        73 7.90427E-04-4.81492E-03 6.23746E-26 6.91030E-04 1.72525E-13-6.61600E-14
 -1        74 1.16547E-03-6.67900E-03 3.04439E-26 6.89194E-04 1.31132E-13-4.21375E-15
 -1        75 1.47620E-03-8.42674E-03 3.27892E-26 6.23406E-04 1.05051E-13 9.09188E-14
 -1        76 1.82676E-03-9.97103E-03 9.11717E-26 5.50047E-04 6.54044E-14 2.10595E-13
 -1        77 2.11266E-03-1.13636E-02 1.54249E-25 5.30357E-04-1.76137E-14 2.80294E-13
 -1        78 2.40340E-03-1.27995E-02 1.64982E-25 6.04519E-04-9.51433E-14 2.76206E-13
 -1        79 2.74662E-03-1.46476E-02 6.30781E-26 8.28898E-04-1.22951E-13 1.46983E-13
 -1        80 3.39174E-03-1.75128E-02 3.87486E-27 1.28435E-03-7.20980E-14 2.07052E-15
 -1        81 4.38565E-03-2.21328E-02 8.15874E-28 1.96273E-03 1.28002E-14-4.66309E-14
 -1        82 5.84361E-03-2.89210E-02 1.05565E-26 2.65457E-03 8.67680E-14 4.74751E-14
 -1        83 7.61999E-03-3.74560E-02 1.05146E-25 3.05605E-03 1.06074E-13 2.16467E-13
 -1        84 9.55730E-03-4.65537E-02 2.16026E-25 3.04702E-03 5.98451E-14 3.30061E-13
 -1        85 1.12752E-02-5.51080E-02 2.72098E-25 2.78455E-03-1.26754E-14 3.74439E-13
 -1        86 1.29462E-02-6.27779E-02 1.94166E-25 2.75422E-03-7.82800E-14 3.07739E-13
 -1        87 1.36030E-02-7.08660E-02 8.46019E-26 2.16838E-03-1.07163E-13 1.81228E-13
 -1        88 1.93177E-02-7.64468E-02 2.74669E-26 5.84527E-03-7.69539E-14 9.73776E-14
 -1        89-1.64006E-04-4.46606E-03 7.88574E-27 2.15674E-03-2.27213E-14 7.32300E-14
 -1        90-5.32281E-04-3.63827E-03 6.20203E-26 3.72480E-03-2.79380E-14 1.82366E-13
 -1        91-2.84208E-04-3.12200E-03 1.80263E-25 3.35617E-03-2.72726E-14 3.02340E-13
 -1        92-2.68683E-04-2.51091E-03 2.87959E-25 3.63009E-03-1.99176E-14 3.79312E-13
 -1        93-2.52681E-04-1.83879E-03 2.42808E-25 3.95101E-03-2.13320E-15 3.51426E-13
 -1        94-3.03528E-04-1.19260E-03 8.23975E-26 3.97806E-03 2.72574E-15 2.16823E-13
 -1        95-2.65629E-04-6.58344E-04-5.77577E-27 3.45781E-03-3.77459E-15 4.21469E-14
 -1        96-3.16130E-04-2.52532E-04 5.83248E-27 2.56024E-03-2.58269E-15-6.29621E-14
 -1        97-3.80676E-04 4.58691E-05-5.44753E-27 1.67396E-03-5.12138E-15-1.40642E-14
 -1        98-4.81496E-04 2.34330E-04 3.14040E-26 1.06702E-03-8.66544E-15 1.45163E-13
 -1        99-4.43238E-04 3.18472E-04 1.54978E-25 7.65633E-04-2.20357E-14 2.81758E-13
 -1       100-4.41355E-04 3.48847E-04 1.80481E-25 6.75259E-04-1.60376E-14 3.00667E-13
 -1       101-4.32755E-04 3.64684E-04 9.40208E-26 7.08122E-04 2.27789E-15 2.21510E-13
 -1       102-4.57268E-04 3.48457E-04 1.97971E-26 7.97134E-04 3.34401E-14 1.08868E-13
 -1       103-3.60768E-04 2.84185E-04 2.13078E-27 8.76766E-04 5.66569E-14 6.57140E-15
 -1       104-3.12713E-04 2.07853E-04 9.67473E-27 8.87659E-04 7.89588E-14-3.68982E-14
 -1       105-2.77451E-04 1.51316E-04 4.11127E-26 7.92721E-04 1.02945E-13-1.31043E-13
 -1       106-2.84306E-04 1.03105E-04 1.82078E-25 5.92111E-04 1.26548E-13-3.01402E-13
 -1       107-2.27963E-04 3.84803E-05 6.25160E-25 3.13595E-04 1.48867E-13-5.57704E-13
 -1       108-2.27963E-04 3.84803E-05 6.25203E-25 3.13595E-04 1.48858E-13-5.57730E-13
 -1       109-2.84306E-04 1.03105E-04 1.82027E-25 5.92111E-04 1.26583E-13-3.01337E-13
 -1       110-2.77451E-04 1.51316E-04 4.11386E-26 7.92721E-04 1.02922E-13-1.31090E-13
 -1       111-3.12713E-04 2.07853E-04 9.67334E-27 8.87659E-04 7.89702E-14-3.68686E-14
 -1       112-3.60768E-04 2.84185E-04 2.13190E-27 8.76766E-04 5.66596E-14 6.55618E-15
 -1       113-4.57268E-04 3.48457E-04 1.98022E-26 7.97134E-04 3.34408E-14 1.08878E-13
 -1       114-4.32755E-04 3.64684E-04 9.40127E-26 7.08122E-04 2.27350E-15 2.21499E-13
 -1       115-4.41355E-04 3.48847E-04 1.80478E-25 6.75259E-04-1.60391E-14 3.00665E-13
 -1       116-4.43238E-04 3.18472E-04 1.54972E-25 7.65633E-04-2.20377E-14 2.81752E-13
 -1       117-4.81496E-04 2.34330E-04 3.14062E-26 1.06702E-03-8.66300E-15 1.45168E-13
 -1       118-3.80676E-04 4.58691E-05-5.44917E-27 1.67396E-03-5.11743E-15-1.40674E-14
 -1       119-3.16130E-04-2.52532E-04 5.83238E-27 2.56024E-03-2.58294E-15-6.29622E-14
 -1       120-2.65629E-04-6.58344E-04-5.77694E-27 3.45781E-03-3.77559E-15 4.21417E-14
 -1       121-3.03528E-04-1.19260E-03 8.23976E-26 3.97806E-03 2.72507E-15 2.16824E-13
 -1       122-2.52681E-04-1.83879E-03 2.42816E-25 3.95101E-03-2.12734E-15 3.51432E-13
 -1       123-2.68683E-04-2.51091E-03 2.87956E-25 3.63009E-03-1.99190E-14 3.79310E-13
 -1       124-2.84208E-04-3.12200E-03 1.80263E-25 3.35617E-03-2.72712E-14 3.02340E-13
 -1       125-5.32281E-04-3.63827E-03 6.20192E-26 3.72480E-03-2.79385E-14 1.82365E-13
 -1       126-1.64006E-04-4.46606E-03 7.88578E-27 2.15674E-03-2.27215E-14 7.32300E-14
 -3
    1PSTEP                       396          99           1          
  100CL  199 9.90000E-01         126                     1   99           1
 -4  ERROR       1    1
 -5  STR(%)      1    1    0    0
 -1         1 6.79165E+01
 -1         2 6.79165E+01
 -1         3 4.15098E+01
 -1         4 4.15098E+01
 -1         5 2.42708E+01
 -1         6 2.42708E+01
 -1         7 5.55370E+01
 -1         8 5.55370E+01
 -1         9 4.15098E+01
 -1        10 4.15098E+01
 -1        11 6.79165E+01
 -1        12 6.79165E+01
 -1        13 6.79165E+01
 -1        14 6.74610E+01
 -1        15 6.72581E+01
 -1        16 6.70736E+01
 -1        17 6.68605E+01
 -1        18 6.64620E+01
 -1        19 6.55863E+01
 -1        20 6.47084E+01
 -1        21 6.36956E+01
 -1        22 6.24926E+01
 -1        23 6.11209E+01
 -1        24 6.05639E+01
 -1        25 6.04525E+01
 -1        26 6.04525E+01
 -1        27 6.03607E+01
 -1        28 6.03607E+01
 -1        29 5.93053E+01
 -1        30 5.67865E+01
 -1        31 5.09686E+01
 -1        32 6.79165E+01
 -1        33 6.74610E+01
 -1        34 6.72581E+01
 -1        35 6.70736E+01
 -1        36 6.68605E+01
 -1        37 6.64620E+01
 -1        38 6.55863E+01
 -1        39 6.47084E+01
 -1        40 6.36956E+01
 -1        41 6.24926E+01
 -1        42 6.11209E+01
 -1        43 6.05639E+01
 -1        44 6.04525E+01
 -1        45 6.04525E+01
 -1        46 6.03607E+01
 -1        47 6.03607E+01
 -1        48 5.93053E+01
 -1        49 5.67865E+01
 -1        50 5.09686E+01
 -1        51 4.09310E+01
 -1        52 5.39380E+01
 -1        53 6.09674E+01
 -1        54 6.37086E+01
 -1        55 6.43757E+01
 -1        56 6.43757E+01
 -1        57 6.36812E+01
 -1        58 6.30024E+01
 -1        59 6.24742E+01
 -1        60 6.22524E+01
 -1        61 6.17594E+01
 -1        62 6.09812E+01
 -1        63 5.98765E+01
 -1        64 5.89302E+01
 -1        65 5.79519E+01
 -1        66 5.69614E+01
 -1        67 5.60627E+01
 -1        68 5.55914E+01
 -1        69 5.55370E+01
 -1        70 4.09310E+01
 -1        71 5.39380E+01
 -1        72 6.09674E+01
 -1        73 6.37086E+01
 -1        74 6.43757E+01
 -1        75 6.43757E+01
 -1        76 6.36812E+01
 -1        77 6.30024E+01
 -1        78 6.24742E+01
 -1        79 6.22524E+01
 -1        80 6.17594E+01
 -1        81 6.09812E+01
 -1        82 5.98765E+01
 -1        83 5.89302E+01
 -1        84 5.79519E+01
 -1        85 5.69614E+01
 -1        86 5.60627E+01
 -1        87 5.55914E+01
 -1        88 5.55370E+01
 -1        89 6.79165E+01
 -1        90 6.74610E+01
 -1        91 6.72581E+01
 -1        92 6.70736E+01
 -1        93 6.68605E+01
 -1        94 6.64620E+01
 -1        95 6.55863E+01
 -1        96 6.47084E+01
 -1        97 6.36956E+01
 -1        98 6.24926E+01
 -1        99 6.24742E+01
 -1       100 6.30024E+01
 -1       101 6.36812E+01
 -1       102 6.43757E+01
 -1       103 6.43757E+01
 -1       104 6.37086E+01
 -1       105 6.09674E+01
 -1       106 5.67865E+01
 -1       107 5.09686E+01
 -1       108 5.09686E+01
 -1       109 5.67865E+01
 -1       110 6.09674E+01
 -1       111 6.37086E+01
 -1       112 6.43757E+01
 -1       113 6.43757E+01
 -1       114 6.36812E+01
 -1       115 6.30024E+01
 -1       116 6.24742E+01
 -1       117 6.24926E+01
 -1       118 6.36956E+01
 -1       119 6.47084E+01
 -1       120 6.55863E+01
 -1       121 6.64620E+01
 -1       122 6.68605E+01
 -1       123 6.70736E+01
 -1       124 6.72581E+01
 -1       125 6.74610E+01
 -1       126 6.79165E+01
 -3
    1PSTEP                       397         100           1          
  100CL  200 1.000000000         126                     1  100           1
 -4  DISP        4    1
 -5  D1          1    2    1    0
 -5  D2          1    2    2    0
 -5  D3          1    2    3    0
 -5  ALL         1    2    0    0    1ALL
 -1         1 0.00000E+00 0.00000E+00 0.00000E+00
 -1         2 0.00000E+00 0.00000E+00 0.00000E+00
 -1         3 3.94030E-01-6.45884E-02 0.00000E+00
 -1         4 3.94030E-01-6.45884E-02 0.00000E+00
 -1         5 3.80732E-01-1.14382E-01 0.00000E+00
 -1         6 3.80732E-01-1.14382E-01 0.00000E+00
 -1         7 0.00000E+00 0.00000E+00 0.00000E+00
 -1         8 0.00000E+00 0.00000E+00 0.00000E+00
 -1         9 3.87379E-01-8.94841E-02 0.00000E+00
 -1        10 3.87379E-01-8.94841E-02 0.00000E+00
 -1        11 0.00000E+00 0.00000E+00 0.00000E+00
 -1        12 0.00000E+00 0.00000E+00 0.00000E+00
 -1        13 3.10456E-03 3.54423E-03 0.00000E+00
 -1        14 9.57815E-03 6.59413E-03 0.00000E+00
 -1        15 1.96670E-02 8.65820E-03 0.00000E+00
 -1        16 3.27810E-02 9.69379E-03 0.00000E+00
 -1        17 4.85013E-02 9.62976E-03 0.00000E+00
 -1        18 6.63760E-02 8.45573E-03 0.00000E+00
 -1        19 8.59216E-02 6.24183E-03 0.00000E+00
 -1        20 1.06711E-01 3.12787E-03 0.00000E+00
 -1        21 1.28397E-01-7.02840E-04 0.00000E+00
 -1        22 1.50754E-01-5.08038E-03 0.00000E+00
 -1        23 1.73642E-01-9.86850E-03 0.00000E+00
 -1        24 1.97007E-01-1.49891E-02 0.00000E+00
 -1        25 2.20819E-01-2.04054E-02 0.00000E+00
 -1        26 2.45048E-01-2.61167E-02 0.00000E+00
 -1        27 2.69609E-01-3.21163E-02 0.00000E+00
 -1        28 2.94392E-01-3.83714E-02 0.00000E+00
 -1        29 3.19279E-01-4.48086E-02 0.00000E+00
 -1        30 3.44201E-01-5.13553E-02 0.00000E+00
 -1        31 3.69121E-01-5.79587E-02 0.00000E+00
 -1        32 3.10456E-03 3.54423E-03 0.00000E+00
 -1        33 9.57815E-03 6.59413E-03 0.00000E+00
 -1        34 1.96670E-02 8.65820E-03 0.00000E+00
 -1        35 3.27810E-02 9.69379E-03 0.00000E+00
 -1        36 4.85013E-02 9.62976E-03 0.00000E+00
 -1        37 6.63760E-02 8.45573E-03 0.00000E+00
 -1        38 8.59216E-02 6.24183E-03 0.00000E+00
 -1        39 1.06711E-01 3.12787E-03 0.00000E+00
 -1        40 1.28397E-01-7.02840E-04 0.00000E+00
 -1        41 1.50754E-01-5.08038E-03 0.00000E+00
 -1        42 1.73642E-01-9.86850E-03 0.00000E+00
 -1        43 1.97007E-01-1.49891E-02 0.00000E+00
 -1        44 2.20819E-01-2.04054E-02 0.00000E+00
 -1        45 2.45048E-01-2.61167E-02 0.00000E+00
 -1        46 2.69609E-01-3.21163E-02 0.00000E+00
 -1        47 2.94392E-01-3.83714E-02 0.00000E+00
 -1        48 3.19279E-01-4.48086E-02 0.00000E+00
 -1        49 3.44201E-01-5.13553E-02 0.00000E+00
 -1        50 3.69121E-01-5.79587E-02 0.00000E+00
 -1        51 3.55825E-01-1.07729E-01 0.00000E+00
 -1        52 3.30930E-01-1.01064E-01 0.00000E+00
 -1        53 3.06083E-01-9.43827E-02 0.00000E+00
 -1        54 2.81340E-01-8.76836E-02 0.00000E+00
 -1        55 2.56799E-01-8.09874E-02 0.00000E+00
 -1        56 2.32581E-01-7.43497E-02 0.00000E+00
 -1        57 2.08786E-01-6.78465E-02 0.00000E+00
 -1        58 1.85456E-01-6.15259E-02 0.00000E+00
 -1        59 1.62615E-01-5.53994E-02 0.00000E+00
 -1        60 1.40311E-01-4.94492E-02 0.00000E+00
 -1        61 1.18656E-01-4.36545E-02 0.00000E+00
 -1        62 9.78266E-02-3.79976E-02 0.00000E+00
 -1        63 7.80912E-02-3.24850E-02 0.00000E+00
 -1        64 5.97942E-02-2.71536E-02 0.00000E+00
 -1        65 4.33288E-02-2.20678E-02 0.00000E+00
 -1        66 2.90617E-02-1.72806E-02 0.00000E+00
 -1        67 1.73286E-02-1.27925E-02 0.00000E+00
 -1        68 8.39783E-03-8.51913E-03 0.00000E+00
 -1        69 2.80638E-03-4.22734E-03 0.00000E+00
 -1        70 3.55825E-01-1.07729E-01 0.00000E+00
 -1        71 3.30930E-01-1.01064E-01 0.00000E+00
 -1        72 3.06083E-01-9.43827E-02 0.00000E+00
 -1        73 2.81340E-01-8.76836E-02 0.00000E+00
 -1        74 2.56799E-01-8.09874E-02 0.00000E+00
 -1        75 2.32581E-01-7.43497E-02 0.00000E+00
 -1        76 2.08786E-01-6.78465E-02 0.00000E+00
 -1        77 1.85456E-01-6.15259E-02 0.00000E+00
 -1        78 1.62615E-01-5.53994E-02 0.00000E+00
 -1        79 1.40311E-01-4.94492E-02 0.00000E+00
 -1        80 1.18656E-01-4.36545E-02 0.00000E+00
 -1        81 9.78266E-02-3.79976E-02 0.00000E+00
 -1        82 7.80912E-02-3.24850E-02 0.00000E+00
 -1        83 5.97942E-02-2.71536E-02 0.00000E+00
 -1        84 4.33288E-02-2.20678E-02 0.00000E+00
 -1        85 2.90617E-02-1.72806E-02 0.00000E+00
 -1        86 1.73286E-02-1.27925E-02 0.00000E+00
 -1        87 8.39783E-03-8.51913E-03 0.00000E+00
 -1        88 2.80638E-03-4.22734E-03 0.00000E+00
 -1        89 1.95659E-03-2.69362E-04 0.00000E+00
 -1        90 8.28667E-03-8.38640E-04 0.00000E+00
 -1        91 1.78581E-02-1.91146E-03 0.00000E+00
 -1        92 3.03736E-02-3.62844E-03 0.00000E+00
 -1        93 4.54520E-02-6.05506E-03 0.00000E+00
 -1        94 6.27082E-02-9.19739E-03 0.00000E+00
 -1        95 8.17124E-02-1.29925E-02 0.00000E+00
 -1        96 1.02043E-01-1.73311E-02 0.00000E+00
 -1        97 1.23352E-01-2.20964E-02 0.00000E+00
 -1        98 1.45393E-01-2.71962E-02 0.00000E+00
 -1        99 1.68012E-01-3.25739E-02 0.00000E+00
 -1       100 1.91128E-01-3.82029E-02 0.00000E+00
 -1       101 2.14709E-01-4.40756E-02 0.00000E+00
 -1       102 2.38736E-01-5.01884E-02 0.00000E+00
 -1       103 2.63146E-01-5.65170E-02 0.00000E+00
 -1       104 2.87829E-01-6.30047E-02 0.00000E+00
 -1       105 3.12661E-01-6.95827E-02 0.00000E+00
 -1       106 3.37555E-01-7.62022E-02 0.00000E+00
 -1       107 3.62470E-01-8.28402E-02 0.00000E+00
 -1       108 3.62470E-01-8.28402E-02 0.00000E+00
 -1       109 3.37555E-01-7.62022E-02 0.00000E+00
 -1       110 3.12661E-01-6.95827E-02 0.00000E+00
 -1       111 2.87829E-01-6.30047E-02 0.00000E+00
 -1       112 2.63146E-01-5.65170E-02 0.00000E+00
 -1       113 2.38736E-01-5.01884E-02 0.00000E+00
 -1       114 2.14709E-01-4.40756E-02 0.00000E+00
 -1       115 1.91128E-01-3.82029E-02 0.00000E+00
 -1       116 1.68012E-01-3.25739E-02 0.00000E+00
 -1       117 1.45393E-01-2.71962E-02 0.00000E+00
 -1       118 1.23352E-01-2.20964E-02 0.00000E+00
 -1       119 1.02043E-01-1.73311E-02 0.00000E+00
 -1       120 8.17124E-02-1.29925E-02 0.00000E+00
 -1       121 6.27082E-02-9.19739E-03 0.00000E+00
 -1       122 4.54520E-02-6.05506E-03 0.00000E+00
 -1       123 3.03736E-02-3.62844E-03 0.00000E+00
 -1       124 1.78581E-02-1.91146E-03 0.00000E+00
 -1       125 8.28667E-03-8.38640E-04 0.00000E+00
 -1       126 1.95659E-03-2.69362E-04 0.00000E+00
 -3
    1PSTEP                       398         100           1          
  100CL  200 1.000000000         126                     1  100           1
 -4  STRESS      6    1
 -5  SXX         1    4    1    1
 -5  SYY         1    4    2    2
 -5  SZZ         1    4    3    3
 -5  SXY         1    4    1    2
 -5  SYZ         1    4    2    3
 -5  SZX         1    4    3    1
 -1         1 1.72286E+04 4.21312E+04 1.62217E+04 1.17359E+04 3.40293E-10 3.46319E-10
 -1         2 1.72286E+04 4.21312E+04 1.62217E+04 1.17359E+04 3.40293E-10 3.46319E-10
 -1         3-1.01618E+01 6.42943E+01 1.62204E+01 6.85584E+01 4.70991E-08 4.54689E-08
 -1         4-1.01618E+01 6.42943E+01 1.62204E+01 6.85584E+01 4.70991E-08 4.54679E-08
 -1         5-7.39827E+01-1.27702E+02-6.05227E+01 1.50703E+01-1.05081E-08 1.62291E-08
 -1         6-7.39827E+01-1.27702E+02-6.05227E+01 1.50703E+01-1.05081E-08 1.62116E-08
 -1         7-1.93234E+04-4.03152E+04-1.99970E+04 6.46685E+03 2.71147E-10-1.70093E-10
 -1         8-1.93234E+04-4.03152E+04-1.99970E+04 6.46685E+03 2.71132E-10-1.70100E-10
 -1         9-4.53291E+01-5.39174E+01-2.97813E+01 4.14294E+01 1.99717E-08 3.31319E-08
 -1        10-4.53291E+01-5.39174E+01-2.97813E+01 4.14294E+01 1.99717E-08 3.31344E-08
 -1        11-8.36945E+02-3.70982E+03-1.06656E+03 5.87442E+03 2.89956E-10 3.99171E-11
 -1        12-8.36945E+02-3.70982E+03-1.06656E+03 5.87442E+03 2.89983E-10 3.99313E-11
 -1        13 6.50984E+03 3.63233E+04 1.17678E+04 4.55852E+03 1.01526E-08 2.92574E-08
 -1        14 8.29497E+03 3.33889E+04 1.15289E+04 4.87335E+03 2.75503E-09 3.36167E-08
 -1        15 7.80606E+03 2.84306E+04 1.01150E+04 5.85024E+03-1.04645E-08 3.62842E-08
 -1        16 7.58055E+03 2.41983E+04 8.94316E+03 6.14274E+03-1.00894E-08 1.61197E-09
 -1        17 7.13324E+03 2.00175E+04 7.70446E+03 6.04442E+03 3.43252E-10-3.65016E-08
 -1        18 6.41060E+03 1.59889E+04 6.41264E+03 5.53437E+03 1.55556E-08-4.81235E-08
 -1        19 5.53438E+03 1.23963E+04 5.17911E+03 4.72300E+03 3.04243E-08-5.67830E-08
 -1        20 4.53409E+03 9.44835E+03 4.07083E+03 3.85003E+03 4.54647E-08-5.49703E-08
 -1        21 3.62151E+03 7.29354E+03 3.19744E+03 3.08681E+03 5.89723E-08-3.86839E-08
 -1        22 2.88231E+03 5.86062E+03 2.57207E+03 2.52553E+03 5.47489E-08 8.81941E-09
 -1        23 2.45261E+03 5.02719E+03 2.20634E+03 2.14720E+03 3.70282E-08 5.14771E-08
 -1        24 2.17964E+03 4.47381E+03 1.96561E+03 1.93296E+03 6.33298E-09 9.57392E-08
 -1        25 1.98396E+03 3.94835E+03 1.75470E+03 1.77674E+03-2.75412E-08 1.06200E-07
 -1        26 1.71434E+03 3.23647E+03 1.46695E+03 1.57377E+03-4.25489E-08 8.26306E-08
 -1        27 1.39220E+03 2.38645E+03 1.12258E+03 1.24827E+03-3.95797E-08 4.38379E-08
 -1        28 9.58341E+02 1.51176E+03 7.35971E+02 8.76615E+02-6.25788E-09-7.09879E-09
 -1        29 5.43230E+02 8.24668E+02 4.08566E+02 5.43406E+02 3.82901E-08-2.54340E-08
 -1        30 2.13705E+02 3.64297E+02 1.72898E+02 3.06499E+02 6.11191E-08-1.02461E-08
 -1        31 3.88988E+01 1.23479E+02 4.86106E+01 1.42425E+02 5.95900E-08 1.76125E-08
 -1        32 6.50984E+03 3.63233E+04 1.17678E+04 4.55852E+03 1.01526E-08 2.92574E-08
 -1        33 8.29497E+03 3.33889E+04 1.15289E+04 4.87335E+03 2.75502E-09 3.36167E-08
 -1        34 7.80606E+03 2.84306E+04 1.01150E+04 5.85024E+03-1.04645E-08 3.62839E-08
 -1        35 7.58055E+03 2.41983E+04 8.94316E+03 6.14274E+03-1.00894E-08 1.61203E-09
 -1        36 7.13324E+03 2.00175E+04 7.70446E+03 6.04442E+03 3.43335E-10-3.65007E-08
 -1        37 6.41060E+03 1.59889E+04 6.41264E+03 5.53437E+03 1.55556E-08-4.81233E-08
 -1        38 5.53438E+03 1.23963E+04 5.17911E+03 4.72300E+03 3.04244E-08-5.67778E-08
 -1        39 4.53409E+03 9.44835E+03 4.07083E+03 3.85003E+03 4.54647E-08-5.49721E-08
 -1        40 3.62151E+03 7.29354E+03 3.19744E+03 3.08681E+03 5.89721E-08-3.86840E-08
 -1        41 2.88231E+03 5.86062E+03 2.57207E+03 2.52553E+03 5.47494E-08 8.82284E-09
 -1        42 2.45261E+03 5.02719E+03 2.20634E+03 2.14720E+03 3.70284E-08 5.14798E-08
 -1        43 2.17964E+03 4.47381E+03 1.96561E+03 1.93296E+03 6.33267E-09 9.57392E-08
 -1        44 1.98396E+03 3.94835E+03 1.75470E+03 1.77674E+03-2.75403E-08 1.06198E-07
 -1        45 1.71434E+03 3.23647E+03 1.46695E+03 1.57377E+03-4.25491E-08 8.26306E-08
 -1        46 1.39220E+03 2.38645E+03 1.12258E+03 1.24827E+03-3.95787E-08 4.38378E-08
 -1        47 9.58341E+02 1.51176E+03 7.35971E+02 8.76615E+02-6.25811E-09-7.09189E-09
 -1        48 5.43230E+02 8.24668E+02 4.08566E+02 5.43406E+02 3.82845E-08-2.54377E-08
 -1        49 2.13705E+02 3.64297E+02 1.72898E+02 3.06499E+02 6.11205E-08-1.02550E-08
 -1        50 3.88988E+01 1.23479E+02 4.86106E+01 1.42425E+02 5.95905E-08 1.76512E-08
 -1        51-1.26515E+02-2.38388E+02-1.09528E+02 8.99323E+00 1.26596E-08-1.11373E-08
 -1        52-2.24784E+02-5.09753E+02-2.20617E+02-4.89138E+01 3.61850E-08-2.71608E-08
 -1        53-3.90513E+02-9.75446E+02-4.10799E+02-1.85213E+02 5.64623E-08-1.29649E-08
 -1        54-6.85377E+02-1.68322E+03-7.13844E+02-4.12227E+02 5.53951E-08 2.74216E-08
 -1        55-1.08876E+03-2.51652E+03-1.08933E+03-7.17230E+02 2.67515E-08 7.25012E-08
 -1        56-1.52630E+03-3.28160E+03-1.45610E+03-1.02068E+03-8.29543E-09 1.01263E-07
 -1        57-1.83390E+03-3.83849E+03-1.72079E+03-1.25850E+03-3.63555E-08 9.79729E-08
 -1        58-2.04881E+03-4.33083E+03-1.93791E+03-1.41132E+03-4.69847E-08 6.60946E-08
 -1        59-2.25298E+03-4.99656E+03-2.20612E+03-1.55799E+03-3.69134E-08 1.52446E-08
 -1        60-2.58536E+03-6.09754E+03-2.65088E+03-1.78661E+03-1.40225E-08-3.03850E-08
 -1        61-3.07870E+03-7.79543E+03-3.33764E+03-2.16693E+03 1.13504E-08-5.60824E-08
 -1        62-3.82837E+03-1.02308E+04-4.34869E+03-2.69009E+03 2.78564E-08-5.47204E-08
 -1        63-4.79534E+03-1.33518E+04-5.66871E+03-3.30383E+03 4.12935E-08-4.47566E-08
 -1        64-5.88277E+03-1.69484E+04-7.21204E+03-3.87440E+03 4.32178E-08-3.68929E-08
 -1        65-6.86675E+03-2.06869E+04-8.80373E+03-4.23388E+03 4.14173E-08-1.56228E-08
 -1        66-7.72699E+03-2.44192E+04-1.03845E+04-4.22005E+03 3.10760E-08 1.30488E-08
 -1        67-8.34898E+03-2.81099E+04-1.19045E+04-3.71275E+03 1.91149E-08 3.30952E-08
 -1        68-9.79979E+03-3.24841E+04-1.39794E+04-2.87567E+03 7.29465E-09 2.92575E-08
 -1        69-7.63357E+03-3.46302E+04-1.41257E+04-4.39968E+02-1.21885E-09 1.85884E-08
 -1        70-1.26515E+02-2.38388E+02-1.09528E+02 8.99323E+00 1.26596E-08-1.11116E-08
 -1        71-2.24784E+02-5.09753E+02-2.20617E+02-4.89138E+01 3.61919E-08-2.71330E-08
 -1        72-3.90513E+02-9.75446E+02-4.10799E+02-1.85213E+02 5.64610E-08-1.29742E-08
 -1        73-6.85377E+02-1.68322E+03-7.13844E+02-4.12227E+02 5.53956E-08 2.73945E-08
 -1        74-1.08876E+03-2.51652E+03-1.08933E+03-7.17230E+02 2.67505E-08 7.25085E-08
 -1        75-1.52630E+03-3.28160E+03-1.45610E+03-1.02068E+03-8.29635E-09 1.01262E-07
 -1        76-1.83390E+03-3.83849E+03-1.72079E+03-1.25850E+03-3.63535E-08 9.79715E-08
 -1        77-2.04881E+03-4.33083E+03-1.93791E+03-1.41132E+03-4.69916E-08 6.60946E-08
 -1        78-2.25298E+03-4.99656E+03-2.20612E+03-1.55799E+03-3.69134E-08 1.52584E-08
 -1        79-2.58536E+03-6.09754E+03-2.65088E+03-1.78661E+03-1.40234E-08-3.03803E-08
 -1        80-3.07870E+03-7.79543E+03-3.33764E+03-2.16693E+03 1.13534E-08-5.60997E-08
 -1        81-3.82837E+03-1.02308E+04-4.34869E+03-2.69009E+03 2.78598E-08-5.47205E-08
 -1        82-4.79534E+03-1.33518E+04-5.66871E+03-3.30383E+03 4.12927E-08-4.47516E-08
 -1        83-5.88277E+03-1.69484E+04-7.21204E+03-3.87440E+03 4.32155E-08-3.68971E-08
 -1        84-6.86675E+03-2.06869E+04-8.80373E+03-4.23388E+03 4.14200E-08-1.56240E-08
 -1        85-7.72699E+03-2.44192E+04-1.03845E+04-4.22005E+03 3.10730E-08 1.30528E-08
 -1        86-8.34898E+03-2.81099E+04-1.19045E+04-3.71275E+03 1.91161E-08 3.30963E-08
 -1        87-9.79979E+03-3.24841E+04-1.39794E+04-2.87567E+03 7.29476E-09 2.92575E-08
 -1        88-7.63357E+03-3.46302E+04-1.41257E+04-4.39968E+02-1.21883E-09 1.85884E-08
 -1        89-5.09342E+01-3.44956E+03-9.53415E+02 5.97263E+02 1.36639E-09 2.24056E-08
 -1        90-1.64099E+02-3.07922E+03-8.14499E+02 8.96399E+02 4.90676E-09 3.64100E-08
 -1        91 3.96033E+01-2.60152E+03-6.60160E+02 5.99269E+02 8.05103E-09 3.53724E-08
 -1        92 1.59575E+02-2.23764E+03-5.40680E+02 5.44404E+02 1.55013E-08 1.15409E-08
 -1        93 3.14821E+02-1.89608E+03-4.15545E+02 5.67841E+02 2.53276E-08-2.45475E-08
 -1        94 4.25359E+02-1.58790E+03-3.08663E+02 6.13296E+02 3.39734E-08-4.39393E-08
 -1        95 5.09423E+02-1.24041E+03-1.93053E+02 5.95495E+02 3.82619E-08-5.04212E-08
 -1        96 4.65582E+02-8.95552E+02-1.12445E+02 5.28340E+02 3.80454E-08-5.74280E-08
 -1        97 3.59541E+02-5.65386E+02-5.13174E+01 4.38218E+02 3.19366E-08-5.26946E-08
 -1        98 2.12797E+02-3.11342E+02-2.27199E+01 3.56370E+02 1.75857E-08-1.57214E-08
 -1        99 1.37375E+02-1.15892E+02 1.13021E+01 2.77835E+02-2.25022E-09 3.46530E-08
 -1       100 8.64421E+01-2.85667E+01 2.08738E+01 2.41089E+02-2.37836E-08 8.25577E-08
 -1       101 1.04443E+02-2.62291E+01 2.58506E+01 2.49705E+02-3.43250E-08 1.07611E-07
 -1       102 1.44236E+02-9.98407E+01 1.47288E+01 2.86456E+02-2.72605E-08 9.43364E-08
 -1       103 2.10869E+02-1.46874E+02 1.99454E+01 2.89348E+02-5.96222E-09 6.11548E-08
 -1       104 1.88343E+02-1.57183E+02 9.64393E+00 2.58241E+02 2.81299E-08 8.84618E-09
 -1       105 1.16314E+02-1.20516E+02-1.20524E+00 2.00877E+02 4.77638E-08-2.59929E-08
 -1       106 2.28026E+01-9.58610E+01-2.19427E+01 1.44528E+02 4.80966E-08-2.44659E-08
 -1       107-3.37375E+01-7.67172E+01-3.31559E+01 8.20449E+01 3.72153E-08 2.42984E-09
 -1       108-3.37375E+01-7.67172E+01-3.31559E+01 8.20449E+01 3.72153E-08 2.42035E-09
 -1       109 2.28026E+01-9.58610E+01-2.19427E+01 1.44528E+02 4.80956E-08-2.44660E-08
 -1       110 1.16314E+02-1.20516E+02-1.20524E+00 2.00877E+02 4.77638E-08-2.59848E-08
 -1       111 1.88343E+02-1.57183E+02 9.64393E+00 2.58241E+02 2.81304E-08 8.83608E-09
 -1       112 2.10869E+02-1.46874E+02 1.99454E+01 2.89348E+02-5.96523E-09 6.11540E-08
 -1       113 1.44236E+02-9.98407E+01 1.47288E+01 2.86456E+02-2.72588E-08 9.43398E-08
 -1       114 1.04443E+02-2.62291E+01 2.58506E+01 2.49705E+02-3.43259E-08 1.07617E-07
 -1       115 8.64421E+01-2.85667E+01 2.08738E+01 2.41089E+02-2.37819E-08 8.25573E-08
 -1       116 1.37375E+02-1.15892E+02 1.13021E+01 2.77835E+02-2.25068E-09 3.46461E-08
 -1       117 2.12797E+02-3.11342E+02-2.27199E+01 3.56370E+02 1.75849E-08-1.57284E-08
 -1       118 3.59541E+02-5.65386E+02-5.13174E+01 4.38218E+02 3.19372E-08-5.26922E-08
 -1       119 4.65582E+02-8.95552E+02-1.12445E+02 5.28340E+02 3.80449E-08-5.74245E-08
 -1       120 5.09423E+02-1.24041E+03-1.93053E+02 5.95495E+02 3.82615E-08-5.04193E-08
 -1       121 4.25359E+02-1.58790E+03-3.08663E+02 6.13296E+02 3.39742E-08-4.39424E-08
 -1       122 3.14821E+02-1.89608E+03-4.15545E+02 5.67841E+02 2.53273E-08-2.45497E-08
 -1       123 1.59575E+02-2.23764E+03-5.40680E+02 5.44404E+02 1.55010E-08 1.15403E-08
 -1       124 3.96033E+01-2.60152E+03-6.60160E+02 5.99269E+02 8.05081E-09 3.53730E-08
 -1       125-1.64099E+02-3.07922E+03-8.14499E+02 8.96399E+02 4.90659E-09 3.64099E-08
 -1       126-5.09342E+01-3.44956E+03-9.53415E+02 5.97263E+02 1.36634E-09 2.24056E-08
 -3
    1PSTEP                       399         100           1          
  100CL  200 1.000000000         126                     1  100           1
 -4  TOSTRAIN    6    1
 -5  EXX         1    4    1    1
 -5  EYY         1    4    2    2
 -5  EZZ         1    4    3    3
 -5  EXY         1    4    1    2
 -5  EYZ         1    4    2    3
 -5  EZX         1    4    3    1
 -1         1-5.28356E-04 7.47943E-02-3.15911E-27 3.10452E-02-3.41002E-19 6.94936E-16
 -1         2-5.28356E-04 7.47943E-02-3.15911E-27 3.10452E-02-3.41002E-19 6.94936E-16
 -1         3-2.18253E-04 2.88533E-04 8.40618E-26 7.75674E-06 2.06268E-13 5.19183E-14
 -1         4-2.18253E-04 2.88533E-04 8.40613E-26 7.75674E-06 2.06267E-13 5.19155E-14
 -1         5-1.29442E-04-1.32760E-04-8.79892E-28 1.00143E-04-3.34614E-15 6.27636E-14
 -1         6-1.29442E-04-1.32760E-04-8.77825E-28 1.00143E-04-3.37447E-15 6.27143E-14
 -1         7-5.46578E-04-7.99418E-02-1.16517E-27 2.80635E-02 1.62806E-19-2.35285E-16
 -1         8-5.46578E-04-7.99418E-02-1.16518E-27 2.80635E-02 1.12529E-19-2.35307E-16
 -1         9-1.73847E-04 4.48041E-05 2.35697E-26 7.99043E-05 1.09916E-13 6.10472E-14
 -1        10-1.73847E-04 4.48041E-05 2.35699E-26 7.99043E-05 1.09920E-13 6.10542E-14
 -1        11-5.37467E-04-5.14440E-03-1.73374E-27 1.95656E-02-2.18128E-19 8.60917E-17
 -1        12-5.37467E-04-5.14440E-03-1.73373E-27 1.95656E-02-1.24307E-19 8.61335E-17
 -1        13-2.02695E-02 7.27976E-02 1.73199E-26 6.14032E-03 3.67691E-14 9.06361E-14
 -1        14-1.48334E-02 6.64764E-02 2.33114E-26 2.54407E-03 2.30615E-14 1.04761E-13
 -1        15-1.34805E-02 5.86040E-02 2.69187E-26 2.84397E-03-7.74609E-15 1.20994E-13
 -1        16-1.17238E-02 5.15005E-02-5.34133E-27 2.71329E-03-2.83652E-14 1.38231E-14
 -1        17-1.00940E-02 4.42491E-02 2.18532E-26 2.82436E-03-3.48173E-14-1.11669E-13
 -1        18-8.45478E-03 3.67841E-02 5.18704E-26 2.82630E-03-8.33470E-15-1.62859E-13
 -1        19-6.72411E-03 2.95275E-02 8.68962E-26 2.60064E-03 1.88298E-14-2.07361E-13
 -1        20-5.32509E-03 2.31914E-02 1.06575E-25 2.16795E-03 5.94237E-14-2.22932E-13
 -1        21-4.29064E-03 1.82867E-02 9.64022E-26 1.62378E-03 1.16339E-13-1.95642E-13
 -1        22-3.66793E-03 1.49042E-02 4.73780E-26 1.08187E-03 1.68907E-13-5.35239E-14
 -1        23-3.16259E-03 1.27903E-02 6.63767E-26 6.67125E-04 1.80303E-13 9.36945E-14
 -1        24-2.89875E-03 1.14695E-02 1.81453E-25 4.72188E-04 1.60646E-13 2.65214E-13
 -1        25-2.67200E-03 1.03182E-02 2.50952E-25 4.93189E-04 8.38836E-14 3.45735E-13
 -1        26-2.39130E-03 8.77805E-03 1.78065E-25 6.29343E-04 8.36218E-15 3.01647E-13
 -1        27-1.82607E-03 6.70899E-03 5.98027E-26 7.28572E-04-4.22067E-14 1.87102E-13
 -1        28-1.29086E-03 4.48846E-03-1.35231E-26 6.83401E-04-2.89048E-14-9.99883E-15
 -1        29-8.60816E-04 2.63404E-03 3.94255E-26 5.00223E-04 6.68537E-14-1.33556E-13
 -1        30-6.06733E-04 1.35652E-03 7.72492E-26 2.91359E-04 1.55525E-13-1.27780E-13
 -1        31-3.63390E-04 5.74114E-04 7.58693E-26 1.14572E-04 1.96331E-13-4.68213E-14
 -1        32-2.02695E-02 7.27976E-02 1.73199E-26 6.14032E-03 3.67691E-14 9.06361E-14
 -1        33-1.48334E-02 6.64764E-02 2.33114E-26 2.54407E-03 2.30615E-14 1.04761E-13
 -1        34-1.34805E-02 5.86040E-02 2.69184E-26 2.84397E-03-7.74627E-15 1.20993E-13
 -1        35-1.17238E-02 5.15005E-02-5.34125E-27 2.71329E-03-2.83651E-14 1.38233E-14
 -1        36-1.00940E-02 4.42491E-02 2.18521E-26 2.82436E-03-3.48161E-14-1.11667E-13
 -1        37-8.45478E-03 3.67841E-02 5.18703E-26 2.82630E-03-8.33449E-15-1.62859E-13
 -1        38-6.72411E-03 2.95275E-02 8.68842E-26 2.60064E-03 1.88364E-14-2.07346E-13
 -1        39-5.32509E-03 2.31914E-02 1.06579E-25 2.16795E-03 5.94212E-14-2.22937E-13
 -1        40-4.29064E-03 1.82867E-02 9.64012E-26 1.62378E-03 1.16338E-13-1.95642E-13
 -1        41-3.66793E-03 1.49042E-02 4.73760E-26 1.08187E-03 1.68913E-13-5.35145E-14
 -1        42-3.16259E-03 1.27903E-02 6.63810E-26 6.67125E-04 1.80308E-13 9.37019E-14
 -1        43-2.89875E-03 1.14695E-02 1.81453E-25 4.72188E-04 1.60645E-13 2.65215E-13
 -1        44-2.67200E-03 1.03182E-02 2.50938E-25 4.93189E-04 8.38821E-14 3.45726E-13
 -1        45-2.39130E-03 8.77805E-03 1.78066E-25 6.29343E-04 8.36152E-15 3.01647E-13
 -1        46-1.82607E-03 6.70899E-03 5.98047E-26 7.28572E-04-4.22043E-14 1.87100E-13
 -1        47-1.29086E-03 4.48846E-03-1.35188E-26 6.83401E-04-2.88944E-14-9.97895E-15
 -1        48-8.60816E-04 2.63404E-03 3.94180E-26 5.00223E-04 6.68318E-14-1.33558E-13
 -1        49-6.06733E-04 1.35652E-03 7.72459E-26 2.91359E-04 1.55515E-13-1.27807E-13
 -1        50-3.63390E-04 5.74114E-04 7.58806E-26 1.14572E-04 1.96395E-13-4.67130E-14
 -1        51-1.70789E-04-3.03618E-04-3.56528E-28 1.71955E-04 1.76740E-14-5.19028E-14
 -1        52-1.05986E-04-8.49207E-04 4.05970E-26 3.20116E-04 5.82183E-14-1.35182E-13
 -1        53 1.15225E-04-1.89269E-03 6.68785E-26 5.15621E-04 1.38841E-13-1.27839E-13
 -1        54 4.48255E-04-3.53393E-03 7.03516E-26 7.10303E-04 2.01590E-13-1.15966E-14
 -1        55 8.69526E-04-5.57305E-03 1.14747E-25 7.72543E-04 1.92576E-13 1.62980E-13
 -1        56 1.22763E-03-7.50807E-03 2.12729E-25 6.50419E-04 1.36662E-13 3.01639E-13
 -1        57 1.55766E-03-8.97408E-03 2.27419E-25 4.85317E-04 4.77633E-14 3.37005E-13
 -1        58 1.78475E-03-1.01310E-02 1.29626E-25 4.70147E-04-3.56067E-14 2.61836E-13
 -1        59 2.07254E-03-1.15651E-02 1.94587E-26 6.73543E-04-8.55821E-14 9.91205E-14
 -1        60 2.53806E-03-1.39261E-02 1.31318E-26 1.05887E-03-8.63073E-14-6.82875E-14
 -1        61 3.40351E-03-1.77068E-02 6.48292E-26 1.57347E-03-4.60389E-14-1.80935E-13
 -1        62 4.59760E-03-2.31672E-02 7.81369E-26 2.13689E-03 9.86584E-15-2.00231E-13
 -1        63 6.11274E-03-3.02081E-02 7.92378E-26 2.60092E-03 7.04502E-14-1.87407E-13
 -1        64 7.78193E-03-3.82748E-02 7.02612E-26 2.82494E-03 9.37577E-14-1.63577E-13
 -1        65 9.54263E-03-4.65622E-02 4.40663E-26 2.81924E-03 1.19771E-13-9.21420E-14
 -1        66 1.11403E-02-5.45657E-02 2.74279E-26 2.73182E-03 1.18387E-13 1.30502E-14
 -1        67 1.28294E-02-6.23457E-02 3.31688E-26 2.94781E-03 9.21346E-14 9.18804E-14
 -1        68 1.36054E-02-7.12976E-02 1.89666E-26 2.54575E-03 4.20318E-14 9.10713E-14
 -1        69 1.97597E-02-7.81596E-02 6.00097E-27 6.49466E-03 2.59574E-16 6.08280E-14
 -1        70-1.70789E-04-3.03618E-04-3.59247E-28 1.71955E-04 1.77156E-14-5.18302E-14
 -1        71-1.05986E-04-8.49207E-04 4.05818E-26 3.20116E-04 5.82824E-14-1.35115E-13
 -1        72 1.15225E-04-1.89269E-03 6.68851E-26 5.15621E-04 1.38823E-13-1.27863E-13
 -1        73 4.48255E-04-3.53393E-03 7.03127E-26 7.10303E-04 2.01548E-13-1.16739E-14
 -1        74 8.69526E-04-5.57305E-03 1.14756E-25 7.72543E-04 1.92585E-13 1.63003E-13
 -1        75 1.22763E-03-7.50807E-03 2.12722E-25 6.50419E-04 1.36657E-13 3.01636E-13
 -1        76 1.55766E-03-8.97408E-03 2.27411E-25 4.85317E-04 4.77672E-14 3.36997E-13
 -1        77 1.78475E-03-1.01310E-02 1.29646E-25 4.70147E-04-3.56266E-14 2.61847E-13
 -1        78 2.07254E-03-1.15651E-02 1.94760E-26 6.73543E-04-8.55615E-14 9.91604E-14
 -1        79 2.53806E-03-1.39261E-02 1.31217E-26 1.05887E-03-8.63033E-14-6.82727E-14
 -1        80 3.40351E-03-1.77068E-02 6.48663E-26 1.57347E-03-4.60547E-14-1.80990E-13
 -1        81 4.59760E-03-2.31672E-02 7.81419E-26 2.13689E-03 9.87602E-15-2.00236E-13
 -1        82 6.11274E-03-3.02081E-02 7.92279E-26 2.60092E-03 7.04543E-14-1.87390E-13
 -1        83 7.78193E-03-3.82748E-02 7.02634E-26 2.82494E-03 9.37453E-14-1.63588E-13
 -1        84 9.54263E-03-4.65622E-02 4.40711E-26 2.81924E-03 1.19778E-13-9.21488E-14
 -1        85 1.11403E-02-5.45657E-02 2.74251E-26 2.73182E-03 1.18380E-13 1.30653E-14
 -1        86 1.28294E-02-6.23457E-02 3.31717E-26 2.94781E-03 9.21395E-14 9.18829E-14
 -1        87 1.36054E-02-7.12976E-02 1.89666E-26 2.54575E-03 4.20322E-14 9.10714E-14
 -1        88 1.97597E-02-7.81596E-02 6.00100E-27 6.49466E-03 2.59671E-16 6.08281E-14
 -1        89-2.54883E-04-4.45487E-03 9.21184E-27 2.77764E-03 9.73459E-15 7.23365E-14
 -1        90-6.14012E-04-3.50762E-03 2.78141E-26 4.24330E-03 3.33823E-14 1.14478E-13
 -1        91-3.25525E-04-2.97117E-03 2.53776E-26 3.59057E-03 5.00523E-14 1.06507E-13
 -1        92-2.91757E-04-2.38963E-03 2.18767E-27 3.55484E-03 5.87175E-14 2.21434E-14
 -1        93-2.75667E-04-1.77364E-03 2.11403E-26 3.64876E-03 5.27594E-14-1.02244E-13
 -1        94-3.36422E-04-1.17203E-03 6.39179E-26 3.67427E-03 5.22211E-14-1.73257E-13
 -1        95-3.05687E-04-6.40587E-04 8.49084E-26 3.38931E-03 5.11339E-14-1.99719E-13
 -1        96-3.63747E-04-1.90029E-04 1.00500E-25 2.79511E-03 3.60822E-14-2.21319E-13
 -1        97-4.43565E-04 1.81154E-04 7.55283E-26 2.06327E-03 2.02895E-14-1.99441E-13
 -1        98-5.64935E-04 4.41130E-04-1.45296E-27 1.37770E-03 2.86180E-14-7.12711E-14
 -1        99-5.45021E-04 5.76027E-04 9.64824E-27 8.60575E-04 4.48203E-14 1.03559E-13
 -1       100-5.57000E-04 6.33472E-04 1.46956E-25 5.96857E-04 5.65150E-14 2.73510E-13
 -1       101-5.57169E-04 6.58115E-04 2.68238E-25 6.22368E-04 6.77789E-14 3.60869E-13
 -1       102-5.81833E-04 6.37741E-04 1.99478E-25 8.31598E-04 7.03040E-14 3.11330E-13
 -1       103-4.78273E-04 5.60011E-04 6.53343E-26 9.85498E-04 8.02093E-14 1.82775E-13
 -1       104-4.21303E-04 4.60969E-04 4.33904E-27 9.11811E-04 9.36625E-14-2.02721E-14
 -1       105-3.72796E-04 3.66856E-04 5.96195E-26 6.62734E-04 9.28817E-14-1.50522E-13
 -1       106-3.56360E-04 2.61108E-04 5.95204E-26 4.03667E-04 9.60661E-14-1.46852E-13
 -1       107-2.67089E-04 1.23405E-04 2.31332E-26 1.94756E-04 1.08824E-13-5.34242E-14
 -1       108-2.67089E-04 1.23405E-04 2.31293E-26 1.94756E-04 1.08809E-13-5.34509E-14
 -1       109-3.56360E-04 2.61108E-04 5.95223E-26 4.03667E-04 9.60629E-14-1.46851E-13
 -1       110-3.72796E-04 3.66856E-04 5.96122E-26 6.62734E-04 9.28946E-14-1.50499E-13
 -1       111-4.21303E-04 4.60969E-04 4.33710E-27 9.11811E-04 9.36479E-14-2.03015E-14
 -1       112-4.78273E-04 5.60011E-04 6.53293E-26 9.85498E-04 8.01996E-14 1.82777E-13
 -1       113-5.81833E-04 6.37741E-04 1.99491E-25 8.31598E-04 7.03144E-14 3.11337E-13
 -1       114-5.57169E-04 6.58115E-04 2.68266E-25 6.22368E-04 6.77853E-14 3.60888E-13
 -1       115-5.57000E-04 6.33472E-04 1.46951E-25 5.96857E-04 5.65194E-14 2.73506E-13
 -1       116-5.45021E-04 5.76027E-04 9.63778E-27 8.60575E-04 4.48086E-14 1.03540E-13
 -1       117-5.64935E-04 4.41130E-04-1.44803E-27 1.37770E-03 2.86053E-14-7.12904E-14
 -1       118-4.43565E-04 1.81154E-04 7.55261E-26 2.06327E-03 2.02948E-14-1.99435E-13
 -1       119-3.63747E-04-1.90029E-04 1.00491E-25 2.79511E-03 3.60852E-14-2.21308E-13
 -1       120-3.05687E-04-6.40587E-04 8.49046E-26 3.38931E-03 5.11350E-14-1.99713E-13
 -1       121-3.36422E-04-1.17203E-03 6.39261E-26 3.67427E-03 5.22197E-14-1.73267E-13
 -1       122-2.75667E-04-1.77364E-03 2.11427E-26 3.64876E-03 5.27562E-14-1.02250E-13
 -1       123-2.91757E-04-2.38963E-03 2.18720E-27 3.55484E-03 5.87162E-14 2.21415E-14
 -1       124-3.25525E-04-2.97117E-03 2.53782E-26 3.59057E-03 5.00519E-14 1.06509E-13
 -1       125-6.14012E-04-3.50762E-03 2.78140E-26 4.24330E-03 3.33817E-14 1.14478E-13
 -1       126-2.54883E-04-4.45487E-03 9.21180E-27 2.77764E-03 9.73441E-15 7.23363E-14
 -3
    1PSTEP                       400         100           1          
  100CL  200 1.000000000         126                     1  100           1
 -4  ERROR       1    1
 -5  STR(%)      1    1    0    0
 -1         1 6.81892E+01
 -1         2 6.81892E+01
 -1         3 3.71662E+01
 -1         4 3.71662E+01
 -1         5 2.66064E+01
 -1         6 2.66064E+01
 -1         7 5.57791E+01
 -1         8 5.57791E+01
 -1         9 3.71662E+01
 -1        10 3.71662E+01
 -1        11 6.81892E+01
 -1        12 6.81892E+01
 -1        13 6.81892E+01
 -1        14 6.74913E+01
 -1        15 6.72289E+01
 -1        16 6.69296E+01
 -1        17 6.66325E+01
 -1        18 6.62745E+01
 -1        19 6.54999E+01
 -1        20 6.45375E+01
 -1        21 6.32886E+01
 -1        22 6.18818E+01
 -1        23 6.00631E+01
 -1        24 5.87632E+01
 -1        25 5.79739E+01
 -1        26 5.79499E+01
 -1        27 5.71319E+01
 -1        28 5.53584E+01
 -1        29 5.21412E+01
 -1        30 4.91338E+01
 -1        31 4.48701E+01
 -1        32 6.81892E+01
 -1        33 6.74913E+01
 -1        34 6.72289E+01
 -1        35 6.69296E+01
 -1        36 6.66325E+01
 -1        37 6.62745E+01
 -1        38 6.54999E+01
 -1        39 6.45375E+01
 -1        40 6.32886E+01
 -1        41 6.18818E+01
 -1        42 6.00631E+01
 -1        43 5.87632E+01
 -1        44 5.79739E+01
 -1        45 5.79499E+01
 -1        46 5.71319E+01
 -1        47 5.53584E+01
 -1        48 5.21412E+01
 -1        49 4.91338E+01
 -1        50 4.48701E+01
 -1        51 4.32458E+01
 -1        52 5.59419E+01
 -1        53 6.23730E+01
 -1        54 6.62125E+01
 -1        55 6.79634E+01
 -1        56 6.79634E+01
 -1        57 6.65759E+01
 -1        58 6.52234E+01
 -1        59 6.47417E+01
 -1        60 6.43722E+01
 -1        61 6.29554E+01
 -1        62 6.13282E+01
 -1        63 5.99803E+01
 -1        64 5.89729E+01
 -1        65 5.79571E+01
 -1        66 5.70488E+01
 -1        67 5.62982E+01
 -1        68 5.59205E+01
 -1        69 5.57791E+01
 -1        70 4.32458E+01
 -1        71 5.59419E+01
 -1        72 6.23730E+01
 -1        73 6.62125E+01
 -1        74 6.79634E+01
 -1        75 6.79634E+01
 -1        76 6.65759E+01
 -1        77 6.52234E+01
 -1        78 6.47417E+01
 -1        79 6.43722E+01
 -1        80 6.29554E+01
 -1        81 6.13282E+01
 -1        82 5.99803E+01
 -1        83 5.89729E+01
 -1        84 5.79571E+01
 -1        85 5.70488E+01
 -1        86 5.62982E+01
 -1        87 5.59205E+01
 -1        88 5.57791E+01
 -1        89 6.81892E+01
 -1        90 6.74913E+01
 -1        91 6.72289E+01
 -1        92 6.69296E+01
 -1        93 6.66325E+01
 -1        94 6.62745E+01
 -1        95 6.54999E+01
 -1        96 6.45375E+01
 -1        97 6.32886E+01
 -1        98 6.43722E+01
 -1        99 6.47417E+01
 -1       100 6.52234E+01
 -1       101 6.65759E+01
 -1       102 6.79634E+01
 -1       103 6.79634E+01
 -1       104 6.62125E+01
 -1       105 6.23730E+01
 -1       106 5.59419E+01
 -1       107 4.48701E+01
 -1       108 4.48701E+01
 -1       109 5.59419E+01
 -1       110 6.23730E+01
 -1       111 6.62125E+01
 -1       112 6.79634E+01
 -1       113 6.79634E+01
 -1       114 6.65759E+01
 -1       115 6.52234E+01
 -1       116 6.47417E+01
 -1       117 6.43722E+01
 -1       118 6.32886E+01
 -1       119 6.45375E+01
 -1       120 6.54999E+01
 -1       121 6.62745E+01
 -1       122 6.66325E+01
 -1       123 6.69296E+01
 -1       124 6.72289E+01
 -1       125 6.74913E+01
 -1       126 6.81892E+01
 -3
 9999
