    1C
    1UUSER                                                              
    1UDATE              26.august.2020                                  
    1UTIME              15:36:06                                        
    1UHOST                                                              
    1UPGM               CalculiX                                        
    1UVERSION           Version 2.15                             
    1UCOMPILETIME       Sa 15. Dez 15:34:34 CET 2018                    
    1UDIR                                                               
    1UDBN                                                               
    1UMAT    1EL                                                        
    2C                           126                                     1
 -1         1 5.00000E-02 0.00000E+00 0.00000E+00
 -1         2 0.00000E+00 0.00000E+00 0.00000E+00
 -1         3 0.00000E+00 0.00000E+00 5.00000E-02
 -1         4 5.00000E-02 0.00000E+00 5.00000E-02
 -1         5 5.00000E-02 3.00000E-01 0.00000E+00
 -1         6 0.00000E+00 3.00000E-01 0.00000E+00
 -1         7 0.00000E+00 3.00000E-01 5.00000E-02
 -1         8 5.00000E-02 3.00000E-01 5.00000E-02
 -1         9 0.00000E+00 0.00000E+00 1.00000E-01
 -1        10 5.00000E-02 0.00000E+00 1.00000E-01
 -1        11 0.00000E+00 3.00000E-01 1.00000E-01
 -1        12 5.00000E-02 3.00000E-01 1.00000E-01
 -1        13 0.00000E+00 0.00000E+00 1.50000E-01
 -1        14 5.00000E-02 0.00000E+00 1.50000E-01
 -1        15 0.00000E+00 3.00000E-01 1.50000E-01
 -1        16 5.00000E-02 3.00000E-01 1.50000E-01
 -1        17 0.00000E+00 0.00000E+00 2.00000E-01
 -1        18 5.00000E-02 0.00000E+00 2.00000E-01
 -1        19 0.00000E+00 3.00000E-01 2.00000E-01
 -1        20 5.00000E-02 3.00000E-01 2.00000E-01
 -1        21 0.00000E+00 0.00000E+00 2.50000E-01
 -1        22 5.00000E-02 0.00000E+00 2.50000E-01
 -1        23 0.00000E+00 3.00000E-01 2.50000E-01
 -1        24 5.00000E-02 3.00000E-01 2.50000E-01
 -1        25 0.00000E+00 0.00000E+00 3.00000E-01
 -1        26 5.00000E-02 0.00000E+00 3.00000E-01
 -1        27 0.00000E+00 3.00000E-01 3.00000E-01
 -1        28 5.00000E-02 3.00000E-01 3.00000E-01
 -1        29 0.00000E+00 0.00000E+00 3.50000E-01
 -1        30 5.00000E-02 0.00000E+00 3.50000E-01
 -1        31 0.00000E+00 3.00000E-01 3.50000E-01
 -1        32 5.00000E-02 3.00000E-01 3.50000E-01
 -1        33 0.00000E+00 0.00000E+00 4.00000E-01
 -1        34 5.00000E-02 0.00000E+00 4.00000E-01
 -1        35 0.00000E+00 3.00000E-01 4.00000E-01
 -1        36 5.00000E-02 3.00000E-01 4.00000E-01
 -1        37 0.00000E+00 0.00000E+00 4.50000E-01
 -1        38 5.00000E-02 0.00000E+00 4.50000E-01
 -1        39 0.00000E+00 3.00000E-01 4.50000E-01
 -1        40 5.00000E-02 3.00000E-01 4.50000E-01
 -1        41 0.00000E+00 0.00000E+00 5.00000E-01
 -1        42 5.00000E-02 0.00000E+00 5.00000E-01
 -1        43 0.00000E+00 3.00000E-01 5.00000E-01
 -1        44 5.00000E-02 3.00000E-01 5.00000E-01
 -1        45 0.00000E+00 0.00000E+00 5.50000E-01
 -1        46 5.00000E-02 0.00000E+00 5.50000E-01
 -1        47 0.00000E+00 3.00000E-01 5.50000E-01
 -1        48 5.00000E-02 3.00000E-01 5.50000E-01
 -1        49 0.00000E+00 0.00000E+00 6.00000E-01
 -1        50 5.00000E-02 0.00000E+00 6.00000E-01
 -1        51 0.00000E+00 3.00000E-01 6.00000E-01
 -1        52 5.00000E-02 3.00000E-01 6.00000E-01
 -1        53 0.00000E+00 0.00000E+00 6.50000E-01
 -1        54 5.00000E-02 0.00000E+00 6.50000E-01
 -1        55 0.00000E+00 3.00000E-01 6.50000E-01
 -1        56 5.00000E-02 3.00000E-01 6.50000E-01
 -1        57 0.00000E+00 0.00000E+00 7.00000E-01
 -1        58 5.00000E-02 0.00000E+00 7.00000E-01
 -1        59 0.00000E+00 3.00000E-01 7.00000E-01
 -1        60 5.00000E-02 3.00000E-01 7.00000E-01
 -1        61 0.00000E+00 0.00000E+00 7.50000E-01
 -1        62 5.00000E-02 0.00000E+00 7.50000E-01
 -1        63 0.00000E+00 3.00000E-01 7.50000E-01
 -1        64 5.00000E-02 3.00000E-01 7.50000E-01
 -1        65 0.00000E+00 0.00000E+00 8.00000E-01
 -1        66 5.00000E-02 0.00000E+00 8.00000E-01
 -1        67 0.00000E+00 3.00000E-01 8.00000E-01
 -1        68 5.00000E-02 3.00000E-01 8.00000E-01
 -1        69 0.00000E+00 0.00000E+00 8.50000E-01
 -1        70 5.00000E-02 0.00000E+00 8.50000E-01
 -1        71 0.00000E+00 3.00000E-01 8.50000E-01
 -1        72 5.00000E-02 3.00000E-01 8.50000E-01
 -1        73 0.00000E+00 0.00000E+00 9.00000E-01
 -1        74 5.00000E-02 0.00000E+00 9.00000E-01
 -1        75 0.00000E+00 3.00000E-01 9.00000E-01
 -1        76 5.00000E-02 3.00000E-01 9.00000E-01
 -1        77 0.00000E+00 0.00000E+00 9.50000E-01
 -1        78 5.00000E-02 0.00000E+00 9.50000E-01
 -1        79 0.00000E+00 3.00000E-01 9.50000E-01
 -1        80 5.00000E-02 3.00000E-01 9.50000E-01
 -1        81 0.00000E+00 0.00000E+00 1.00000E+00
 -1        82 5.00000E-02 0.00000E+00 1.00000E+00
 -1        83 0.00000E+00 3.00000E-01 1.00000E+00
 -1        84 5.00000E-02 3.00000E-01 1.00000E+00
 -1        85-5.00000E-02 0.00000E+00 0.00000E+00
 -1        86-5.00000E-02 0.00000E+00 5.00000E-02
 -1        87-5.00000E-02 3.00000E-01 0.00000E+00
 -1        88-5.00000E-02 3.00000E-01 5.00000E-02
 -1        89-5.00000E-02 0.00000E+00 1.00000E-01
 -1        90-5.00000E-02 3.00000E-01 1.00000E-01
 -1        91-5.00000E-02 0.00000E+00 1.50000E-01
 -1        92-5.00000E-02 3.00000E-01 1.50000E-01
 -1        93-5.00000E-02 0.00000E+00 2.00000E-01
 -1        94-5.00000E-02 3.00000E-01 2.00000E-01
 -1        95-5.00000E-02 0.00000E+00 2.50000E-01
 -1        96-5.00000E-02 3.00000E-01 2.50000E-01
 -1        97-5.00000E-02 0.00000E+00 3.00000E-01
 -1        98-5.00000E-02 3.00000E-01 3.00000E-01
 -1        99-5.00000E-02 0.00000E+00 3.50000E-01
 -1       100-5.00000E-02 3.00000E-01 3.50000E-01
 -1       101-5.00000E-02 0.00000E+00 4.00000E-01
 -1       102-5.00000E-02 3.00000E-01 4.00000E-01
 -1       103-5.00000E-02 0.00000E+00 4.50000E-01
 -1       104-5.00000E-02 3.00000E-01 4.50000E-01
 -1       105-5.00000E-02 0.00000E+00 5.00000E-01
 -1       106-5.00000E-02 3.00000E-01 5.00000E-01
 -1       107-5.00000E-02 0.00000E+00 5.50000E-01
 -1       108-5.00000E-02 3.00000E-01 5.50000E-01
 -1       109-5.00000E-02 0.00000E+00 6.00000E-01
 -1       110-5.00000E-02 3.00000E-01 6.00000E-01
 -1       111-5.00000E-02 0.00000E+00 6.50000E-01
 -1       112-5.00000E-02 3.00000E-01 6.50000E-01
 -1       113-5.00000E-02 0.00000E+00 7.00000E-01
 -1       114-5.00000E-02 3.00000E-01 7.00000E-01
 -1       115-5.00000E-02 0.00000E+00 7.50000E-01
 -1       116-5.00000E-02 3.00000E-01 7.50000E-01
 -1       117-5.00000E-02 0.00000E+00 8.00000E-01
 -1       118-5.00000E-02 3.00000E-01 8.00000E-01
 -1       119-5.00000E-02 0.00000E+00 8.50000E-01
 -1       120-5.00000E-02 3.00000E-01 8.50000E-01
 -1       121-5.00000E-02 0.00000E+00 9.00000E-01
 -1       122-5.00000E-02 3.00000E-01 9.00000E-01
 -1       123-5.00000E-02 0.00000E+00 9.50000E-01
 -1       124-5.00000E-02 3.00000E-01 9.50000E-01
 -1       125-5.00000E-02 0.00000E+00 1.00000E+00
 -1       126-5.00000E-02 3.00000E-01 1.00000E+00
 -3
    3C                            40                                     1
 -1         1    1    0    1
 -2         1         2         3         4         5         6         7         8
 -1         2    1    0    1
 -2         4         3         9        10         8         7        11        12
 -1         3    1    0    1
 -2        10         9        13        14        12        11        15        16
 -1         4    1    0    1
 -2        14        13        17        18        16        15        19        20
 -1         5    1    0    1
 -2        18        17        21        22        20        19        23        24
 -1         6    1    0    1
 -2        22        21        25        26        24        23        27        28
 -1         7    1    0    1
 -2        26        25        29        30        28        27        31        32
 -1         8    1    0    1
 -2        30        29        33        34        32        31        35        36
 -1         9    1    0    1
 -2        34        33        37        38        36        35        39        40
 -1        10    1    0    1
 -2        38        37        41        42        40        39        43        44
 -1        11    1    0    1
 -2        42        41        45        46        44        43        47        48
 -1        12    1    0    1
 -2        46        45        49        50        48        47        51        52
 -1        13    1    0    1
 -2        50        49        53        54        52        51        55        56
 -1        14    1    0    1
 -2        54        53        57        58        56        55        59        60
 -1        15    1    0    1
 -2        58        57        61        62        60        59        63        64
 -1        16    1    0    1
 -2        62        61        65        66        64        63        67        68
 -1        17    1    0    1
 -2        66        65        69        70        68        67        71        72
 -1        18    1    0    1
 -2        70        69        73        74        72        71        75        76
 -1        19    1    0    1
 -2        74        73        77        78        76        75        79        80
 -1        20    1    0    1
 -2        78        77        81        82        80        79        83        84
 -1        21    1    0    1
 -2         2        85        86         3         6        87        88         7
 -1        22    1    0    1
 -2         3        86        89         9         7        88        90        11
 -1        23    1    0    1
 -2         9        89        91        13        11        90        92        15
 -1        24    1    0    1
 -2        13        91        93        17        15        92        94        19
 -1        25    1    0    1
 -2        17        93        95        21        19        94        96        23
 -1        26    1    0    1
 -2        21        95        97        25        23        96        98        27
 -1        27    1    0    1
 -2        25        97        99        29        27        98       100        31
 -1        28    1    0    1
 -2        29        99       101        33        31       100       102        35
 -1        29    1    0    1
 -2        33       101       103        37        35       102       104        39
 -1        30    1    0    1
 -2        37       103       105        41        39       104       106        43
 -1        31    1    0    1
 -2        41       105       107        45        43       106       108        47
 -1        32    1    0    1
 -2        45       107       109        49        47       108       110        51
 -1        33    1    0    1
 -2        49       109       111        53        51       110       112        55
 -1        34    1    0    1
 -2        53       111       113        57        55       112       114        59
 -1        35    1    0    1
 -2        57       113       115        61        59       114       116        63
 -1        36    1    0    1
 -2        61       115       117        65        63       116       118        67
 -1        37    1    0    1
 -2        65       117       119        69        67       118       120        71
 -1        38    1    0    1
 -2        69       119       121        73        71       120       122        75
 -1        39    1    0    1
 -2        73       121       123        77        75       122       124        79
 -1        40    1    0    1
 -2        77       123       125        81        79       124       126        83
 -3
    1PSTEP                         1           1           1          
  100CL  101 1.00000E-02         126                     1    1           1
 -4  DISP        4    1
 -5  D1          1    2    1    0
 -5  D2          1    2    2    0
 -5  D3          1    2    3    0
 -5  ALL         1    2    0    0    1ALL
 -1         1 0.00000E+00 0.00000E+00 0.00000E+00
 -1         2 0.00000E+00 0.00000E+00 0.00000E+00
 -1         3 1.30369E-04 0.00000E+00-5.27506E-06
 -1         4 1.73838E-04 0.00000E+00-2.82927E-05
 -1         5 0.00000E+00 0.00000E+00 0.00000E+00
 -1         6 0.00000E+00 0.00000E+00 0.00000E+00
 -1         7 1.30369E-04 0.00000E+00-5.27506E-06
 -1         8 1.73838E-04 0.00000E+00-2.82927E-05
 -1         9 1.76983E-04 0.00000E+00-2.57413E-07
 -1        10 1.98005E-04 0.00000E+00-1.54111E-05
 -1        11 1.76983E-04 0.00000E+00-2.57413E-07
 -1        12 1.98005E-04 0.00000E+00-1.54111E-05
 -1        13 1.69907E-04 0.00000E+00 8.44160E-07
 -1        14 1.93218E-04 0.00000E+00-2.25225E-06
 -1        15 1.69907E-04 0.00000E+00 8.44160E-07
 -1        16 1.93218E-04 0.00000E+00-2.25225E-06
 -1        17 1.64364E-04 0.00000E+00-2.07842E-08
 -1        18 1.91361E-04 0.00000E+00-1.20862E-07
 -1        19 1.64364E-04 0.00000E+00-2.07843E-08
 -1        20 1.91361E-04 0.00000E+00-1.20862E-07
 -1        21 1.65898E-04 0.00000E+00-9.65636E-07
 -1        22 1.88706E-04 0.00000E+00-2.57738E-07
 -1        23 1.65898E-04 0.00000E+00-9.65636E-07
 -1        24 1.88706E-04 0.00000E+00-2.57738E-07
 -1        25 1.70318E-04 0.00000E+00 1.62934E-07
 -1        26 1.99366E-04 0.00000E+00 1.34593E-06
 -1        27 1.70318E-04 0.00000E+00 1.62934E-07
 -1        28 1.99366E-04 0.00000E+00 1.34593E-06
 -1        29 1.61068E-04 0.00000E+00 1.24645E-06
 -1        30 1.82829E-04 0.00000E+00 2.79859E-06
 -1        31 1.61068E-04 0.00000E+00 1.24645E-06
 -1        32 1.82829E-04 0.00000E+00 2.79859E-06
 -1        33 1.54731E-04 0.00000E+00 2.37922E-07
 -1        34 1.80505E-04 0.00000E+00 1.80486E-06
 -1        35 1.54731E-04 0.00000E+00 2.37922E-07
 -1        36 1.80505E-04 0.00000E+00 1.80486E-06
 -1        37 1.55533E-04 0.00000E+00-6.80711E-07
 -1        38 1.76480E-04 0.00000E+00 9.10339E-07
 -1        39 1.55533E-04 0.00000E+00-6.80711E-07
 -1        40 1.76480E-04 0.00000E+00 9.10339E-07
 -1        41 1.57999E-04 0.00000E+00 4.31068E-07
 -1        42 1.84217E-04 0.00000E+00 2.43381E-06
 -1        43 1.57999E-04 0.00000E+00 4.31068E-07
 -1        44 1.84217E-04 0.00000E+00 2.43381E-06
 -1        45 1.47458E-04 0.00000E+00 1.49409E-06
 -1        46 1.66661E-04 0.00000E+00 3.88517E-06
 -1        47 1.47458E-04 0.00000E+00 1.49409E-06
 -1        48 1.66661E-04 0.00000E+00 3.88517E-06
 -1        49 1.39714E-04 0.00000E+00 5.88085E-07
 -1        50 1.62322E-04 0.00000E+00 3.13785E-06
 -1        51 1.39714E-04 0.00000E+00 5.88085E-07
 -1        52 1.62322E-04 0.00000E+00 3.13785E-06
 -1        53 1.38263E-04 0.00000E+00-8.78598E-08
 -1        54 1.56302E-04 0.00000E+00 2.55890E-06
 -1        55 1.38263E-04 0.00000E+00-8.78598E-08
 -1        56 1.56302E-04 0.00000E+00 2.55890E-06
 -1        57 1.37628E-04 0.00000E+00 1.15912E-06
 -1        58 1.59850E-04 0.00000E+00 4.16845E-06
 -1        59 1.37628E-04 0.00000E+00 1.15912E-06
 -1        60 1.59850E-04 0.00000E+00 4.16845E-06
 -1        61 1.25409E-04 0.00000E+00 2.46016E-06
 -1        62 1.41199E-04 0.00000E+00 5.64888E-06
 -1        63 1.25409E-04 0.00000E+00 2.46016E-06
 -1        64 1.41199E-04 0.00000E+00 5.64888E-06
 -1        65 1.16274E-04 0.00000E+00 2.17103E-06
 -1        66 1.35377E-04 0.00000E+00 5.32397E-06
 -1        67 1.16274E-04 0.00000E+00 2.17103E-06
 -1        68 1.35377E-04 0.00000E+00 5.32397E-06
 -1        69 1.12708E-04 0.00000E+00 2.90669E-06
 -1        70 1.28451E-04 0.00000E+00 5.20338E-06
 -1        71 1.12708E-04 0.00000E+00 2.90669E-06
 -1        72 1.28451E-04 0.00000E+00 5.20338E-06
 -1        73 1.10382E-04 0.00000E+00 4.79474E-06
 -1        74 1.32644E-04 0.00000E+00 7.76332E-06
 -1        75 1.10382E-04 0.00000E+00 4.79474E-06
 -1        76 1.32644E-04 0.00000E+00 7.76332E-06
 -1        77 9.55347E-05 0.00000E+00 6.08262E-06
 -1        78 1.20143E-04 0.00000E+00 1.07903E-05
 -1        79 9.55347E-05 0.00000E+00 6.08262E-06
 -1        80 1.20143E-04 0.00000E+00 1.07903E-05
 -1        81 8.05968E-05 0.00000E+00 8.86114E-06
 -1        82 9.04430E-05 0.00000E+00 1.24888E-05
 -1        83 8.05968E-05 0.00000E+00 8.86114E-06
 -1        84 9.04430E-05 0.00000E+00 1.24888E-05
 -1        85 0.00000E+00 0.00000E+00 0.00000E+00
 -1        86 2.27319E-04 0.00000E+00 2.76290E-05
 -1        87 0.00000E+00 0.00000E+00 0.00000E+00
 -1        88 2.27319E-04 0.00000E+00 2.76290E-05
 -1        89 2.52626E-04 0.00000E+00 1.37574E-05
 -1        90 2.52626E-04 0.00000E+00 1.37574E-05
 -1        91 2.37097E-04 0.00000E+00 1.74173E-06
 -1        92 2.37097E-04 0.00000E+00 1.74173E-06
 -1        93 2.34448E-04 0.00000E+00-2.05026E-08
 -1        94 2.34448E-04 0.00000E+00-2.05026E-08
 -1        95 2.32106E-04 0.00000E+00 3.18973E-07
 -1        96 2.32106E-04 0.00000E+00 3.18972E-07
 -1        97 2.53381E-04 0.00000E+00-1.19623E-06
 -1        98 2.53381E-04 0.00000E+00-1.19623E-06
 -1        99 2.25401E-04 0.00000E+00-2.58595E-06
 -1       100 2.25401E-04 0.00000E+00-2.58595E-06
 -1       101 2.22307E-04 0.00000E+00-1.48706E-06
 -1       102 2.22307E-04 0.00000E+00-1.48706E-06
 -1       103 2.18415E-04 0.00000E+00-5.02779E-07
 -1       104 2.18415E-04 0.00000E+00-5.02779E-07
 -1       105 2.35842E-04 0.00000E+00-1.94764E-06
 -1       106 2.35842E-04 0.00000E+00-1.94764E-06
 -1       107 2.06814E-04 0.00000E+00-3.28368E-06
 -1       108 2.06814E-04 0.00000E+00-3.28368E-06
 -1       109 2.01313E-04 0.00000E+00-2.31014E-06
 -1       110 2.01313E-04 0.00000E+00-2.31014E-06
 -1       111 1.95026E-04 0.00000E+00-1.47035E-06
 -1       112 1.95026E-04 0.00000E+00-1.47035E-06
 -1       113 2.06183E-04 0.00000E+00-2.69233E-06
 -1       114 2.06183E-04 0.00000E+00-2.69233E-06
 -1       115 1.75976E-04 0.00000E+00-3.55384E-06
 -1       116 1.75976E-04 0.00000E+00-3.55384E-06
 -1       117 1.67165E-04 0.00000E+00-2.17855E-06
 -1       118 1.67165E-04 0.00000E+00-2.17855E-06
 -1       119 1.58427E-04 0.00000E+00-9.74883E-07
 -1       120 1.58427E-04 0.00000E+00-9.74883E-07
 -1       121 1.57779E-04 0.00000E+00-2.06965E-06
 -1       122 1.57779E-04 0.00000E+00-2.06965E-06
 -1       123 1.31140E-04 0.00000E+00-2.47401E-06
 -1       124 1.31140E-04 0.00000E+00-2.47401E-06
 -1       125 9.82644E-05 0.00000E+00-8.53266E-07
 -1       126 9.82644E-05 0.00000E+00-8.53266E-07
 -3
    1PSTEP                         2           1           1          
  100CL  101 1.00000E-02         126                     1    1           1
 -4  STRESS      6    1
 -5  SXX         1    4    1    1
 -5  SYY         1    4    2    2
 -5  SZZ         1    4    3    3
 -5  SXY         1    4    1    2
 -5  SYZ         1    4    2    3
 -5  SZX         1    4    3    1
 -1         1-1.25670E+02-1.29223E+02-3.01237E+02-1.42172E-10 3.02747E-11 5.33893E+02
 -1         2-2.19377E+01-2.35605E+01-5.50900E+01 3.10428E-11 1.45404E-11 4.00894E+02
 -1         3-2.85589E+02-1.23789E+02-1.24260E+02 1.58580E-07-6.00710E-09 1.86018E+02
 -1         4 4.35473E+02 1.65748E+02 1.19182E+02 3.79039E-07-1.19369E-08 2.33814E+02
 -1         5-1.25670E+02-1.29223E+02-3.01237E+02-1.42165E-10 3.02747E-11 5.33893E+02
 -1         6-2.19377E+01-2.35605E+01-5.50900E+01 3.10421E-11 1.45405E-11 4.00894E+02
 -1         7-2.85589E+02-1.23789E+02-1.24260E+02 1.58580E-07-6.00710E-09 1.86018E+02
 -1         8 4.35473E+02 1.65748E+02 1.19182E+02 3.79039E-07-1.19369E-08 2.33814E+02
 -1         9-2.78823E+02-1.11989E+02-9.31196E+01 1.05475E-07-6.91138E-09 1.59605E+01
 -1        10 2.86611E+02 1.57059E+02 2.37278E+02 1.29650E-07 9.44597E-09-1.68471E+01
 -1        11-2.78823E+02-1.11989E+02-9.31196E+01 1.05475E-07-6.91138E-09 1.59605E+01
 -1        12 2.86611E+02 1.57059E+02 2.37278E+02 1.29650E-07 9.44597E-09-1.68471E+01
 -1        13-2.34888E+02-1.00821E+02-1.00095E+02 1.53255E-08-1.07987E-08-2.55396E+01
 -1        14 2.86476E+02 1.42812E+02 1.89898E+02 5.08968E-08 1.47791E-09-1.97878E+01
 -1        15-2.34888E+02-1.00821E+02-1.00095E+02 1.53255E-08-1.07987E-08-2.55396E+01
 -1        16 2.86476E+02 1.42812E+02 1.89898E+02 5.08968E-08 1.47791E-09-1.97878E+01
 -1        17-2.35267E+02-1.03738E+02-1.09305E+02 7.82235E-08-3.55908E-08-6.31511E+00
 -1        18 2.95557E+02 1.29160E+02 1.35299E+02 1.31473E-07 1.17920E-09-7.25983E+00
 -1        19-2.35267E+02-1.03738E+02-1.09305E+02 7.82235E-08-3.55908E-08-6.31510E+00
 -1        20 2.95557E+02 1.29160E+02 1.35299E+02 1.31473E-07 1.17920E-09-7.25983E+00
 -1        21-2.32470E+02-9.98374E+01-9.92723E+01 4.72231E-08-1.12308E-08 8.27426E+00
 -1        22 2.49181E+02 1.08627E+02 1.13145E+02 2.02062E-08 1.80554E-08 1.45125E+01
 -1        23-2.32470E+02-9.98374E+01-9.92723E+01 4.72231E-08-1.12308E-08 8.27426E+00
 -1        24 2.49181E+02 1.08627E+02 1.13145E+02 2.02062E-08 1.80554E-08 1.45125E+01
 -1        25-2.84488E+02-1.19712E+02-1.12906E+02-8.00847E-08-1.51375E-08-3.51821E+00
 -1        26 3.20160E+02 1.41077E+02 1.50495E+02-1.43331E-07 2.71466E-08-5.40747E+00
 -1        27-2.84488E+02-1.19712E+02-1.12906E+02-8.00847E-08-1.51375E-08-3.51821E+00
 -1        28 3.20160E+02 1.41077E+02 1.50495E+02-1.43331E-07 2.71466E-08-5.40747E+00
 -1        29-2.28306E+02-9.81688E+01-9.79367E+01-1.10120E-07 1.72593E-08-1.56928E+01
 -1        30 2.35577E+02 1.01477E+02 1.02897E+02-3.10274E-07 6.29939E-09-2.42658E+01
 -1        31-2.28306E+02-9.81688E+01-9.79367E+01-1.10120E-07 1.72593E-08-1.56928E+01
 -1        32 2.35577E+02 1.01477E+02 1.02897E+02-3.10274E-07 6.29939E-09-2.42658E+01
 -1        33-2.28679E+02-1.01032E+02-1.06959E+02-6.47004E-08 3.15183E-08-3.44938E+00
 -1        34 2.73413E+02 1.14569E+02 1.08758E+02 1.32854E-08-1.01316E-08-4.94993E+00
 -1        35-2.28679E+02-1.01032E+02-1.06959E+02-6.47004E-08 3.15183E-08-3.44938E+00
 -1        36 2.73413E+02 1.14569E+02 1.08758E+02 1.32854E-08-1.01316E-08-4.94993E+00
 -1        37-2.24645E+02-9.64245E+01-9.58305E+01-4.69181E-08-6.87356E-09 7.20147E+00
 -1        38 2.27174E+02 9.81076E+01 1.00046E+02-9.18629E-08-1.36759E-08 1.06197E+01
 -1        39-2.24645E+02-9.64245E+01-9.58305E+01-4.69181E-08-6.87356E-09 7.20147E+00
 -1        40 2.27174E+02 9.81076E+01 1.00046E+02-9.18629E-08-1.36759E-08 1.06197E+01
 -1        41-2.71864E+02-1.14260E+02-1.07568E+02 3.84285E-09-3.63699E-08-5.68144E+00
 -1        42 2.89440E+02 1.27833E+02 1.37000E+02 7.75309E-08-5.60625E-09-8.95354E+00
 -1        43-2.71864E+02-1.14260E+02-1.07568E+02 3.84285E-09-3.63699E-08-5.68144E+00
 -1        44 2.89440E+02 1.27833E+02 1.37000E+02 7.75309E-08-5.60625E-09-8.95354E+00
 -1        45-2.15206E+02-9.23802E+01-9.18951E+01-3.02074E-08-1.70568E-08-1.70994E+01
 -1        46 2.08562E+02 9.02411E+01 9.24155E+01-2.05368E-07 7.46060E-09-2.63508E+01
 -1        47-2.15206E+02-9.23802E+01-9.18951E+01-3.02074E-08-1.70568E-08-1.70994E+01
 -1        48 2.08562E+02 9.02411E+01 9.24155E+01-2.05368E-07 7.46060E-09-2.63508E+01
 -1        49-2.12898E+02-9.37273E+01-9.85926E+01-6.35221E-08 4.35390E-08-5.76191E+00
 -1        50 2.40566E+02 1.01259E+02 9.71782E+01-1.81620E-07 4.38999E-09-8.09643E+00
 -1        51-2.12898E+02-9.37273E+01-9.85926E+01-6.35221E-08 4.35390E-08-5.76191E+00
 -1        52 2.40566E+02 1.01259E+02 9.71782E+01-1.81620E-07 4.38999E-09-8.09643E+00
 -1        53-2.06618E+02-8.81225E+01-8.63659E+01-3.46069E-08 2.25783E-08 2.98955E+00
 -1        54 1.96738E+02 8.56143E+01 8.87881E+01 5.64615E-08 2.51039E-09 4.34890E+00
 -1        55-2.06618E+02-8.81225E+01-8.63659E+01-3.46068E-08 2.25783E-08 2.98955E+00
 -1        56 1.96738E+02 8.56143E+01 8.87881E+01 5.64615E-08 2.51039E-09 4.34890E+00
 -1        57-2.42754E+02-1.01149E+02-9.33090E+01-3.79289E-08-1.40041E-08-9.21956E+00
 -1        58 2.46617E+02 1.09669E+02 1.19189E+02-5.60132E-08 1.69289E-09-1.39886E+01
 -1        59-2.42754E+02-1.01149E+02-9.33090E+01-3.79289E-08-1.40041E-08-9.21956E+00
 -1        60 2.46617E+02 1.09669E+02 1.19189E+02-5.60133E-08 1.69289E-09-1.39886E+01
 -1        61-1.84457E+02-7.79738E+01-7.48577E+01-3.72148E-08-1.90858E-08-1.86930E+01
 -1        62 1.72806E+02 7.55341E+01 7.90984E+01-4.69287E-08 2.10764E-09-2.78594E+01
 -1        63-1.84457E+02-7.79738E+01-7.48577E+01-3.72148E-08-1.90858E-08-1.86930E+01
 -1        64 1.72806E+02 7.55341E+01 7.90984E+01-4.69287E-08 2.10764E-09-2.78594E+01
 -1        65-1.69647E+02-7.23887E+01-7.10134E+01-5.61923E-08 3.43682E-09-7.99933E+00
 -1        66 2.04808E+02 8.71210E+01 8.57511E+01-1.56504E-07 1.32791E-09-9.91553E+00
 -1        67-1.69647E+02-7.23887E+01-7.10134E+01-5.61923E-08 3.43682E-09-7.99933E+00
 -1        68 2.04808E+02 8.71210E+01 8.57511E+01-1.56504E-07 1.32790E-09-9.91553E+00
 -1        69-1.54970E+02-6.31684E+01-5.50959E+01-6.06568E-08 2.15385E-08 4.31444E-01
 -1        70 1.75245E+02 7.82735E+01 8.57832E+01-9.00885E-08-6.77316E-09 2.86860E+00
 -1        71-1.54970E+02-6.31684E+01-5.50959E+01-6.06568E-08 2.15385E-08 4.31444E-01
 -1        72 1.75245E+02 7.82735E+01 8.57832E+01-9.00885E-08-6.77316E-09 2.86860E+00
 -1        73-1.27549E+02-5.07254E+01-4.09495E+01-3.10124E-08-2.63582E-09-1.13053E+01
 -1        74 2.52795E+02 1.15607E+02 1.32808E+02 2.20626E-08-1.70226E-08-3.64913E+00
 -1        75-1.27549E+02-5.07254E+01-4.09495E+01-3.10124E-08-2.63582E-09-1.13053E+01
 -1        76 2.52795E+02 1.15607E+02 1.32808E+02 2.20627E-08-1.70226E-08-3.64913E+00
 -1        77-4.95094E+01-1.60224E+01-3.50436E+00-7.18896E-10 1.31808E-08-2.54287E+01
 -1        78 2.76166E+02 1.24464E+02 1.39030E+02-7.57769E-08-4.87897E-08-5.05020E+01
 -1        79-4.95094E+01-1.60224E+01-3.50436E+00-7.18887E-10 1.31808E-08-2.54287E+01
 -1        80 2.76166E+02 1.24464E+02 1.39030E+02-7.57769E-08-4.87897E-08-5.05020E+01
 -1        81-2.92136E+01-5.22007E+00 1.18853E+01 1.16596E-07 2.21061E-08-2.54476E+01
 -1        82 1.14017E+02 5.33136E+01 6.38081E+01 2.89799E-07-1.14060E-07-8.02689E+01
 -1        83-2.92136E+01-5.22007E+00 1.18853E+01 1.16596E-07 2.21061E-08-2.54476E+01
 -1        84 1.14017E+02 5.33136E+01 6.38081E+01 2.89799E-07-1.14060E-07-8.02689E+01
 -1        85 1.35462E+02 1.29872E+02 3.03173E+02 1.34228E-10 1.94322E-11 7.00570E+02
 -1        86-1.00560E+03-4.14776E+02-3.71185E+02 1.67755E-07 7.78093E-09 2.86687E+02
 -1        87 1.35462E+02 1.29872E+02 3.03173E+02 1.34226E-10 1.94314E-11 7.00570E+02
 -1        88-1.00560E+03-4.14776E+02-3.71185E+02 1.67755E-07 7.78093E-09 2.86687E+02
 -1        89-8.72540E+02-4.09270E+02-4.88781E+02 1.70189E-07-1.94520E-08-2.79166E+01
 -1        90-8.72540E+02-4.09270E+02-4.88781E+02 1.70189E-07-1.94520E-08-2.79166E+01
 -1        91-7.53932E+02-3.42181E+02-3.84516E+02-1.42916E-07-1.95212E-08-3.06010E+01
 -1        92-7.53932E+02-3.42181E+02-3.84516E+02-1.42916E-07-1.95212E-08-3.06010E+01
 -1        93-7.56428E+02-3.26973E+02-3.31346E+02 1.68113E-07-1.51199E-08-7.65063E+00
 -1        94-7.56428E+02-3.26973E+02-3.31346E+02 1.68113E-07-1.51199E-08-7.65063E+00
 -1        95-7.14261E+02-3.08477E+02-3.12080E+02 1.37556E-07-3.64335E-08 2.50939E+01
 -1        96-7.14261E+02-3.08477E+02-3.12080E+02 1.37556E-07-3.64335E-08 2.50939E+01
 -1        97-8.98905E+02-3.90370E+02-3.99266E+02-1.17008E-07-2.77644E-08-6.11387E+00
 -1        98-8.98905E+02-3.90370E+02-3.99266E+02-1.17008E-07-2.77644E-08-6.11387E+00
 -1        99-6.92083E+02-2.97757E+02-2.98634E+02-2.05655E-08-1.65476E-09-3.59108E+01
 -1       100-6.92083E+02-2.97757E+02-2.98634E+02-2.05655E-08-1.65476E-09-3.59108E+01
 -1       101-7.21413E+02-3.07263E+02-3.00857E+02-1.10060E-07 1.30056E-08-5.42899E+00
 -1       102-7.21413E+02-3.07263E+02-3.00857E+02-1.10060E-07 1.30056E-08-5.42899E+00
 -1       103-6.76938E+02-2.91455E+02-2.92863E+02-1.25500E-07 1.14349E-08 2.02106E+01
 -1       104-6.76938E+02-2.91455E+02-2.92863E+02-1.25500E-07 1.14349E-08 2.02106E+01
 -1       105-8.42675E+02-3.65951E+02-3.74469E+02 1.55177E-08-8.74218E-10-1.04981E+01
 -1       106-8.42675E+02-3.65951E+02-3.74469E+02 1.55177E-08-8.74218E-10-1.04981E+01
 -1       107-6.38846E+02-2.74922E+02-2.76019E+02 1.06437E-07-5.64823E-09-3.83206E+01
 -1       108-6.38846E+02-2.74922E+02-2.76019E+02 1.06437E-07-5.64823E-09-3.83206E+01
 -1       109-6.57926E+02-2.80270E+02-2.74693E+02-3.86483E-08-1.24896E-09-9.20103E+00
 -1       110-6.57926E+02-2.80270E+02-2.74693E+02-3.86484E-08-1.24896E-09-9.20103E+00
 -1       111-6.11100E+02-2.63000E+02-2.64170E+02-9.25299E-08 7.56032E-09 1.17069E+01
 -1       112-6.11100E+02-2.63000E+02-2.64170E+02-9.25299E-08 7.56032E-09 1.17069E+01
 -1       113-7.41492E+02-3.21410E+02-3.27790E+02-8.67871E-08 1.72740E-09-1.74123E+01
 -1       114-7.41492E+02-3.21410E+02-3.27790E+02-8.67871E-08 1.72740E-09-1.74123E+01
 -1       115-5.42471E+02-2.32281E+02-2.30682E+02-2.52625E-08-4.25740E-09-4.14349E+01
 -1       116-5.42471E+02-2.32281E+02-2.30682E+02-2.52625E-08-4.25740E-09-4.14349E+01
 -1       117-5.41229E+02-2.29023E+02-2.21090E+02 2.81377E-09-8.40965E-10-1.35946E+01
 -1       118-5.41229E+02-2.29023E+02-2.21090E+02 2.81374E-09-8.40965E-10-1.35946E+01
 -1       119-4.91413E+02-2.10847E+02-2.10510E+02-1.01235E-07 8.10727E-09-2.50290E+00
 -1       120-4.91413E+02-2.10847E+02-2.10510E+02-1.01235E-07 8.10727E-09-2.50290E+00
 -1       121-5.13100E+02-2.22298E+02-2.26894E+02-4.84179E-08 2.56509E-08-2.08290E+01
 -1       122-5.13100E+02-2.22298E+02-2.26894E+02-4.84179E-08 2.56509E-08-2.08290E+01
 -1       123-3.80103E+02-1.61531E+02-1.57759E+02 1.99450E-08 3.88959E-08-6.51390E+01
 -1       124-3.80103E+02-1.61531E+02-1.57759E+02 1.99450E-08 3.88959E-08-6.51390E+01
 -1       125-1.82544E+02-7.40130E+01-6.40051E+01 6.07756E-08 3.52226E-08-7.12227E+01
 -1       126-1.82544E+02-7.40130E+01-6.40051E+01 6.07755E-08 3.52226E-08-7.12227E+01
 -3
    1PSTEP                         3           1           1          
  100CL  101 1.00000E-02         126                     1    1           1
 -4  TOSTRAIN    6    1
 -5  EXX         1    4    1    1
 -5  EYY         1    4    2    2
 -5  EZZ         1    4    3    3
 -5  EXY         1    4    1    2
 -5  EYZ         1    4    2    3
 -5  EZX         1    4    3    1
 -1         1-9.53279E-08-4.76275E-25-5.59716E-04-1.94800E-16 4.34890E-19 1.73833E-03
 -1         2-2.06010E-07-7.46824E-26-1.02309E-04 3.15987E-17 1.75351E-19 1.30363E-03
 -1         3-5.33618E-04 4.11925E-25-7.70837E-07 5.15798E-13-1.92666E-14 6.04800E-04
 -1         4 8.69804E-04 2.52094E-24-1.50981E-04 1.23061E-12-3.82782E-14 7.60713E-04
 -1         5-9.53279E-08-4.76275E-25-5.59716E-04-1.94778E-16 4.34962E-19 1.73833E-03
 -1         6-2.06010E-07-7.46824E-26-1.02309E-04 3.15965E-17 1.75688E-19 1.30363E-03
 -1         7-5.33618E-04 4.11925E-25-7.70838E-07 5.15798E-13-1.92666E-14 6.04800E-04
 -1         8 8.69804E-04 2.52094E-24-1.50981E-04 1.23061E-12-3.82782E-14 7.60713E-04
 -1         9-5.45543E-04 2.21687E-25 6.14009E-05 3.43068E-13-2.23731E-14 5.17299E-05
 -1        10 4.20547E-04 2.43892E-25 2.60480E-04 4.21081E-13 3.07941E-14-5.46363E-05
 -1        11-5.45543E-04 2.21687E-25 6.14009E-05 3.43068E-13-2.23731E-14 5.17299E-05
 -1        12 4.20547E-04 2.43892E-25 2.60480E-04 4.21081E-13 3.07941E-14-5.46363E-05
 -1        13-4.38260E-04-4.52474E-26 2.37083E-06 4.98365E-14-3.51057E-14-8.30315E-05
 -1        14 4.66323E-04 2.75722E-26 1.52917E-04 1.65289E-13 4.80882E-15-6.42017E-05
 -1        15-4.38260E-04-4.52474E-26 2.37083E-06 4.98365E-14-3.51057E-14-8.30315E-05
 -1        16 4.66323E-04 2.75723E-26 1.52917E-04 1.65290E-13 4.80882E-15-6.42017E-05
 -1        17-4.30295E-04 1.33683E-25-1.80947E-05 2.54389E-13-1.15696E-13-2.05373E-05
 -1        18 5.40059E-04 3.18094E-25 1.99458E-05 4.26943E-13 3.83385E-15-2.35721E-05
 -1        19-4.30295E-04 1.33683E-25-1.80947E-05 2.54389E-13-1.15696E-13-2.05373E-05
 -1        20 5.40059E-04 3.18094E-25 1.99458E-05 4.26943E-13 3.83385E-15-2.35721E-05
 -1        21-4.33491E-04 3.98208E-27 1.83648E-06 1.53582E-13-3.65078E-14 2.68712E-05
 -1        22 4.56258E-04-5.71284E-26 1.46789E-05 6.56158E-14 5.86639E-14 4.71208E-05
 -1        23-4.33491E-04 3.98205E-27 1.83648E-06 1.53582E-13-3.65078E-14 2.68712E-05
 -1        24 4.56258E-04-5.71284E-26 1.46789E-05 6.56159E-14 5.86639E-14 4.71208E-05
 -1        25-5.39364E-04 1.03944E-25 2.21250E-05-2.60482E-13-4.92023E-14-1.14249E-05
 -1        26 5.81103E-04 3.37938E-25 3.05999E-05-4.65407E-13 8.82079E-14-1.75708E-05
 -1        27-5.39364E-04 1.03944E-25 2.21250E-05-2.60482E-13-4.92023E-14-1.14249E-05
 -1        28 5.81103E-04 3.37938E-25 3.05999E-05-4.65407E-13 8.82079E-14-1.75708E-05
 -1        29-4.25242E-04 1.90058E-25 7.58963E-07-3.58110E-13 5.61239E-14-5.09727E-05
 -1        30 4.35309E-04 1.68430E-24 4.61627E-06-1.00771E-12 2.04997E-14-7.88187E-05
 -1        31-4.25242E-04 1.90058E-25 7.58964E-07-3.58110E-13 5.61239E-14-5.09727E-05
 -1        32 4.35309E-04 1.68430E-24 4.61627E-06-1.00771E-12 2.04997E-14-7.88187E-05
 -1        33-4.17474E-04 1.01303E-25-1.92676E-05-2.10405E-13 1.02465E-13-1.12029E-05
 -1        34 5.15589E-04-1.97789E-25-1.88801E-05 4.31573E-14-3.29216E-14-1.60926E-05
 -1        35-4.17474E-04 1.01303E-25-1.92676E-05-2.10405E-13 1.02465E-13-1.12029E-05
 -1        36 5.15589E-04-1.97789E-25-1.88801E-05 4.31573E-14-3.29216E-14-1.60926E-05
 -1        37-4.18897E-04 2.94601E-26 1.92971E-06-1.52581E-13-2.23409E-14 2.33961E-05
 -1        38 4.19016E-04 1.13946E-25 6.29633E-06-2.98353E-13-4.44270E-14 3.44739E-05
 -1        39-4.18897E-04 2.94601E-26 1.92971E-06-1.52581E-13-2.23409E-14 2.33961E-05
 -1        40 4.19016E-04 1.13946E-25 6.29633E-06-2.98353E-13-4.44270E-14 3.44739E-05
 -1        41-5.15562E-04 2.07878E-26 2.17540E-05 1.24852E-14-1.18229E-13-1.84470E-05
 -1        42 5.24465E-04-6.38085E-26 2.97832E-05 2.51795E-13-1.82250E-14-2.90933E-05
 -1        43-5.15562E-04 2.07878E-26 2.17540E-05 1.24852E-14-1.18229E-13-1.84470E-05
 -1        44 5.24465E-04-6.38085E-26 2.97832E-05 2.51795E-13-1.82250E-14-2.90933E-05
 -1        45-4.01127E-04-5.90152E-26 1.58394E-06-9.82461E-14-5.54382E-14-5.55409E-05
 -1        46 3.84124E-04 6.58891E-25 7.07224E-06-6.67038E-13 2.42733E-14-8.56020E-05
 -1        47-4.01127E-04-5.90152E-26 1.58394E-06-9.82461E-14-5.54382E-14-5.55409E-05
 -1        48 3.84124E-04 6.58891E-25 7.07224E-06-6.67038E-13 2.42733E-14-8.56020E-05
 -1        49-3.89465E-04 9.40069E-26-1.58134E-05-2.06556E-13 1.41543E-13-1.87132E-05
 -1        50 4.52237E-04 5.55894E-25-1.32571E-05-5.89876E-13 1.42947E-14-2.63205E-05
 -1        51-3.89465E-04 9.40069E-26-1.58134E-05-2.06556E-13 1.41543E-13-1.87132E-05
 -1        52 4.52237E-04 5.55894E-25-1.32571E-05-5.89876E-13 1.42947E-14-2.63205E-05
 -1        53-3.86871E-04 1.95226E-26 5.70884E-06-1.12536E-13 7.33980E-14 9.71842E-06
 -1        54 3.60822E-04-6.82990E-26 1.03101E-05 1.83387E-13 8.14731E-15 1.41037E-05
 -1        55-3.86871E-04 1.95225E-26 5.70884E-06-1.12536E-13 7.33980E-14 9.71842E-06
 -1        56 3.60822E-04-6.82990E-26 1.03101E-05 1.83387E-13 8.14731E-15 1.41037E-05
 -1        57-4.62797E-04 2.91444E-26 2.54903E-05-1.23359E-13-4.55138E-14-2.99342E-05
 -1        58 4.44523E-04 4.57147E-26 3.09342E-05-1.81923E-13 5.51122E-15-4.54532E-05
 -1        59-4.62797E-04 2.91445E-26 2.54903E-05-1.23359E-13-4.55138E-14-2.99342E-05
 -1        60 4.44523E-04 4.57147E-26 3.09342E-05-1.81923E-13 5.51122E-15-4.54532E-05
 -1        61-3.47477E-04 3.60689E-26 1.01390E-05-1.21025E-13-6.20276E-14-6.07132E-05
 -1        62 3.15828E-04 2.59886E-26 1.15923E-05-1.52447E-13 6.85841E-15-9.05121E-05
 -1        63-3.47477E-04 3.60689E-26 1.01390E-05-1.21025E-13-6.20276E-14-6.07132E-05
 -1        64 3.15828E-04 2.59886E-26 1.15923E-05-1.52447E-13 6.85841E-15-9.05121E-05
 -1        65-3.17571E-04 4.50640E-26 4.47425E-06-1.82710E-13 1.11853E-14-2.59720E-05
 -1        66 3.82113E-04 4.56474E-25-4.44710E-06-5.08353E-13 4.34677E-15-3.22315E-05
 -1        67-3.17571E-04 4.50639E-26 4.47425E-06-1.82710E-13 1.11853E-14-2.59720E-05
 -1        68 3.82113E-04 4.56474E-25-4.44710E-06-5.08353E-13 4.34676E-15-3.22315E-05
 -1        69-2.99516E-04 8.19541E-26 2.62377E-05-1.97216E-13 7.00203E-14 1.43959E-06
 -1        70 3.14900E-04 1.39862E-25 2.43989E-05-2.92643E-13-2.19950E-14 9.30003E-06
 -1        71-2.99516E-04 8.19540E-26 2.62377E-05-1.97216E-13 7.00203E-14 1.43959E-06
 -1        72 3.14900E-04 1.39862E-25 2.43988E-05-2.92643E-13-2.19950E-14 9.30004E-06
 -1        73-2.51060E-04 1.28933E-26 3.17797E-05-1.00827E-13-8.55713E-15-3.66767E-05
 -1        74 4.45328E-04-2.76335E-26 5.58851E-05 7.16529E-14-5.53118E-14-1.18702E-05
 -1        75-2.51060E-04 1.28934E-26 3.17797E-05-1.00827E-13-8.55713E-15-3.66767E-05
 -1        76 4.45328E-04-2.76335E-26 5.58851E-05 7.16529E-14-5.53118E-14-1.18702E-05
 -1        77-1.09776E-04-2.76911E-26 4.07021E-05-2.32086E-15 4.28378E-14-8.25812E-05
 -1        78 4.92273E-04-9.77437E-26 4.73544E-05-2.46196E-13-1.58494E-13-1.64027E-04
 -1        79-1.09776E-04-2.76911E-26 4.07021E-05-2.32083E-15 4.28378E-14-8.25812E-05
 -1        80 4.92273E-04-9.77437E-26 4.73544E-05-2.46196E-13-1.58494E-13-1.64027E-04
 -1        81-7.81677E-05 1.79323E-25 5.56055E-05 3.79006E-13 7.17921E-14-8.26470E-05
 -1        82 1.96925E-04 1.42939E-24 3.41390E-05 9.41265E-13-3.70703E-13-2.60774E-04
 -1        83-7.81677E-05 1.79323E-25 5.56055E-05 3.79006E-13 7.17921E-14-8.26470E-05
 -1        84 1.96925E-04 1.42939E-24 3.41390E-05 9.41265E-13-3.70703E-13-2.60774E-04
 -1        85-3.16692E-07-9.99787E-26 5.62707E-04 1.70719E-16 1.78437E-20 2.27312E-03
 -1        86-1.93704E-03 5.49658E-25 1.42709E-04 5.46562E-13 2.56327E-14 9.31558E-04
 -1        87-3.16692E-07-9.99787E-26 5.62707E-04 1.70714E-16 1.52534E-20 2.27312E-03
 -1        88-1.93704E-03 5.49658E-25 1.42709E-04 5.46562E-13 2.56327E-14 9.31558E-04
 -1        89-1.51163E-03 4.49731E-25-2.58764E-04 5.54429E-13-6.31564E-14-9.12966E-05
 -1        90-1.51163E-03 4.49731E-25-2.58764E-04 5.54429E-13-6.31564E-14-9.12966E-05
 -1        91-1.34284E-03 4.14053E-26-1.37740E-04-4.65484E-13-6.35282E-14-9.97349E-05
 -1        92-1.34284E-03 4.14053E-26-1.37740E-04-4.65484E-13-6.35282E-14-9.97349E-05
 -1        93-1.40065E-03 4.20898E-25-1.42258E-05 5.47515E-13-4.91735E-14-2.49193E-05
 -1        94-1.40065E-03 4.20897E-25-1.42258E-05 5.47515E-13-4.91735E-14-2.49193E-05
 -1        95-1.32324E-03 2.87339E-25-1.17161E-05 4.48004E-13-1.18482E-13 8.16893E-05
 -1        96-1.32324E-03 2.87339E-25-1.17161E-05 4.48004E-13-1.18482E-13 8.16893E-05
 -1        97-1.65983E-03 1.79203E-25-2.89357E-05-3.81188E-13-9.03037E-14-1.98762E-05
 -1        98-1.65983E-03 1.79203E-25-2.89357E-05-3.81188E-13-9.03037E-14-1.98762E-05
 -1        99-1.28579E-03-4.26801E-26-2.83492E-06-6.69503E-14-5.37279E-15-1.16844E-04
 -1       100-1.28579E-03-4.26801E-26-2.83491E-06-6.69503E-14-5.37279E-15-1.16844E-04
 -1       101-1.35054E-03 2.43744E-25 2.08335E-05-3.58414E-13 4.23083E-14-1.76318E-05
 -1       102-1.35054E-03 2.43744E-25 2.08335E-05-3.58414E-13 4.23083E-14-1.76318E-05
 -1       103-1.25681E-03 2.81831E-25-4.57784E-06-4.08669E-13 3.71882E-14 6.58091E-05
 -1       104-1.25681E-03 2.81831E-25-4.57784E-06-4.08669E-13 3.71882E-14 6.58091E-05
 -1       105-1.55559E-03-4.26944E-26-2.77033E-05 5.05467E-14-2.84395E-15-3.41280E-05
 -1       106-1.55559E-03-4.26944E-26-2.77033E-05 5.05467E-14-2.84395E-15-3.41280E-05
 -1       107-1.18638E-03 1.32304E-25-3.54334E-06 3.46547E-13-1.83984E-14-1.24657E-04
 -1       108-1.18638E-03 1.32304E-25-3.54334E-06 3.46547E-13-1.83984E-14-1.24657E-04
 -1       109-1.23117E-03-1.31451E-26 1.81397E-05-1.25838E-13-4.05346E-15-2.98849E-05
 -1       110-1.23117E-03-1.31450E-26 1.81397E-05-1.25838E-13-4.05346E-15-2.98849E-05
 -1       111-1.13456E-03 1.67612E-25-3.80814E-06-3.01241E-13 2.45944E-14 3.81462E-05
 -1       112-1.13456E-03 1.67612E-25-3.80814E-06-3.01241E-13 2.45944E-14 3.81462E-05
 -1       113-1.37012E-03 1.45402E-25-2.07388E-05-2.82634E-13 5.63990E-15-5.66031E-05
 -1       114-1.37012E-03 1.45402E-25-2.07388E-05-2.82634E-13 5.63990E-15-5.66031E-05
 -1       115-1.01078E-03 6.31664E-27 5.23128E-06-8.22257E-14-1.38335E-14-1.34747E-04
 -1       116-1.01078E-03 6.31661E-27 5.23128E-06-8.22256E-14-1.38335E-14-1.34747E-04
 -1       117-1.01726E-03-2.91580E-26 2.58041E-05 9.15414E-15-2.73516E-15-4.41557E-05
 -1       118-1.01726E-03-2.91579E-26 2.58041E-05 9.15403E-15-2.73516E-15-4.41557E-05
 -1       119-9.13933E-04 1.91266E-25 1.09586E-06-3.29468E-13 2.63876E-14-8.07215E-06
 -1       120-9.13933E-04 1.91266E-25 1.09586E-06-3.29468E-13 2.63876E-14-8.07215E-06
 -1       121-9.47447E-04 4.68054E-26-1.49229E-05-1.57556E-13 8.34293E-14-6.76613E-05
 -1       122-9.47447E-04 4.68053E-26-1.49229E-05-1.57556E-13 8.34293E-14-6.76613E-05
 -1       123-7.11826E-04 2.72571E-26 1.23344E-05 6.49739E-14 1.26444E-13-2.11788E-04
 -1       124-7.11826E-04 2.72572E-26 1.23344E-05 6.49739E-14 1.26444E-13-2.11788E-04
 -1       125-3.53261E-04 9.05281E-26 3.26192E-05 1.97707E-13 1.14449E-13-2.31490E-04
 -1       126-3.53261E-04 9.05280E-26 3.26192E-05 1.97707E-13 1.14449E-13-2.31490E-04
 -3
    1PSTEP                         4           1           1          
  100CL  101 1.00000E-02         126                     1    1           1
 -4  ERROR       1    1
 -5  STR(%)      1    1    0    0
 -1         1 4.74206E+01
 -1         2 4.74206E+01
 -1         3 4.74206E+01
 -1         4 4.74206E+01
 -1         5 4.74206E+01
 -1         6 4.74206E+01
 -1         7 4.74206E+01
 -1         8 4.74206E+01
 -1         9 1.49876E+01
 -1        10 1.49876E+01
 -1        11 1.49876E+01
 -1        12 1.49876E+01
 -1        13 3.86400E+00
 -1        14 3.86400E+00
 -1        15 3.86400E+00
 -1        16 3.86400E+00
 -1        17 3.21797E+00
 -1        18 3.21797E+00
 -1        19 3.21797E+00
 -1        20 3.21797E+00
 -1        21 4.43540E+00
 -1        22 4.43540E+00
 -1        23 4.43540E+00
 -1        24 4.43540E+00
 -1        25 5.49956E+00
 -1        26 5.49956E+00
 -1        27 5.49956E+00
 -1        28 5.49956E+00
 -1        29 5.49956E+00
 -1        30 5.49956E+00
 -1        31 5.49956E+00
 -1        32 5.49956E+00
 -1        33 3.64991E+00
 -1        34 3.64991E+00
 -1        35 3.64991E+00
 -1        36 3.64991E+00
 -1        37 4.12578E+00
 -1        38 4.12578E+00
 -1        39 4.12578E+00
 -1        40 4.12578E+00
 -1        41 6.46351E+00
 -1        42 6.46351E+00
 -1        43 6.46351E+00
 -1        44 6.46351E+00
 -1        45 6.46351E+00
 -1        46 6.46351E+00
 -1        47 6.46351E+00
 -1        48 6.46351E+00
 -1        49 4.01747E+00
 -1        50 4.01747E+00
 -1        51 4.01747E+00
 -1        52 4.01747E+00
 -1        53 4.01747E+00
 -1        54 4.01747E+00
 -1        55 4.01747E+00
 -1        56 4.01747E+00
 -1        57 7.31139E+00
 -1        58 7.31139E+00
 -1        59 7.31139E+00
 -1        60 7.31139E+00
 -1        61 7.31139E+00
 -1        62 7.31139E+00
 -1        63 7.31139E+00
 -1        64 7.31139E+00
 -1        65 3.51032E+00
 -1        66 3.51032E+00
 -1        67 3.51032E+00
 -1        68 3.51032E+00
 -1        69 7.58950E+00
 -1        70 7.58950E+00
 -1        71 7.58950E+00
 -1        72 7.58950E+00
 -1        73 7.58950E+00
 -1        74 7.58950E+00
 -1        75 7.58950E+00
 -1        76 7.58950E+00
 -1        77 2.23378E+01
 -1        78 2.22954E+01
 -1        79 2.23378E+01
 -1        80 2.22954E+01
 -1        81 2.23378E+01
 -1        82 2.22954E+01
 -1        83 2.23378E+01
 -1        84 2.22954E+01
 -1        85 2.91640E+01
 -1        86 2.91640E+01
 -1        87 2.91640E+01
 -1        88 2.91640E+01
 -1        89 5.70428E+00
 -1        90 5.70428E+00
 -1        91 3.67097E+00
 -1        92 3.67097E+00
 -1        93 1.16256E+00
 -1        94 1.16256E+00
 -1        95 4.29963E+00
 -1        96 4.29963E+00
 -1        97 4.78599E+00
 -1        98 4.78599E+00
 -1        99 4.78599E+00
 -1       100 4.78599E+00
 -1       101 1.50813E+00
 -1       102 1.50813E+00
 -1       103 4.07608E+00
 -1       104 4.07608E+00
 -1       105 5.16449E+00
 -1       106 5.16449E+00
 -1       107 5.16449E+00
 -1       108 5.16449E+00
 -1       109 1.64287E+00
 -1       110 1.64287E+00
 -1       111 3.67108E+00
 -1       112 3.67108E+00
 -1       113 6.69936E+00
 -1       114 6.69936E+00
 -1       115 6.69936E+00
 -1       116 6.69936E+00
 -1       117 1.97011E+00
 -1       118 1.97011E+00
 -1       119 1.97011E+00
 -1       120 1.97011E+00
 -1       121 6.12740E+00
 -1       122 6.12740E+00
 -1       123 2.23378E+01
 -1       124 2.23378E+01
 -1       125 2.23378E+01
 -1       126 2.23378E+01
 -3
    1PSTEP                         5           2           1          
  100CL  102 2.00000E-02         126                     1    2           1
 -4  DISP        4    1
 -5  D1          1    2    1    0
 -5  D2          1    2    2    0
 -5  D3          1    2    3    0
 -5  ALL         1    2    0    0    1ALL
 -1         1 0.00000E+00 0.00000E+00 0.00000E+00
 -1         2 0.00000E+00 0.00000E+00 0.00000E+00
 -1         3 4.59388E-04 0.00000E+00-8.41620E-06
 -1         4 4.82178E-04 0.00000E+00-1.54846E-04
 -1         5 0.00000E+00 0.00000E+00 0.00000E+00
 -1         6 0.00000E+00 0.00000E+00 0.00000E+00
 -1         7 4.59388E-04 0.00000E+00-8.41620E-06
 -1         8 4.82178E-04 0.00000E+00-1.54846E-04
 -1         9 7.38118E-04 0.00000E+00-3.58186E-06
 -1        10 7.14897E-04 0.00000E+00-1.11844E-04
 -1        11 7.38118E-04 0.00000E+00-3.58186E-06
 -1        12 7.14897E-04 0.00000E+00-1.11844E-04
 -1        13 7.82601E-04 0.00000E+00-2.02309E-07
 -1        14 7.70560E-04 0.00000E+00-3.88417E-05
 -1        15 7.82601E-04 0.00000E+00-2.02309E-07
 -1        16 7.70560E-04 0.00000E+00-3.88417E-05
 -1        17 7.69358E-04 0.00000E+00-5.12658E-07
 -1        18 7.66903E-04 0.00000E+00-7.95195E-06
 -1        19 7.69358E-04 0.00000E+00-5.12658E-07
 -1        20 7.66903E-04 0.00000E+00-7.95195E-06
 -1        21 7.66306E-04 0.00000E+00-1.04957E-06
 -1        22 7.63825E-04 0.00000E+00 2.04686E-07
 -1        23 7.66306E-04 0.00000E+00-1.04957E-06
 -1        24 7.63825E-04 0.00000E+00 2.04687E-07
 -1        25 7.69601E-04 0.00000E+00 7.40724E-07
 -1        26 7.67904E-04 0.00000E+00 8.57075E-06
 -1        27 7.69601E-04 0.00000E+00 7.40724E-07
 -1        28 7.67904E-04 0.00000E+00 8.57075E-06
 -1        29 7.42265E-04 0.00000E+00 2.34424E-06
 -1        30 7.41970E-04 0.00000E+00 1.46036E-05
 -1        31 7.42265E-04 0.00000E+00 2.34424E-06
 -1        32 7.41970E-04 0.00000E+00 1.46036E-05
 -1        33 7.20312E-04 0.00000E+00 1.43617E-06
 -1        34 7.23853E-04 0.00000E+00 1.14272E-05
 -1        35 7.20312E-04 0.00000E+00 1.43617E-06
 -1        36 7.23853E-04 0.00000E+00 1.14272E-05
 -1        37 7.17817E-04 0.00000E+00 7.71270E-07
 -1        38 7.18249E-04 0.00000E+00 8.71152E-06
 -1        39 7.17817E-04 0.00000E+00 7.71270E-07
 -1        40 7.18249E-04 0.00000E+00 8.71152E-06
 -1        41 7.17695E-04 0.00000E+00 2.49840E-06
 -1        42 7.19194E-04 0.00000E+00 1.50893E-05
 -1        43 7.17695E-04 0.00000E+00 2.49840E-06
 -1        44 7.19194E-04 0.00000E+00 1.50893E-05
 -1        45 6.85620E-04 0.00000E+00 4.17324E-06
 -1        46 6.88368E-04 0.00000E+00 2.15472E-05
 -1        47 6.85620E-04 0.00000E+00 4.17324E-06
 -1        48 6.88368E-04 0.00000E+00 2.15472E-05
 -1        49 6.57324E-04 0.00000E+00 3.86285E-06
 -1        50 6.64257E-04 0.00000E+00 1.99010E-05
 -1        51 6.57324E-04 0.00000E+00 3.86285E-06
 -1        52 6.64257E-04 0.00000E+00 1.99010E-05
 -1        53 6.45899E-04 0.00000E+00 4.37583E-06
 -1        54 6.50346E-04 0.00000E+00 1.89198E-05
 -1        55 6.45899E-04 0.00000E+00 4.37583E-06
 -1        56 6.50346E-04 0.00000E+00 1.89198E-05
 -1        57 6.35335E-04 0.00000E+00 7.32627E-06
 -1        58 6.43591E-04 0.00000E+00 2.62739E-05
 -1        59 6.35335E-04 0.00000E+00 7.32627E-06
 -1        60 6.43591E-04 0.00000E+00 2.62739E-05
 -1        61 5.96007E-04 0.00000E+00 1.09077E-05
 -1        62 6.05491E-04 0.00000E+00 3.37400E-05
 -1        63 5.96007E-04 0.00000E+00 1.09077E-05
 -1        64 6.05491E-04 0.00000E+00 3.37400E-05
 -1        65 5.62293E-04 0.00000E+00 1.43462E-05
 -1        66 5.77417E-04 0.00000E+00 3.49141E-05
 -1        67 5.62293E-04 0.00000E+00 1.43462E-05
 -1        68 5.77417E-04 0.00000E+00 3.49141E-05
 -1        69 5.45567E-04 0.00000E+00 2.11345E-05
 -1        70 5.59797E-04 0.00000E+00 3.92620E-05
 -1        71 5.45567E-04 0.00000E+00 2.11345E-05
 -1        72 5.59797E-04 0.00000E+00 3.92620E-05
 -1        73 5.29999E-04 0.00000E+00 3.12428E-05
 -1        74 5.56300E-04 0.00000E+00 5.67645E-05
 -1        75 5.29999E-04 0.00000E+00 3.12428E-05
 -1        76 5.56300E-04 0.00000E+00 5.67645E-05
 -1        77 4.77027E-04 0.00000E+00 4.59830E-05
 -1        78 5.10924E-04 0.00000E+00 8.18487E-05
 -1        79 4.77027E-04 0.00000E+00 4.59830E-05
 -1        80 5.10924E-04 0.00000E+00 8.18487E-05
 -1        81 4.16493E-04 0.00000E+00 8.60627E-05
 -1        82 4.32572E-04 0.00000E+00 9.85737E-05
 -1        83 4.16493E-04 0.00000E+00 8.60627E-05
 -1        84 4.32572E-04 0.00000E+00 9.85737E-05
 -1        85 0.00000E+00 0.00000E+00 0.00000E+00
 -1        86 5.19654E-04 0.00000E+00 1.47943E-04
 -1        87 0.00000E+00 0.00000E+00 0.00000E+00
 -1        88 5.19654E-04 0.00000E+00 1.47943E-04
 -1        89 7.59093E-04 0.00000E+00 1.05228E-04
 -1        90 7.59093E-04 0.00000E+00 1.05228E-04
 -1        91 8.05011E-04 0.00000E+00 3.53961E-05
 -1        92 8.05011E-04 0.00000E+00 3.53961E-05
 -1        93 7.98539E-04 0.00000E+00 6.53277E-06
 -1        94 7.98539E-04 0.00000E+00 6.53277E-06
 -1        95 7.96988E-04 0.00000E+00-5.03376E-07
 -1        96 7.96988E-04 0.00000E+00-5.03377E-07
 -1        97 8.06784E-04 0.00000E+00-7.63995E-06
 -1        98 8.06784E-04 0.00000E+00-7.63995E-06
 -1        99 7.73072E-04 0.00000E+00-1.26572E-05
 -1       100 7.73072E-04 0.00000E+00-1.26572E-05
 -1       101 7.52171E-04 0.00000E+00-9.05014E-06
 -1       102 7.52171E-04 0.00000E+00-9.05014E-06
 -1       103 7.47777E-04 0.00000E+00-5.89858E-06
 -1       104 7.47777E-04 0.00000E+00-5.89858E-06
 -1       105 7.52454E-04 0.00000E+00-1.11378E-05
 -1       106 7.52454E-04 0.00000E+00-1.11378E-05
 -1       107 7.13747E-04 0.00000E+00-1.61723E-05
 -1       108 7.13747E-04 0.00000E+00-1.61723E-05
 -1       109 6.86238E-04 0.00000E+00-1.31215E-05
 -1       110 6.86238E-04 0.00000E+00-1.31215E-05
 -1       111 6.72650E-04 0.00000E+00-1.01094E-05
 -1       112 6.72650E-04 0.00000E+00-1.01094E-05
 -1       113 6.65439E-04 0.00000E+00-1.37524E-05
 -1       114 6.65439E-04 0.00000E+00-1.37524E-05
 -1       115 6.19450E-04 0.00000E+00-1.56974E-05
 -1       116 6.19450E-04 0.00000E+00-1.56974E-05
 -1       117 5.85792E-04 0.00000E+00-9.04524E-06
 -1       118 5.85792E-04 0.00000E+00-9.04524E-06
 -1       119 5.65406E-04 0.00000E+00-2.11215E-06
 -1       120 5.65406E-04 0.00000E+00-2.11215E-06
 -1       121 5.45019E-04 0.00000E+00-1.77351E-06
 -1       122 5.45019E-04 0.00000E+00-1.77351E-06
 -1       123 4.91235E-04 0.00000E+00 4.58525E-06
 -1       124 4.91235E-04 0.00000E+00 4.58525E-06
 -1       125 4.16564E-04 0.00000E+00 1.98700E-05
 -1       126 4.16564E-04 0.00000E+00 1.98700E-05
 -3
    1PSTEP                         6           2           1          
  100CL  102 2.00000E-02         126                     1    2           1
 -4  STRESS      6    1
 -5  SXX         1    4    1    1
 -5  SYY         1    4    2    2
 -5  SZZ         1    4    3    3
 -5  SXY         1    4    1    2
 -5  SYZ         1    4    2    3
 -5  SZX         1    4    3    1
 -1         1-6.76721E+02-7.05006E+02-1.63660E+03-1.28558E-10 2.37972E-10 1.46799E+03
 -1         2-3.53682E+00-2.91033E+01-6.97917E+01 4.95337E-11 2.03771E-10 1.41260E+03
 -1         3-1.89661E+02-8.71219E+01-9.43302E+01 4.04473E-07-1.46232E-08 6.69023E+02
 -1         4 6.96810E+00-1.45673E+02-4.81098E+02 4.79370E-07-6.19746E-08 6.44365E+02
 -1         5-6.76721E+02-7.05006E+02-1.63660E+03-1.28558E-10 2.37972E-10 1.46799E+03
 -1         6-3.53682E+00-2.91033E+01-6.97917E+01 4.95346E-11 2.03771E-10 1.41260E+03
 -1         7-1.89661E+02-8.71219E+01-9.43302E+01 4.04473E-07-1.46232E-08 6.69023E+02
 -1         8 6.96810E+00-1.45673E+02-4.81098E+02 4.79370E-07-6.19746E-08 6.44365E+02
 -1         9-2.13112E+02-8.06553E+01-5.39334E+01 3.82740E-07-3.41663E-08 1.63346E+02
 -1        10 2.18641E+01 1.62445E+02 5.21637E+02 3.96484E-07 1.51515E-08 1.11163E+02
 -1        11-2.13112E+02-8.06553E+01-5.39334E+01 3.82740E-07-3.41663E-08 1.63346E+02
 -1        12 2.18641E+01 1.62445E+02 5.21637E+02 3.96484E-07 1.51515E-08 1.11163E+02
 -1        13-1.78081E+02-7.23117E+01-6.29500E+01 1.91386E-07-4.08035E-08-6.60590E+01
 -1        14 1.10320E+02 1.84278E+02 5.04976E+02 1.99772E-07 1.84853E-08-3.87476E+01
 -1        15-1.78081E+02-7.23117E+01-6.29500E+01 1.91386E-07-4.08035E-08-6.60590E+01
 -1        16 1.10320E+02 1.84278E+02 5.04976E+02 1.99772E-07 1.84853E-08-3.87476E+01
 -1        17-1.72134E+02-7.49712E+01-7.75978E+01 2.52503E-07-6.31406E-08-4.73076E+01
 -1        18 6.36611E+01 7.87659E+01 1.99059E+02 2.82351E-07 3.59926E-08-3.32929E+01
 -1        19-1.72134E+02-7.49712E+01-7.75978E+01 2.52503E-07-6.31406E-08-4.73076E+01
 -1        20 6.36611E+01 7.87659E+01 1.99059E+02 2.82351E-07 3.59926E-08-3.32929E+01
 -1        21-1.75513E+02-7.36529E+01-6.98008E+01 9.33895E-08-4.89396E-08 1.46755E+00
 -1        22 1.14098E+01 2.66772E+01 7.75352E+01 3.54747E-08 1.12330E-07 5.40101E+00
 -1        23-1.75513E+02-7.36529E+01-6.98008E+01 9.33895E-08-4.89396E-08 1.46755E+00
 -1        24 1.14098E+01 2.66772E+01 7.75352E+01 3.54747E-08 1.12330E-07 5.40101E+00
 -1        25-2.01226E+02-8.18919E+01-7.14352E+01-2.73170E-07-2.14754E-08-1.20477E+01
 -1        26 1.50056E+01 2.54133E+01 6.97509E+01-3.39654E-07 1.24934E-07-9.53523E+00
 -1        27-2.01226E+02-8.18919E+01-7.14352E+01-2.73170E-07-2.14754E-08-1.20477E+01
 -1        28 1.50056E+01 2.54133E+01 6.97509E+01-3.39653E-07 1.24934E-07-9.53523E+00
 -1        29-1.65627E+02-7.01508E+01-6.79931E+01-4.04265E-07 2.49038E-08-3.38820E+01
 -1        30 3.47970E+00 5.25874E+00 1.40710E+01-4.86454E-07 3.46639E-08-3.00568E+01
 -1        31-1.65627E+02-7.01508E+01-6.79931E+01-4.04265E-07 2.49038E-08-3.38820E+01
 -1        32 3.47970E+00 5.25874E+00 1.40710E+01-4.86454E-07 3.46639E-08-3.00568E+01
 -1        33-1.55904E+02-6.89859E+01-7.38132E+01-2.81006E-07 4.27840E-08-6.11352E+00
 -1        34 2.45606E+01 2.75725E+00-1.53608E+01-2.80809E-07-3.56946E-08-5.74689E+00
 -1        35-1.55904E+02-6.89859E+01-7.38132E+01-2.81006E-07 4.27840E-08-6.11352E+00
 -1        36 2.45606E+01 2.75725E+00-1.53608E+01-2.80809E-07-3.56946E-08-5.74689E+00
 -1        37-1.56390E+02-6.57044E+01-6.24323E+01-1.57504E-07-7.05981E-09 1.84326E+01
 -1        38 1.31160E+01 1.04502E+01 2.17323E+01-9.94530E-08-5.88407E-08 1.72679E+01
 -1        39-1.56390E+02-6.57044E+01-6.24323E+01-1.57504E-07-7.05981E-09 1.84326E+01
 -1        40 1.31160E+01 1.04502E+01 2.17323E+01-9.94530E-08-5.88407E-08 1.72679E+01
 -1        41-1.70960E+02-6.88922E+01-5.84017E+01-4.94152E-08-4.84287E-08-9.19430E+00
 -1        42 4.58333E+01 3.65633E+01 7.60961E+01-8.67459E-08-2.59822E-08-7.23830E+00
 -1        43-1.70960E+02-6.88922E+01-5.84017E+01-4.94153E-08-4.84287E-08-9.19430E+00
 -1        44 4.58333E+01 3.65633E+01 7.60961E+01-8.67459E-08-2.59822E-08-7.23830E+00
 -1        45-1.33251E+02-5.53745E+01-5.11479E+01-1.12476E-07-1.21652E-08-3.48480E+01
 -1        46 4.07970E+01 2.38318E+01 3.86696E+01-1.97326E-07 2.42341E-08-3.10703E+01
 -1        47-1.33251E+02-5.53745E+01-5.11479E+01-1.12476E-07-1.21652E-08-3.48480E+01
 -1        48 4.07970E+01 2.38318E+01 3.86696E+01-1.97327E-07 2.42341E-08-3.10703E+01
 -1        49-1.17676E+02-5.02417E+01-4.95971E+01-2.01034E-07 5.24359E-08-1.03118E+01
 -1        50 6.86709E+01 2.59644E+01 1.78983E+01-2.70555E-07 3.09227E-08-9.14002E+00
 -1        51-1.17676E+02-5.02417E+01-4.95971E+01-2.01034E-07 5.24359E-08-1.03118E+01
 -1        52 6.86709E+01 2.59644E+01 1.78983E+01-2.70555E-07 3.09227E-08-9.14002E+00
 -1        53-1.11958E+02-4.34750E+01-3.28061E+01-1.58132E-07 4.06622E-08 1.08149E+01
 -1        54 6.26247E+01 3.52417E+01 5.48749E+01-1.16852E-07 1.69983E-08 1.29648E+01
 -1        55-1.11958E+02-4.34750E+01-3.28061E+01-1.58131E-07 4.06622E-08 1.08149E+01
 -1        56 6.26247E+01 3.52417E+01 5.48749E+01-1.16852E-07 1.69983E-08 1.29648E+01
 -1        57-1.02284E+02-3.53033E+01-1.51676E+01-1.53440E-07-4.89029E-09-1.51960E+01
 -1        58 1.23225E+02 7.23341E+01 1.17994E+02-1.43038E-07 8.62735E-09-1.07166E+01
 -1        59-1.02284E+02-3.53033E+01-1.51676E+01-1.53440E-07-4.89029E-09-1.51960E+01
 -1        60 1.23225E+02 7.23341E+01 1.17994E+02-1.43038E-07 8.62735E-09-1.07166E+01
 -1        61-5.86729E+01-1.59320E+01 5.71554E+00-1.60390E-07-1.39352E-08-3.63326E+01
 -1        62 1.22247E+02 6.37729E+01 9.04093E+01-1.82772E-07 1.29884E-08-3.15705E+01
 -1        63-5.86729E+01-1.59320E+01 5.71554E+00-1.60390E-07-1.39352E-08-3.63326E+01
 -1        64 1.22247E+02 6.37729E+01 9.04093E+01-1.82772E-07 1.29884E-08-3.15705E+01
 -1        65-2.12628E+01 4.31372E+00 3.58235E+01-2.00541E-07 1.00517E-08-9.98683E+00
 -1        66 1.75761E+02 8.25702E+01 9.95937E+01-2.08986E-07 4.95747E-09-7.00096E+00
 -1        67-2.12628E+01 4.31372E+00 3.58235E+01-2.00541E-07 1.00517E-08-9.98683E+00
 -1        68 1.75761E+02 8.25702E+01 9.95937E+01-2.08986E-07 4.95747E-09-7.00096E+00
 -1        69 8.93078E+00 2.60666E+01 7.81049E+01-2.13013E-07 2.05316E-08 1.39488E+01
 -1        70 2.03738E+02 1.16076E+02 1.83398E+02-1.96137E-07-3.26769E-08 2.33317E+01
 -1        71 8.93078E+00 2.60666E+01 7.81049E+01-2.13013E-07 2.05316E-08 1.39488E+01
 -1        72 2.03738E+02 1.16076E+02 1.83398E+02-1.96137E-07-3.26769E-08 2.33317E+01
 -1        73 1.18432E+02 8.34395E+01 1.60027E+02-1.31054E-07 2.29542E-09-1.54472E+01
 -1        74 3.81790E+02 2.19576E+02 3.50875E+02-1.00691E-07-9.30423E-08 3.33313E+00
 -1        75 1.18432E+02 8.34395E+01 1.60027E+02-1.31054E-07 2.29542E-09-1.54472E+01
 -1        76 3.81790E+02 2.19576E+02 3.50875E+02-1.00691E-07-9.30423E-08 3.33313E+00
 -1        77 2.33086E+02 1.72034E+02 3.41144E+02 2.61134E-08 2.40517E-08-5.59712E+01
 -1        78 4.62318E+02 2.52966E+02 3.81924E+02-2.87557E-08-1.88260E-07-8.02166E+01
 -1        79 2.33086E+02 1.72034E+02 3.41144E+02 2.61134E-08 2.40517E-08-5.59712E+01
 -1        80 4.62318E+02 2.52966E+02 3.81924E+02-2.87559E-08-1.88260E-07-8.02166E+01
 -1        81 2.71646E+02 2.22053E+02 4.69465E+02 3.30332E-07 3.29485E-08-6.55315E+01
 -1        82 2.51280E+02 1.51611E+02 2.54876E+02 4.59740E-07-2.75258E-07-2.03011E+02
 -1        83 2.71646E+02 2.22053E+02 4.69465E+02 3.30332E-07 3.29486E-08-6.55315E+01
 -1        84 2.51280E+02 1.51611E+02 2.54876E+02 4.59740E-07-2.75258E-07-2.03011E+02
 -1        85 7.26990E+02 6.94223E+02 1.62740E+03 1.80412E-10 1.76301E-10 1.61508E+03
 -1        86-3.82514E+02-2.67735E+01 3.05900E+02 3.33382E-07 3.72006E-08 6.90830E+02
 -1        87 7.26990E+02 6.94223E+02 1.62740E+03 1.80405E-10 1.76301E-10 1.61508E+03
 -1        88-3.82514E+02-2.67735E+01 3.05900E+02 3.33382E-07 3.72006E-08 6.90830E+02
 -1        89-4.81461E+02-3.54993E+02-6.98926E+02 3.86907E-07-6.59299E-08 1.03676E+02
 -1        90-4.81461E+02-3.54993E+02-6.98926E+02 3.86907E-07-6.59299E-08 1.03676E+02
 -1        91-4.68983E+02-3.31428E+02-6.34093E+02 1.47102E-07-9.38838E-08-4.87850E+01
 -1        92-4.68983E+02-3.31428E+02-6.34093E+02 1.47102E-07-9.38838E-08-4.87850E+01
 -1        93-3.96891E+02-2.17672E+02-3.27959E+02 2.61458E-07-1.13063E-07-3.39092E+01
 -1        94-3.96891E+02-2.17672E+02-3.27959E+02 2.61458E-07-1.13063E-07-3.39092E+01
 -1        95-3.62823E+02-1.74388E+02-2.17966E+02 1.32889E-07-1.76684E-07 1.09848E+01
 -1        96-3.62823E+02-1.74388E+02-2.17966E+02 1.32888E-07-1.76684E-07 1.09848E+01
 -1        97-4.27943E+02-1.99726E+02-2.37065E+02-2.29097E-07-1.42233E-07-1.10008E+01
 -1        98-4.27943E+02-1.99726E+02-2.37065E+02-2.29097E-07-1.42233E-07-1.10008E+01
 -1        99-3.34603E+02-1.45438E+02-1.49745E+02-3.22598E-07-1.78907E-08-3.78233E+01
 -1       100-3.34603E+02-1.45438E+02-1.49745E+02-3.22597E-07-1.78907E-08-3.78233E+01
 -1       101-3.27105E+02-1.31448E+02-1.10645E+02-2.84049E-07 6.03296E-08-6.66342E+00
 -1       102-3.27105E+02-1.31448E+02-1.10645E+02-2.84049E-07 6.03296E-08-6.66342E+00
 -1       103-3.27167E+02-1.43137E+02-1.49548E+02-1.93642E-07 6.02272E-08 2.09103E+01
 -1       104-3.27167E+02-1.43137E+02-1.49548E+02-1.93642E-07 6.02272E-08 2.09103E+01
 -1       105-3.97540E+02-1.84175E+02-2.15729E+02-6.64555E-08 8.81792E-09-1.04008E+01
 -1       106-3.97540E+02-1.84175E+02-2.15729E+02-6.64555E-08 8.81792E-09-1.04008E+01
 -1       107-3.07070E+02-1.34361E+02-1.40421E+02-6.01822E-09-2.22581E-08-3.92401E+01
 -1       108-3.07070E+02-1.34361E+02-1.40421E+02-6.01860E-09-2.22581E-08-3.92401E+01
 -1       109-2.97031E+02-1.19441E+02-1.00768E+02-1.64513E-07 2.02836E-09-1.09855E+01
 -1       110-2.97031E+02-1.19441E+02-1.00768E+02-1.64513E-07 2.02836E-09-1.09855E+01
 -1       111-2.89283E+02-1.24939E+02-1.26863E+02-1.86113E-07 2.30295E-08 1.25283E+01
 -1       112-2.89283E+02-1.24939E+02-1.26863E+02-1.86113E-07 2.30295E-08 1.25283E+01
 -1       113-3.36633E+02-1.51817E+02-1.68953E+02-1.80890E-07 9.20823E-09-1.69993E+01
 -1       114-3.36633E+02-1.51817E+02-1.68953E+02-1.80890E-07 9.20823E-09-1.69993E+01
 -1       115-2.41187E+02-9.72397E+01-8.26964E+01-1.53469E-07-7.37890E-09-4.06666E+01
 -1       116-2.41187E+02-9.72397E+01-8.26964E+01-1.53469E-07-7.37890E-09-4.06666E+01
 -1       117-2.21399E+02-7.70400E+01-3.51967E+01-1.64845E-07 5.22350E-09-1.12057E+01
 -1       118-2.21399E+02-7.70400E+01-3.51967E+01-1.64845E-07 5.22350E-09-1.12057E+01
 -1       119-1.96664E+02-7.47451E+01-5.23379E+01-2.24347E-07 5.17436E-08 8.75833E+00
 -1       120-1.96664E+02-7.47451E+01-5.23379E+01-2.24347E-07 5.17436E-08 8.75833E+00
 -1       121-1.45973E+02-5.37426E+01-3.30542E+01-1.22532E-07 1.15745E-07-1.25646E+01
 -1       122-1.45973E+02-5.37426E+01-3.30542E+01-1.22532E-07 1.15745E-07-1.25646E+01
 -1       123-1.02421E+02-1.53427E+01 5.14048E+01 5.96911E-08 1.74949E-07-7.03344E+01
 -1       124-1.02421E+02-1.53427E+01 5.14048E+01 5.96911E-08 1.74949E-07-7.03344E+01
 -1       125 7.05547E+01 7.06636E+01 1.65025E+02 2.72204E-07 1.91441E-07-2.62000E+01
 -1       126 7.05547E+01 7.06636E+01 1.65025E+02 2.72204E-07 1.91441E-07-2.62000E+01
 -3
    1PSTEP                         7           2           1          
  100CL  102 2.00000E-02         126                     1    2           1
 -4  TOSTRAIN    6    1
 -5  EXX         1    4    1    1
 -5  EYY         1    4    2    2
 -5  EZZ         1    4    3    3
 -5  EXY         1    4    1    2
 -5  EYZ         1    4    2    3
 -5  EZX         1    4    3    1
 -1         1-7.39779E-07-8.19192E-25-3.04629E-03-2.44146E-16 1.71789E-18 4.82162E-03
 -1         2-8.27751E-07-5.73571E-25-1.26933E-04 3.28754E-17 6.12454E-19 4.59372E-03
 -1         3-3.70220E-04 3.15673E-24-7.41471E-06 1.31550E-12-4.38473E-14 2.17521E-03
 -1         4 4.59762E-04 4.48604E-24-1.08759E-03 1.55922E-12-1.97511E-13 2.11335E-03
 -1         5-7.39779E-07-8.19192E-25-3.04629E-03-2.44146E-16 1.71789E-18 4.82162E-03
 -1         6-8.27751E-07-5.73571E-25-1.26933E-04 3.28784E-17 6.12438E-19 4.59372E-03
 -1         7-3.70220E-04 3.15673E-24-7.41471E-06 1.31550E-12-4.38473E-14 2.17521E-03
 -1         8 4.59762E-04 4.48604E-24-1.08759E-03 1.55922E-12-1.97511E-13 2.11335E-03
 -1         9-4.39637E-04 3.05860E-24 8.99592E-05 1.24501E-12-1.08390E-13 5.29884E-04
 -1        10-4.62095E-04 3.23266E-24 1.16632E-03 1.28857E-12 5.18982E-14 3.57347E-04
 -1        11-4.39637E-04 3.05860E-24 8.99592E-05 1.24501E-12-1.08390E-13 5.29884E-04
 -1        12-4.62095E-04 3.23266E-24 1.16632E-03 1.28857E-12 5.18982E-14 3.57347E-04
 -1        13-3.44250E-04 7.24203E-25 3.08052E-05 6.22361E-13-1.32184E-13-2.15044E-04
 -1        14-2.40579E-04 7.57711E-25 1.03973E-03 6.49120E-13 6.04807E-14-1.26818E-04
 -1        15-3.44250E-04 7.24202E-25 3.08052E-05 6.22361E-13-1.32184E-13-2.15044E-04
 -1        16-2.40579E-04 7.57711E-25 1.03973E-03 6.49120E-13 6.04807E-14-1.26818E-04
 -1        17-3.16261E-04 1.36048E-24-8.47126E-06 8.20997E-13-2.05097E-13-1.53864E-04
 -1        18-4.90911E-05 1.54780E-24 3.90540E-04 9.17551E-13 1.17081E-13-1.08090E-04
 -1        19-3.16261E-04 1.36048E-24-8.47126E-06 8.20997E-13-2.05097E-13-1.53864E-04
 -1        20-4.90911E-05 1.54781E-24 3.90540E-04 9.17551E-13 1.17081E-13-1.08090E-04
 -1        21-3.31519E-04-1.28610E-25 1.25333E-05 3.03671E-13-1.59083E-13 4.75899E-06
 -1        22-4.96265E-05-1.72529E-25 1.65237E-04 1.15284E-13 3.64983E-13 1.75501E-05
 -1        23-3.31519E-04-1.28610E-25 1.25333E-05 3.03671E-13-1.59083E-13 4.75899E-06
 -1        24-4.96265E-05-1.72529E-25 1.65237E-04 1.15284E-13 3.64983E-13 1.75501E-05
 -1        25-3.88629E-04 1.24621E-24 3.40113E-05-8.88320E-13-6.96660E-14-3.91024E-05
 -1        26-3.39287E-05 2.38100E-24 1.44063E-04-1.10377E-12 4.06124E-13-3.09585E-05
 -1        27-3.88629E-04 1.24621E-24 3.40113E-05-8.88320E-13-6.96660E-14-3.91024E-05
 -1        28-3.39287E-05 2.38100E-24 1.44063E-04-1.10377E-12 4.06124E-13-3.09585E-05
 -1        29-3.10879E-04 3.39018E-24 7.07618E-06-1.31443E-12 8.13020E-14-1.10059E-04
 -1        30-5.87210E-06 4.87465E-24 2.86676E-05-1.58091E-12 1.13034E-13-9.76549E-05
 -1        31-3.10879E-04 3.39018E-24 7.07618E-06-1.31443E-12 8.13020E-14-1.10059E-04
 -1        32-5.87211E-06 4.87465E-24 2.86676E-05-1.58091E-12 1.13034E-13-9.76549E-05
 -1        33-2.83044E-04 1.64403E-24-1.56811E-05-9.13631E-13 1.39256E-13-1.98218E-05
 -1        34 7.08288E-05 1.53407E-24-5.88817E-05-9.12586E-13-1.15834E-13-1.87065E-05
 -1        35-2.83044E-04 1.64403E-24-1.56811E-05-9.13631E-13 1.39256E-13-1.98218E-05
 -1        36 7.08288E-05 1.53407E-24-5.88817E-05-9.12587E-13-1.15834E-13-1.87065E-05
 -1        37-2.95169E-04 4.53377E-25 1.06219E-05-5.12115E-13-2.28722E-14 5.99655E-05
 -1        38 8.66570E-06 2.05126E-25 3.66278E-05-3.23224E-13-1.91172E-13 5.61083E-05
 -1        39-2.95169E-04 4.53377E-25 1.06219E-05-5.12115E-13-2.28722E-14 5.99655E-05
 -1        40 8.66570E-06 2.05126E-25 3.66278E-05-3.23225E-13-1.91172E-13 5.61083E-05
 -1        41-3.32436E-04 6.41682E-26 3.41204E-05-1.60731E-13-1.57370E-13-2.97891E-05
 -1        42 3.00088E-05 1.43393E-25 1.28456E-04-2.81920E-13-8.43542E-14-2.34863E-05
 -1        43-3.32436E-04 6.41686E-26 3.41204E-05-1.60732E-13-1.57370E-13-2.97891E-05
 -1        44 3.00088E-05 1.43393E-25 1.28456E-04-2.81920E-13-8.43542E-14-2.34863E-05
 -1        45-2.53631E-04 2.09895E-25 1.38259E-05-3.65712E-13-3.94026E-14-1.13173E-04
 -1        46 5.50147E-05 7.71028E-25 4.82722E-05-6.41202E-13 7.89748E-14-1.00946E-04
 -1        47-2.53631E-04 2.09894E-25 1.38259E-05-3.65711E-13-3.94026E-14-1.13173E-04
 -1        48 5.50146E-05 7.71028E-25 4.82722E-05-6.41203E-13 7.89748E-14-1.00946E-04
 -1        49-2.19657E-04 8.76086E-25 2.11823E-06-6.53507E-13 1.70651E-13-3.34477E-05
 -1        50 1.38720E-04 1.50027E-24-2.61953E-05-8.79100E-13 1.00778E-13-2.97559E-05
 -1        51-2.19657E-04 8.76086E-25 2.11823E-06-6.53507E-13 1.70651E-13-3.34477E-05
 -1        52 1.38720E-04 1.50027E-24-2.61953E-05-8.79101E-13 1.00778E-13-2.97559E-05
 -1        53-2.22917E-04 5.53739E-25 3.46572E-05-5.14062E-13 1.32309E-13 3.52294E-05
 -1        54 8.89869E-05 2.47492E-25 6.37558E-05-3.79699E-13 5.53447E-14 4.21052E-05
 -1        55-2.22917E-04 5.53738E-25 3.46572E-05-5.14061E-13 1.32309E-13 3.52294E-05
 -1        56 8.89869E-05 2.47493E-25 6.37558E-05-3.79700E-13 5.53447E-14 4.21052E-05
 -1        57-2.18296E-04 4.93126E-25 6.54828E-05-4.98834E-13-1.56944E-14-4.92588E-05
 -1        58 1.65187E-04 4.29256E-25 1.48357E-04-4.64710E-13 2.82058E-14-3.48054E-05
 -1        59-2.18296E-04 4.93125E-25 6.54828E-05-4.98834E-13-1.56944E-14-4.92588E-05
 -1        60 1.65187E-04 4.29257E-25 1.48357E-04-4.64711E-13 2.82058E-14-3.48054E-05
 -1        61-1.39394E-04 5.42254E-25 7.04659E-05-5.21391E-13-4.50294E-14-1.17949E-04
 -1        62 1.89800E-04 7.00828E-25 8.66275E-05-5.93788E-13 4.24737E-14-1.02581E-04
 -1        63-1.39394E-04 5.42254E-25 7.04659E-05-5.21391E-13-4.50294E-14-1.17949E-04
 -1        64 1.89800E-04 7.00828E-25 8.66275E-05-5.93788E-13 4.24737E-14-1.02581E-04
 -1        65-8.35686E-05 8.46526E-25 1.02411E-04-6.51790E-13 3.29517E-14-3.23595E-05
 -1        66 3.02604E-04 9.18552E-25 5.53279E-05-6.78873E-13 1.63876E-14-2.28472E-05
 -1        67-8.35686E-05 8.46526E-25 1.02411E-04-6.51790E-13 3.29517E-14-3.23595E-05
 -1        68 3.02604E-04 9.18552E-25 5.53279E-05-6.78873E-13 1.63876E-14-2.28472E-05
 -1        69-5.59446E-05 9.49538E-25 1.69024E-04-6.92266E-13 6.70002E-14 4.54416E-05
 -1        70 2.84700E-04 7.99040E-25 2.18557E-04-6.37120E-13-1.05920E-13 7.56921E-05
 -1        71-5.59446E-05 9.49538E-25 1.69024E-04-6.92266E-13 6.70002E-14 4.54416E-05
 -1        72 2.84700E-04 7.99040E-25 2.18557E-04-6.37120E-13-1.05920E-13 7.56921E-05
 -1        73 1.13059E-04 2.70246E-25 2.48807E-04-4.25792E-13 7.70253E-15-4.99746E-05
 -1        74 5.26250E-04 3.20054E-25 4.26147E-04-3.27063E-13-3.01958E-13 1.08320E-05
 -1        75 1.13059E-04 2.70246E-25 2.48807E-04-4.25792E-13 7.70252E-15-4.99746E-05
 -1        76 5.26250E-04 3.20053E-25 4.26147E-04-3.27062E-13-3.01958E-13 1.08320E-05
 -1        77 1.97305E-04-2.96180E-25 5.48995E-04 8.49088E-14 7.80307E-14-1.81103E-04
 -1        78 6.78393E-04 1.57297E-25 4.18967E-04-9.41492E-14-6.11222E-13-2.60236E-04
 -1        79 1.97305E-04-2.96180E-25 5.48995E-04 8.49089E-14 7.80307E-14-1.81103E-04
 -1        80 6.78393E-04 1.57297E-25 4.18967E-04-9.41498E-14-6.11222E-13-2.60236E-04
 -1        81 1.60530E-04 1.76860E-24 8.02597E-04 1.07302E-12 1.06130E-13-2.11585E-04
 -1        82 3.21620E-04 4.80896E-24 3.35734E-04 1.49169E-12-8.94369E-13-6.58595E-04
 -1        83 1.60530E-04 1.76860E-24 8.02597E-04 1.07302E-12 1.06130E-13-2.11585E-04
 -1        84 3.21620E-04 4.80896E-24 3.35734E-04 1.49169E-12-8.94369E-13-6.58595E-04
 -1        85-9.15722E-07-3.92555E-25 3.01625E-03 2.57623E-16-4.20378E-19 5.19637E-03
 -1        86-1.20020E-03 2.13915E-24 1.08683E-03 1.08373E-12 1.23927E-13 2.22554E-03
 -1        87-9.15722E-07-3.92555E-25 3.01625E-03 2.57601E-16-4.20257E-19 5.19637E-03
 -1        88-1.20020E-03 2.13916E-24 1.08683E-03 1.08373E-12 1.23927E-13 2.22554E-03
 -1        89-4.17178E-04 3.14106E-24-1.11899E-03 1.25957E-12-2.11998E-13 3.39294E-04
 -1        90-4.17178E-04 3.14106E-24-1.11899E-03 1.25957E-12-2.11998E-13 3.39294E-04
 -1        91-4.47921E-04 5.03480E-25-9.86245E-04 4.78766E-13-3.05336E-13-1.58483E-04
 -1        92-4.47921E-04 5.03481E-25-9.86245E-04 4.78766E-13-3.05336E-13-1.58483E-04
 -1        93-5.83431E-04 1.65266E-24-3.58909E-04 8.50600E-13-3.67613E-13-1.10515E-04
 -1        94-5.83431E-04 1.65266E-24-3.58909E-04 8.50601E-13-3.67613E-13-1.10515E-04
 -1        95-6.13411E-04 7.03792E-25-1.41707E-04 4.32378E-13-5.74522E-13 3.57383E-05
 -1        96-6.13411E-04 7.03792E-25-1.41707E-04 4.32377E-13-5.74522E-13 3.57383E-05
 -1        97-7.43329E-04 1.20884E-24-1.21409E-04-7.45541E-13-4.62392E-13-3.56891E-05
 -1        98-7.43329E-04 1.20884E-24-1.21409E-04-7.45541E-13-4.62392E-13-3.56891E-05
 -1        99-6.15886E-04 2.13178E-24-1.39423E-05-1.04946E-12-5.78510E-14-1.22879E-04
 -1       100-6.15886E-04 2.13177E-24-1.39423E-05-1.04946E-12-5.78510E-14-1.22879E-04
 -1       101-6.36917E-04 1.76194E-24 6.76322E-05-9.23961E-13 1.96306E-13-2.15229E-05
 -1       102-6.36917E-04 1.76194E-24 6.76322E-05-9.23961E-13 1.96306E-13-2.15229E-05
 -1       103-5.99004E-04 8.04319E-25-2.08696E-05-6.29914E-13 1.95889E-13 6.81104E-05
 -1       104-5.99004E-04 8.04318E-25-2.08696E-05-6.29914E-13 1.95889E-13 6.81104E-05
 -1       105-6.94881E-04 4.72817E-26-1.02581E-04-2.16209E-13 2.87323E-14-3.36856E-05
 -1       106-6.94881E-04 4.72820E-26-1.02581E-04-2.16209E-13 2.87323E-14-3.36856E-05
 -1       107-5.62277E-04-7.48762E-26-1.96101E-05-1.96203E-14-7.23485E-14-1.27437E-04
 -1       108-5.62277E-04-7.48753E-26-1.96101E-05-1.96215E-14-7.23485E-14-1.27437E-04
 -1       109-5.78034E-04 5.16322E-25 6.07232E-05-5.35111E-13 6.77604E-15-3.55095E-05
 -1       110-5.78034E-04 5.16322E-25 6.07232E-05-5.35111E-13 6.77604E-15-3.55095E-05
 -1       111-5.34822E-04 7.40934E-25-6.28474E-06-6.05341E-13 7.50433E-14 4.09080E-05
 -1       112-5.34822E-04 7.40933E-25-6.28474E-06-6.05341E-13 7.50433E-14 4.09080E-05
 -1       113-6.01780E-04 6.90226E-25-5.56635E-05-5.88424E-13 3.01857E-14-5.50651E-05
 -1       114-6.01780E-04 6.90227E-25-5.56635E-05-5.88424E-13 3.01857E-14-5.50651E-05
 -1       115-4.68588E-04 4.97890E-25 4.73979E-05-4.99130E-13-2.37193E-14-1.31977E-04
 -1       116-4.68588E-04 4.97890E-25 4.73979E-05-4.99131E-13-2.37193E-14-1.31977E-04
 -1       117-4.69741E-04 5.62142E-25 1.36012E-04-5.36081E-13 1.72282E-14-3.61442E-05
 -1       118-4.69741E-04 5.62142E-25 1.36012E-04-5.36081E-13 1.72282E-14-3.61442E-05
 -1       119-3.96589E-04 1.08561E-24 7.27985E-05-7.29466E-13 1.68525E-13 2.86979E-05
 -1       120-3.96589E-04 1.08561E-24 7.27985E-05-7.29466E-13 1.68525E-13 2.86979E-05
 -1       121-3.00133E-04 4.67382E-25 6.73000E-05-3.98113E-13 3.76449E-13-4.05597E-05
 -1       122-3.00133E-04 4.67382E-25 6.73000E-05-3.98113E-13 3.76449E-13-4.05597E-05
 -1       123-2.83782E-04 4.96065E-25 2.17280E-04 1.94798E-13 5.68316E-13-2.28022E-04
 -1       124-2.83782E-04 4.96065E-25 2.17280E-04 1.94798E-13 5.68316E-13-2.28022E-04
 -1       125-5.60543E-07 2.08393E-24 3.06809E-04 8.85487E-13 6.20720E-13-8.45707E-05
 -1       126-5.60541E-07 2.08393E-24 3.06809E-04 8.85487E-13 6.20720E-13-8.45707E-05
 -3
    1PSTEP                         8           2           1          
  100CL  102 2.00000E-02         126                     1    2           1
 -4  ERROR       1    1
 -5  STR(%)      1    1    0    0
 -1         1 3.15456E+01
 -1         2 4.24952E+01
 -1         3 4.24952E+01
 -1         4 3.15456E+01
 -1         5 3.15456E+01
 -1         6 4.24952E+01
 -1         7 4.24952E+01
 -1         8 3.15456E+01
 -1         9 5.71095E+01
 -1        10 5.71095E+01
 -1        11 5.71095E+01
 -1        12 5.71095E+01
 -1        13 5.71095E+01
 -1        14 5.71095E+01
 -1        15 5.71095E+01
 -1        16 5.71095E+01
 -1        17 6.79818E+01
 -1        18 6.79818E+01
 -1        19 6.79818E+01
 -1        20 6.79818E+01
 -1        21 6.79818E+01
 -1        22 6.79818E+01
 -1        23 6.79818E+01
 -1        24 6.79818E+01
 -1        25 4.34000E+01
 -1        26 4.34000E+01
 -1        27 4.34000E+01
 -1        28 4.34000E+01
 -1        29 6.31298E+01
 -1        30 6.31298E+01
 -1        31 6.31298E+01
 -1        32 6.31298E+01
 -1        33 6.39405E+01
 -1        34 6.39405E+01
 -1        35 6.39405E+01
 -1        36 6.39405E+01
 -1        37 6.39405E+01
 -1        38 6.39405E+01
 -1        39 6.39405E+01
 -1        40 6.39405E+01
 -1        41 2.60976E+01
 -1        42 2.60976E+01
 -1        43 2.60976E+01
 -1        44 2.60976E+01
 -1        45 2.86636E+01
 -1        46 2.86636E+01
 -1        47 2.86636E+01
 -1        48 2.86636E+01
 -1        49 2.86636E+01
 -1        50 2.86636E+01
 -1        51 2.86636E+01
 -1        52 2.86636E+01
 -1        53 2.27243E+01
 -1        54 2.27243E+01
 -1        55 2.27243E+01
 -1        56 2.27243E+01
 -1        57 2.27243E+01
 -1        58 2.27243E+01
 -1        59 2.27243E+01
 -1        60 2.27243E+01
 -1        61 1.49772E+01
 -1        62 1.49772E+01
 -1        63 1.49772E+01
 -1        64 1.49772E+01
 -1        65 1.49772E+01
 -1        66 1.49772E+01
 -1        67 1.49772E+01
 -1        68 1.49772E+01
 -1        69 1.98013E+01
 -1        70 1.98013E+01
 -1        71 1.98013E+01
 -1        72 1.98013E+01
 -1        73 1.98013E+01
 -1        74 1.98013E+01
 -1        75 1.98013E+01
 -1        76 1.98013E+01
 -1        77 3.05962E+01
 -1        78 7.15841E+00
 -1        79 3.05962E+01
 -1        80 7.15841E+00
 -1        81 3.05962E+01
 -1        82 7.15841E+00
 -1        83 3.05962E+01
 -1        84 7.15841E+00
 -1        85 4.24952E+01
 -1        86 4.24952E+01
 -1        87 4.24952E+01
 -1        88 4.24952E+01
 -1        89 4.32942E+01
 -1        90 4.32942E+01
 -1        91 4.32942E+01
 -1        92 4.32942E+01
 -1        93 1.15663E+01
 -1        94 1.15663E+01
 -1        95 6.43119E+00
 -1        96 6.43119E+00
 -1        97 6.43119E+00
 -1        98 6.43119E+00
 -1        99 5.45059E+00
 -1       100 5.45059E+00
 -1       101 2.20979E+00
 -1       102 2.20979E+00
 -1       103 4.58039E+00
 -1       104 4.58039E+00
 -1       105 6.90954E+00
 -1       106 6.90954E+00
 -1       107 6.90954E+00
 -1       108 6.90954E+00
 -1       109 2.20977E+00
 -1       110 2.20977E+00
 -1       111 4.19086E+00
 -1       112 4.19086E+00
 -1       113 8.81825E+00
 -1       114 8.81825E+00
 -1       115 8.81825E+00
 -1       116 8.81825E+00
 -1       117 3.57861E+00
 -1       118 3.57861E+00
 -1       119 1.19918E+01
 -1       120 1.19918E+01
 -1       121 1.45531E+01
 -1       122 1.45531E+01
 -1       123 3.05962E+01
 -1       124 3.05962E+01
 -1       125 3.05962E+01
 -1       126 3.05962E+01
 -3
    1PSTEP                         9           3           1          
  100CL  103 3.00000E-02         126                     1    3           1
 -4  DISP        4    1
 -5  D1          1    2    1    0
 -5  D2          1    2    2    0
 -5  D3          1    2    3    0
 -5  ALL         1    2    0    0    1ALL
 -1         1 0.00000E+00 0.00000E+00 0.00000E+00
 -1         2 0.00000E+00 0.00000E+00 0.00000E+00
 -1         3 5.82714E-04 0.00000E+00 4.38571E-07
 -1         4 6.41616E-04 0.00000E+00-3.37457E-04
 -1         5 0.00000E+00 0.00000E+00 0.00000E+00
 -1         6 0.00000E+00 0.00000E+00 0.00000E+00
 -1         7 5.82714E-04 0.00000E+00 4.38571E-07
 -1         8 6.41616E-04 0.00000E+00-3.37457E-04
 -1         9 1.26562E-03 0.00000E+00-6.07509E-06
 -1        10 1.24401E-03 0.00000E+00-3.49790E-04
 -1        11 1.26562E-03 0.00000E+00-6.07510E-06
 -1        12 1.24401E-03 0.00000E+00-3.49790E-04
 -1        13 1.60537E-03 0.00000E+00-5.70880E-06
 -1        14 1.57612E-03 0.00000E+00-1.97432E-04
 -1        15 1.60537E-03 0.00000E+00-5.70880E-06
 -1        16 1.57612E-03 0.00000E+00-1.97432E-04
 -1        17 1.67395E-03 0.00000E+00-2.37807E-06
 -1        18 1.65743E-03 0.00000E+00-6.64232E-05
 -1        19 1.67395E-03 0.00000E+00-2.37807E-06
 -1        20 1.65743E-03 0.00000E+00-6.64232E-05
 -1        21 1.65054E-03 0.00000E+00 5.28623E-07
 -1        22 1.64770E-03 0.00000E+00-1.73129E-06
 -1        23 1.65054E-03 0.00000E+00 5.28623E-07
 -1        24 1.64770E-03 0.00000E+00-1.73129E-06
 -1        25 1.61085E-03 0.00000E+00 1.35661E-06
 -1        26 1.61518E-03 0.00000E+00 2.19310E-05
 -1        27 1.61085E-03 0.00000E+00 1.35661E-06
 -1        28 1.61518E-03 0.00000E+00 2.19310E-05
 -1        29 1.58194E-03 0.00000E+00 1.90744E-06
 -1        30 1.58797E-03 0.00000E+00 2.91965E-05
 -1        31 1.58194E-03 0.00000E+00 1.90744E-06
 -1        32 1.58797E-03 0.00000E+00 2.91965E-05
 -1        33 1.55275E-03 0.00000E+00 4.18632E-06
 -1        34 1.55892E-03 0.00000E+00 3.05884E-05
 -1        35 1.55275E-03 0.00000E+00 4.18632E-06
 -1        36 1.55892E-03 0.00000E+00 3.05884E-05
 -1        37 1.53115E-03 0.00000E+00 6.70523E-06
 -1        38 1.53797E-03 0.00000E+00 3.25427E-05
 -1        39 1.53115E-03 0.00000E+00 6.70523E-06
 -1        40 1.53797E-03 0.00000E+00 3.25427E-05
 -1        41 1.50403E-03 0.00000E+00 7.64071E-06
 -1        42 1.51278E-03 0.00000E+00 3.87231E-05
 -1        43 1.50403E-03 0.00000E+00 7.64071E-06
 -1        44 1.51278E-03 0.00000E+00 3.87231E-05
 -1        45 1.47478E-03 0.00000E+00 9.05095E-06
 -1        46 1.48323E-03 0.00000E+00 4.65408E-05
 -1        47 1.47478E-03 0.00000E+00 9.05095E-06
 -1        48 1.48323E-03 0.00000E+00 4.65408E-05
 -1        49 1.43578E-03 0.00000E+00 1.33877E-05
 -1        50 1.44453E-03 0.00000E+00 5.26812E-05
 -1        51 1.43578E-03 0.00000E+00 1.33877E-05
 -1        52 1.44453E-03 0.00000E+00 5.26812E-05
 -1        53 1.40037E-03 0.00000E+00 1.94968E-05
 -1        54 1.40998E-03 0.00000E+00 5.93560E-05
 -1        55 1.40037E-03 0.00000E+00 1.94968E-05
 -1        56 1.40998E-03 0.00000E+00 5.93560E-05
 -1        57 1.36075E-03 0.00000E+00 2.56109E-05
 -1        58 1.37450E-03 0.00000E+00 7.03546E-05
 -1        59 1.36075E-03 0.00000E+00 2.56109E-05
 -1        60 1.37450E-03 0.00000E+00 7.03546E-05
 -1        61 1.31965E-03 0.00000E+00 3.46798E-05
 -1        62 1.33254E-03 0.00000E+00 8.45576E-05
 -1        63 1.31965E-03 0.00000E+00 3.46798E-05
 -1        64 1.33254E-03 0.00000E+00 8.45576E-05
 -1        65 1.27382E-03 0.00000E+00 5.08330E-05
 -1        66 1.28591E-03 0.00000E+00 1.01559E-04
 -1        67 1.27382E-03 0.00000E+00 5.08330E-05
 -1        68 1.28591E-03 0.00000E+00 1.01559E-04
 -1        69 1.23524E-03 0.00000E+00 7.41813E-05
 -1        70 1.24555E-03 0.00000E+00 1.28844E-04
 -1        71 1.23524E-03 0.00000E+00 7.41813E-05
 -1        72 1.24555E-03 0.00000E+00 1.28844E-04
 -1        73 1.18670E-03 0.00000E+00 1.05011E-04
 -1        74 1.19839E-03 0.00000E+00 1.73845E-04
 -1        75 1.18670E-03 0.00000E+00 1.05011E-04
 -1        76 1.19839E-03 0.00000E+00 1.73845E-04
 -1        77 1.11095E-03 0.00000E+00 1.47175E-04
 -1        78 1.12277E-03 0.00000E+00 2.27924E-04
 -1        79 1.11095E-03 0.00000E+00 1.47175E-04
 -1        80 1.12277E-03 0.00000E+00 2.27924E-04
 -1        81 1.01983E-03 0.00000E+00 2.05831E-04
 -1        82 1.02913E-03 0.00000E+00 2.59818E-04
 -1        83 1.01983E-03 0.00000E+00 2.05831E-04
 -1        84 1.02913E-03 0.00000E+00 2.59818E-04
 -1        85 0.00000E+00 0.00000E+00 0.00000E+00
 -1        86 6.16769E-04 0.00000E+00 3.27993E-04
 -1        87 0.00000E+00 0.00000E+00 0.00000E+00
 -1        88 6.16769E-04 0.00000E+00 3.27993E-04
 -1        89 1.21749E-03 0.00000E+00 3.38713E-04
 -1        90 1.21749E-03 0.00000E+00 3.38713E-04
 -1        91 1.55453E-03 0.00000E+00 1.87715E-04
 -1        92 1.55453E-03 0.00000E+00 1.87715E-04
 -1        93 1.63535E-03 0.00000E+00 6.09915E-05
 -1        94 1.63535E-03 0.00000E+00 6.09915E-05
 -1        95 1.62356E-03 0.00000E+00 5.81191E-07
 -1        96 1.62356E-03 0.00000E+00 5.81190E-07
 -1        97 1.58519E-03 0.00000E+00-1.96702E-05
 -1        98 1.58519E-03 0.00000E+00-1.96702E-05
 -1        99 1.56229E-03 0.00000E+00-2.40173E-05
 -1       100 1.56229E-03 0.00000E+00-2.40173E-05
 -1       101 1.53423E-03 0.00000E+00-2.25072E-05
 -1       102 1.53423E-03 0.00000E+00-2.25072E-05
 -1       103 1.51146E-03 0.00000E+00-2.13509E-05
 -1       104 1.51146E-03 0.00000E+00-2.13509E-05
 -1       105 1.47977E-03 0.00000E+00-2.38969E-05
 -1       106 1.47977E-03 0.00000E+00-2.38969E-05
 -1       107 1.45504E-03 0.00000E+00-2.68644E-05
 -1       108 1.45504E-03 0.00000E+00-2.68644E-05
 -1       109 1.41777E-03 0.00000E+00-2.60195E-05
 -1       110 1.41777E-03 0.00000E+00-2.60195E-05
 -1       111 1.38195E-03 0.00000E+00-2.27689E-05
 -1       112 1.38195E-03 0.00000E+00-2.27689E-05
 -1       113 1.33859E-03 0.00000E+00-1.95293E-05
 -1       114 1.33859E-03 0.00000E+00-1.95293E-05
 -1       115 1.30301E-03 0.00000E+00-1.27753E-05
 -1       116 1.30301E-03 0.00000E+00-1.27753E-05
 -1       117 1.26019E-03 0.00000E+00 1.20841E-06
 -1       118 1.26019E-03 0.00000E+00 1.20841E-06
 -1       119 1.22190E-03 0.00000E+00 1.88877E-05
 -1       120 1.22190E-03 0.00000E+00 1.88877E-05
 -1       121 1.17161E-03 0.00000E+00 3.63702E-05
 -1       122 1.17161E-03 0.00000E+00 3.63702E-05
 -1       123 1.10491E-03 0.00000E+00 6.20162E-05
 -1       124 1.10491E-03 0.00000E+00 6.20162E-05
 -1       125 1.00926E-03 0.00000E+00 8.61782E-05
 -1       126 1.00926E-03 0.00000E+00 8.61782E-05
 -3
    1PSTEP                        10           3           1          
  100CL  103 3.00000E-02         126                     1    3           1
 -4  STRESS      6    1
 -5  SXX         1    4    1    1
 -5  SYY         1    4    2    2
 -5  SZZ         1    4    3    3
 -5  SXY         1    4    1    2
 -5  SYZ         1    4    2    3
 -5  SZX         1    4    3    1
 -1         1-1.49466E+03-1.54362E+03-3.56266E+03-1.68684E-10 1.02431E-10 1.92961E+03
 -1         2 5.81647E+01 1.76948E+01 3.21823E+01-3.48849E-11 1.46088E-10 1.79365E+03
 -1         3 1.73810E+02 6.69161E+01 5.61399E+01 1.30960E-07-1.76323E-08 9.23673E+02
 -1         4-1.22010E+02-5.12988E+02-1.56183E+03 7.85859E-08-1.11670E-07 8.61483E+02
 -1         5-1.49466E+03-1.54362E+03-3.56266E+03-1.68711E-10 1.02431E-10 1.92961E+03
 -1         6 5.81647E+01 1.76948E+01 3.21823E+01-3.48804E-11 1.46088E-10 1.79365E+03
 -1         7 1.73810E+02 6.69161E+01 5.61399E+01 1.30960E-07-1.76323E-08 9.23673E+02
 -1         8-1.22010E+02-5.12988E+02-1.56183E+03 7.85860E-08-1.11670E-07 8.61483E+02
 -1         9 1.69019E+02 6.58441E+01 5.67660E+01 4.37188E-07-4.51695E-08 5.13999E+02
 -1        10 1.22836E+02 2.39495E+02 6.82958E+02 4.12153E-07-9.14604E-08 3.81223E+02
 -1        11 1.69019E+02 6.58441E+01 5.67660E+01 4.37188E-07-4.51694E-08 5.13999E+02
 -1        12 1.22836E+02 2.39495E+02 6.82958E+02 4.12153E-07-9.14604E-08 3.81223E+02
 -1        13 1.34472E+02 6.27626E+01 7.59370E+01 5.41047E-07-4.82676E-08 3.55643E+01
 -1        14 3.47567E+02 5.23104E+02 1.40386E+03 4.71273E-07 4.65924E-08 4.88142E+01
 -1        15 1.34472E+02 6.27626E+01 7.59370E+01 5.41047E-07-4.82676E-08 3.55643E+01
 -1        16 3.47567E+02 5.23104E+02 1.40386E+03 4.71273E-07 4.65924E-08 4.88142E+01
 -1        17 1.34144E+02 6.56049E+01 8.44427E+01 2.68109E-07-1.91658E-08-1.26648E+02
 -1        18 2.74117E+02 3.75503E+02 9.81092E+02 2.27353E-07 1.68546E-07-8.67648E+01
 -1        19 1.34144E+02 6.56049E+01 8.44427E+01 2.68108E-07-1.91658E-08-1.26648E+02
 -1        20 2.74117E+02 3.75503E+02 9.81092E+02 2.27353E-07 1.68546E-07-8.67648E+01
 -1        21 1.38872E+02 6.43531E+01 7.57359E+01-5.00528E-08-2.96568E-08-1.00712E+02
 -1        22 1.73333E+02 1.90742E+02 4.63326E+02-1.48078E-08 2.15025E-07-7.21473E+01
 -1        23 1.38872E+02 6.43531E+01 7.57359E+01-5.00528E-08-2.96568E-08-1.00712E+02
 -1        24 1.73333E+02 1.90742E+02 4.63326E+02-1.48079E-08 2.15025E-07-7.21473E+01
 -1        25 1.64909E+02 7.24373E+01 7.66986E+01-3.12231E-07-1.24627E-08-4.15520E+01
 -1        26 1.18124E+02 9.13981E+01 1.86684E+02-2.82636E-07 1.69377E-07-2.86448E+01
 -1        27 1.64909E+02 7.24373E+01 7.66986E+01-3.12231E-07-1.24627E-08-4.15520E+01
 -1        28 1.18124E+02 9.13981E+01 1.86684E+02-2.82636E-07 1.69377E-07-2.86448E+01
 -1        29 1.45020E+02 6.58604E+01 7.46114E+01-4.94959E-07-2.63602E-08-7.49792E+00
 -1        30 8.51068E+01 4.78993E+01 7.45926E+01-3.74295E-07 5.96256E-08-2.57981E+00
 -1        31 1.45020E+02 6.58604E+01 7.46114E+01-4.94959E-07-2.63602E-08-7.49792E+00
 -1        32 8.51068E+01 4.78993E+01 7.45926E+01-3.74295E-07 5.96256E-08-2.57981E+00
 -1        33 1.44195E+02 6.81033E+01 8.29134E+01-4.60923E-07-2.46197E-08 3.57177E+00
 -1        34 7.42985E+01 3.62640E+01 4.66051E+01-5.09730E-07-6.37451E-08 4.31246E+00
 -1        35 1.44195E+02 6.81033E+01 8.29134E+01-4.60923E-07-2.46197E-08 3.57177E+00
 -1        36 7.42985E+01 3.62639E+01 4.66051E+01-5.09730E-07-6.37451E-08 4.31246E+00
 -1        37 1.50857E+02 6.91837E+01 7.98598E+01-2.34285E-07 1.35036E-08 7.97979E+00
 -1        38 9.22655E+01 5.02737E+01 7.53530E+01-2.29823E-07-7.39910E-08 8.52523E+00
 -1        39 1.50857E+02 6.91837E+01 7.98598E+01-2.34285E-07 1.35036E-08 7.97979E+00
 -1        40 9.22655E+01 5.02737E+01 7.53530E+01-2.29823E-07-7.39910E-08 8.52523E+00
 -1        41 1.83387E+02 8.16497E+01 8.89274E+01-2.12614E-07 4.40710E-08 9.65587E+00
 -1        42 1.26747E+02 7.27805E+01 1.15930E+02-2.69330E-07-2.60261E-08 1.14347E+01
 -1        43 1.83387E+02 8.16497E+01 8.89274E+01-2.12614E-07 4.40710E-08 9.65587E+00
 -1        44 1.26747E+02 7.27805E+01 1.15930E+02-2.69330E-07-2.60261E-08 1.14347E+01
 -1        45 1.65288E+02 7.84027E+01 9.61745E+01-1.62731E-07 3.00584E-08 7.97088E+00
 -1        46 1.23342E+02 7.12805E+01 1.14336E+02-5.54182E-08 8.17168E-09 1.03603E+01
 -1        47 1.65288E+02 7.84027E+01 9.61745E+01-1.62731E-07 3.00584E-08 7.97088E+00
 -1        48 1.23342E+02 7.12805E+01 1.14336E+02-5.54182E-08 8.17168E-09 1.03603E+01
 -1        49 1.68443E+02 8.59575E+01 1.18207E+02-1.90353E-07-2.59131E-08 6.62628E+00
 -1        50 1.23996E+02 7.00577E+01 1.09602E+02-1.45333E-07 3.60475E-08 8.23433E+00
 -1        51 1.68443E+02 8.59575E+01 1.18207E+02-1.90353E-07-2.59131E-08 6.62628E+00
 -1        52 1.23996E+02 7.00577E+01 1.09602E+02-1.45333E-07 3.60475E-08 8.23433E+00
 -1        53 1.79424E+02 9.30060E+01 1.30738E+02-2.46486E-07-1.03888E-09 1.09427E+01
 -1        54 1.44506E+02 8.52472E+01 1.39759E+02-2.89196E-07 3.20039E-08 1.49254E+01
 -1        55 1.79424E+02 9.30060E+01 1.30738E+02-2.46486E-07-1.03888E-09 1.09427E+01
 -1        56 1.44506E+02 8.52472E+01 1.39759E+02-2.89196E-07 3.20039E-08 1.49254E+01
 -1        57 2.28784E+02 1.18042E+02 1.64911E+02-2.35574E-07 3.96977E-08 1.41346E+01
 -1        58 2.06537E+02 1.21737E+02 1.99473E+02-2.29128E-07 3.09207E-08 1.85587E+01
 -1        59 2.28784E+02 1.18042E+02 1.64911E+02-2.35574E-07 3.96977E-08 1.41346E+01
 -1        60 2.06537E+02 1.21737E+02 1.99473E+02-2.29128E-07 3.09207E-08 1.85587E+01
 -1        61 2.17580E+02 1.26499E+02 2.04325E+02-2.73957E-07 4.33292E-08 1.60272E+01
 -1        62 2.11218E+02 1.31670E+02 2.27938E+02-2.67306E-07 2.78052E-08 1.71888E+01
 -1        63 2.17580E+02 1.26499E+02 2.04325E+02-2.73957E-07 4.33292E-08 1.60272E+01
 -1        64 2.11218E+02 1.31670E+02 2.27938E+02-2.67306E-07 2.78052E-08 1.71888E+01
 -1        65 2.29926E+02 1.50617E+02 2.72479E+02-2.72343E-07 1.35022E-08 2.45623E+01
 -1        66 2.32710E+02 1.58120E+02 2.94749E+02-1.94320E-07-8.37957E-09 2.22611E+01
 -1        67 2.29926E+02 1.50617E+02 2.72479E+02-2.72343E-07 1.35022E-08 2.45623E+01
 -1        68 2.32710E+02 1.58120E+02 2.94749E+02-1.94320E-07-8.37959E-09 2.22611E+01
 -1        69 2.52659E+02 1.79711E+02 3.46890E+02-2.59897E-07-1.36342E-08 3.51680E+01
 -1        70 2.78055E+02 2.14455E+02 4.37581E+02-2.30860E-07-7.76245E-08 3.35520E+01
 -1        71 2.52659E+02 1.79711E+02 3.46890E+02-2.59897E-07-1.36342E-08 3.51680E+01
 -1        72 2.78055E+02 2.14455E+02 4.37581E+02-2.30860E-07-7.76245E-08 3.35520E+01
 -1        73 3.13238E+02 2.30483E+02 4.55894E+02-1.78209E-07 2.09929E-09 2.02344E+01
 -1        74 3.55003E+02 2.82747E+02 5.88843E+02-1.76922E-07-1.71031E-07 2.28219E+01
 -1        75 3.13238E+02 2.30483E+02 4.55894E+02-1.78208E-07 2.09929E-09 2.02344E+01
 -1        76 3.55003E+02 2.82747E+02 5.88843E+02-1.76922E-07-1.71031E-07 2.28219E+01
 -1        77 3.29722E+02 2.74291E+02 5.85867E+02 7.10774E-08 2.54161E-09-1.70621E+00
 -1        78 3.26628E+02 2.53376E+02 5.19033E+02 9.06052E-08-2.32745E-07-1.21087E+01
 -1        79 3.29722E+02 2.74291E+02 5.85867E+02 7.10772E-08 2.54159E-09-1.70621E+00
 -1        80 3.26628E+02 2.53376E+02 5.19033E+02 9.06050E-08-2.32745E-07-1.21087E+01
 -1        81 3.78874E+02 3.17081E+02 6.79856E+02 3.31011E-07 1.84457E-09-1.35383E+01
 -1        82 2.48434E+02 1.90540E+02 3.87414E+02 2.51045E-07-2.13330E-07-1.22397E+02
 -1        83 3.78874E+02 3.17081E+02 6.79856E+02 3.31011E-07 1.84457E-09-1.35383E+01
 -1        84 2.48434E+02 1.90540E+02 3.87414E+02 2.51045E-07-2.13330E-07-1.22397E+02
 -1        85 1.57215E+03 1.52628E+03 3.59934E+03 1.15108E-10 1.68253E-10 1.94106E+03
 -1        86 4.62269E+02 6.44933E+02 1.71389E+03 1.52467E-07 6.91492E-08 8.78266E+02
 -1        87 1.57215E+03 1.52628E+03 3.59934E+03 1.15102E-10 1.68253E-10 1.94106E+03
 -1        88 4.62269E+02 6.44933E+02 1.71389E+03 1.52467E-07 6.91492E-08 8.78266E+02
 -1        89 2.27903E+02-8.51815E+01-5.04487E+02 3.75677E-07 1.27491E-08 3.80769E+02
 -1        90 2.27903E+02-8.51815E+01-5.04487E+02 3.75677E-07 1.27491E-08 3.80769E+02
 -1        91-8.35465E+01-4.01441E+02-1.24757E+03 6.03602E-07-1.36129E-07 4.48447E+01
 -1        92-8.35465E+01-4.01441E+02-1.24757E+03 6.03602E-07-1.36129E-07 4.48447E+01
 -1        93-1.50935E+01-2.53213E+02-8.26014E+02 2.47080E-07-2.61618E-07-8.91187E+01
 -1        94-1.50935E+01-2.53213E+02-8.26014E+02 2.47079E-07-2.61618E-07-8.91187E+01
 -1        95 1.04750E+02-6.15257E+01-3.09162E+02-8.07191E-08-2.82144E-07-7.72452E+01
 -1        96 1.04750E+02-6.15257E+01-3.09162E+02-8.07189E-08-2.82144E-07-7.72452E+01
 -1        97 2.19879E+02 6.17207E+01-1.38885E+01-2.85297E-07-2.18585E-07-2.95150E+01
 -1        98 2.19879E+02 6.17207E+01-1.38885E+01-2.85297E-07-2.18585E-07-2.95150E+01
 -1        99 2.05283E+02 8.41877E+01 7.55014E+01-5.33967E-07-7.96332E-08 1.39806E+00
 -1       100 2.05283E+02 8.41877E+01 7.55014E+01-5.33967E-07-7.96332E-08 1.39806E+00
 -1       101 2.05824E+02 9.16781E+01 9.99287E+01-4.02825E-07 5.61056E-08 3.96953E+00
 -1       102 2.05824E+02 9.16781E+01 9.99287E+01-4.02825E-07 5.61056E-08 3.96953E+00
 -1       103 2.09083E+02 8.77252E+01 8.34987E+01-2.01508E-07 9.32403E-08 2.58839E+00
 -1       104 2.09083E+02 8.77252E+01 8.34987E+01-2.01508E-07 9.32403E-08 2.58839E+00
 -1       105 2.48781E+02 9.92765E+01 8.23720E+01-2.11953E-07 5.40462E-08 1.03000E+01
 -1       106 2.48781E+02 9.92765E+01 8.23720E+01-2.11953E-07 5.40462E-08 1.03000E+01
 -1       107 2.08008E+02 8.63107E+01 7.98617E+01-2.53498E-07 1.39934E-08 1.51823E+01
 -1       108 2.08008E+02 8.63107E+01 7.98617E+01-2.53499E-07 1.39934E-08 1.51823E+01
 -1       109 2.03699E+02 9.26756E+01 1.05376E+02-2.38585E-07-5.37587E-09 8.85811E+00
 -1       110 2.03699E+02 9.26756E+01 1.05376E+02-2.38585E-07-5.37587E-09 8.85811E+00
 -1       111 2.13690E+02 1.00116E+02 1.20203E+02-1.80763E-07-1.70057E-10 8.26732E+00
 -1       112 2.13690E+02 1.00116E+02 1.20203E+02-1.80763E-07-1.70059E-10 8.26732E+00
 -1       113 2.62154E+02 1.25477E+02 1.56369E+02-2.09637E-07 1.21228E-08 1.75106E+01
 -1       114 2.62154E+02 1.25477E+02 1.56369E+02-2.09636E-07 1.21228E-08 1.75106E+01
 -1       115 2.27370E+02 1.24770E+02 1.88774E+02-2.86309E-07 2.00858E-08 2.54645E+01
 -1       116 2.27370E+02 1.24770E+02 1.88774E+02-2.86309E-07 2.00858E-08 2.54645E+01
 -1       117 2.20094E+02 1.36071E+02 2.33754E+02-3.19963E-07 4.04692E-08 2.79568E+01
 -1       118 2.20094E+02 1.36071E+02 2.33754E+02-3.19963E-07 4.04692E-08 2.79568E+01
 -1       119 2.25166E+02 1.42869E+02 2.51372E+02-2.46294E-07 9.16784E-08 3.38944E+01
 -1       120 2.25166E+02 1.42869E+02 2.51372E+02-2.46294E-07 9.16784E-08 3.38944E+01
 -1       121 2.62682E+02 1.69472E+02 3.02648E+02-1.40737E-07 1.80657E-07 3.12578E+01
 -1       122 2.62682E+02 1.69472E+02 3.02648E+02-1.40737E-07 1.80657E-07 3.12578E+01
 -1       123 1.81002E+02 1.43396E+02 2.97282E+02 7.90091E-08 2.60589E-07 1.21899E+01
 -1       124 1.81002E+02 1.43396E+02 2.97282E+02 7.90093E-08 2.60589E-07 1.21899E+01
 -1       125 2.27059E+02 1.61328E+02 3.11059E+02 3.61101E-07 2.95345E-07 7.38979E+01
 -1       126 2.27059E+02 1.61328E+02 3.11059E+02 3.61101E-07 2.95345E-07 7.38979E+01
 -3
    1PSTEP                        11           3           1          
  100CL  103 3.00000E-02         126                     1    3           1
 -4  TOSTRAIN    6    1
 -5  EXX         1    4    1    1
 -5  EYY         1    4    2    2
 -5  EZZ         1    4    3    3
 -5  EXY         1    4    1    2
 -5  EYZ         1    4    2    3
 -5  EZX         1    4    3    1
 -1         1-3.94156E-06-6.01207E-26-6.64780E-03-4.70026E-16 3.01432E-18 6.41597E-03
 -1         2-3.77266E-06-5.58885E-26 7.29125E-05-9.04385E-17 1.04707E-18 5.82695E-03
 -1         3 2.69078E-04 1.42658E-25 1.78467E-05 4.26176E-13-5.44647E-14 3.00248E-03
 -1         4 1.19948E-03 1.35196E-25-3.41103E-03 2.59772E-13-3.62765E-13 2.86012E-03
 -1         5-3.94156E-06-6.01207E-26-6.64780E-03-4.70113E-16 3.01321E-18 6.41597E-03
 -1         6-3.77266E-06-5.58885E-26 7.29125E-05-9.04239E-17 1.04726E-18 5.82695E-03
 -1         7 2.69078E-04 1.42657E-25 1.78467E-05 4.26176E-13-5.44648E-14 3.00248E-03
 -1         8 1.19948E-03 1.35197E-25-3.41103E-03 2.59772E-13-3.62765E-13 2.86012E-03
 -1         9 2.88685E-04 3.88770E-24-3.78838E-06 1.42165E-12-1.36989E-13 1.67225E-03
 -1        10-4.08847E-04 3.53426E-24 1.44938E-03 1.34183E-12-2.87483E-13 1.22848E-03
 -1        11 2.88685E-04 3.88770E-24-3.78838E-06 1.42166E-12-1.36989E-13 1.67225E-03
 -1        12-4.08847E-04 3.53426E-24 1.44938E-03 1.34183E-12-2.87483E-13 1.22848E-03
 -1        13 2.23040E-04 6.04432E-24 4.83194E-05 1.75833E-12-1.49967E-13 1.16304E-04
 -1        14-5.78021E-04 4.52750E-24 2.84867E-03 1.53004E-12 1.56774E-13 1.43217E-04
 -1        15 2.23040E-04 6.04433E-24 4.83194E-05 1.75833E-12-1.49967E-13 1.16304E-04
 -1        16-5.78021E-04 4.52750E-24 2.84867E-03 1.53004E-12 1.56774E-13 1.43217E-04
 -1        17 2.21426E-04 1.05101E-24 6.25519E-05 8.71054E-13-6.11301E-14-4.11182E-04
 -1        18-3.29837E-04 1.32738E-24 1.95942E-03 7.38099E-13 5.47251E-13-2.83895E-04
 -1        19 2.21426E-04 1.05100E-24 6.25519E-05 8.71053E-13-6.11301E-14-4.11182E-04
 -1        20-3.29837E-04 1.32738E-24 1.95942E-03 7.38100E-13 5.47251E-13-2.83895E-04
 -1        21 2.41396E-04-4.46925E-25 3.74822E-05-1.62666E-13-9.63396E-14-3.27152E-04
 -1        22-5.67859E-05 5.29922E-25 8.84034E-04-4.78203E-14 6.97980E-13-2.33864E-04
 -1        23 2.41396E-04-4.46924E-25 3.74822E-05-1.62667E-13-9.63396E-14-3.27152E-04
 -1        24-5.67859E-05 5.29922E-25 8.84034E-04-4.78206E-14 6.97980E-13-2.33864E-04
 -1        25 3.00001E-04 1.75160E-24 1.40192E-05-1.01432E-12-4.00678E-14-1.35090E-04
 -1        26 8.67204E-05 2.01194E-24 3.09501E-04-9.17983E-13 5.50580E-13-9.28555E-05
 -1        27 3.00001E-04 1.75159E-24 1.40192E-05-1.01432E-12-4.00678E-14-1.35090E-04
 -1        28 8.67204E-05 2.01194E-24 3.09501E-04-9.17983E-13 5.50580E-13-9.28555E-05
 -1        29 2.57029E-04 5.09324E-24 2.84644E-05-1.60802E-12-8.48027E-14-2.44759E-05
 -1        30 1.20873E-04 2.87868E-24 8.67352E-05-1.21607E-12 1.94411E-13-8.39953E-06
 -1        31 2.57029E-04 5.09324E-24 2.84644E-05-1.60802E-12-8.48027E-14-2.44759E-05
 -1        32 1.20873E-04 2.87868E-24 8.67352E-05-1.21607E-12 1.94411E-13-8.39953E-06
 -1        33 2.47107E-04 4.38731E-24 4.81092E-05-1.49745E-12-7.92032E-14 1.14954E-05
 -1        34 1.23579E-04 5.37479E-24 3.35891E-05-1.65639E-12-2.06274E-13 1.39629E-05
 -1        35 2.47107E-04 4.38731E-24 4.81092E-05-1.49745E-12-7.92032E-14 1.14954E-05
 -1        36 1.23579E-04 5.37479E-24 3.35890E-05-1.65639E-12-2.06274E-13 1.39629E-05
 -1        37 2.65239E-04 1.04224E-24 3.46629E-05-7.61090E-13 4.42869E-14 2.57917E-05
 -1        38 1.36445E-04 1.06137E-24 8.14557E-05-7.46854E-13-2.40044E-13 2.76693E-05
 -1        39 2.65239E-04 1.04224E-24 3.46629E-05-7.61090E-13 4.42869E-14 2.57917E-05
 -1        40 1.36445E-04 1.06137E-24 8.14557E-05-7.46854E-13-2.40044E-13 2.76693E-05
 -1        41 3.30348E-04 9.79838E-25 2.36140E-05-6.90565E-13 1.43633E-13 3.11706E-05
 -1        42 1.75343E-04 1.43695E-24 1.40137E-04-8.75080E-13-8.40159E-14 3.71151E-05
 -1        43 3.30348E-04 9.79839E-25 2.36141E-05-6.90565E-13 1.43633E-13 3.11706E-05
 -1        44 1.75343E-04 1.43695E-24 1.40137E-04-8.75080E-13-8.40159E-14 3.71151E-05
 -1        45 2.82166E-04 5.37823E-25 5.77060E-05-5.28570E-13 9.80566E-14 2.57310E-05
 -1        46 1.69154E-04-6.22896E-26 1.39823E-04-1.80031E-13 2.66902E-14 3.36212E-05
 -1        47 2.82166E-04 5.37823E-25 5.77060E-05-5.28570E-13 9.80566E-14 2.57310E-05
 -1        48 1.69154E-04-6.22901E-26 1.39823E-04-1.80031E-13 2.66902E-14 3.36212E-05
 -1        49 2.67893E-04 7.55184E-25 1.04737E-04-6.18427E-13-8.37072E-14 2.13890E-05
 -1        50 1.75250E-04 4.06296E-25 1.28425E-04-4.72094E-13 1.17492E-13 2.67055E-05
 -1        51 2.67893E-04 7.55184E-25 1.04737E-04-6.18427E-13-8.37072E-14 2.13890E-05
 -1        52 1.75250E-04 4.06294E-25 1.28425E-04-4.72093E-13 1.17492E-13 2.67055E-05
 -1        53 2.80678E-04 1.26324E-24 1.22517E-04-8.00695E-13-2.71691E-15 3.54021E-05
 -1        54 1.92552E-04 1.73719E-24 1.76989E-04-9.39458E-13 1.04726E-13 4.84543E-05
 -1        55 2.80678E-04 1.26324E-24 1.22517E-04-8.00695E-13-2.71692E-15 3.54021E-05
 -1        56 1.92552E-04 1.73719E-24 1.76989E-04-9.39458E-13 1.04727E-13 4.84543E-05
 -1        57 3.59621E-04 1.19613E-24 1.52161E-04-7.65041E-13 1.29652E-13 4.57030E-05
 -1        58 2.75465E-04 1.11940E-24 2.52341E-04-7.44184E-13 1.01106E-13 6.02227E-05
 -1        59 3.59621E-04 1.19613E-24 1.52161E-04-7.65041E-13 1.29652E-13 4.57030E-05
 -1        60 2.75465E-04 1.11940E-24 2.52341E-04-7.44185E-13 1.01106E-13 6.02227E-05
 -1        61 2.95844E-04 1.61814E-24 2.52624E-04-8.89731E-13 1.41611E-13 5.19835E-05
 -1        62 2.58421E-04 1.50972E-24 3.12476E-04-8.68191E-13 9.11774E-14 5.58366E-05
 -1        63 2.95844E-04 1.61814E-24 2.52624E-04-8.89731E-13 1.41611E-13 5.19835E-05
 -1        64 2.58421E-04 1.50972E-24 3.12476E-04-8.68191E-13 9.11774E-14 5.58366E-05
 -1        65 2.57666E-04 1.55160E-24 3.95438E-04-8.84560E-13 4.47370E-14 7.98150E-05
 -1        66 2.42340E-04 7.55087E-25 4.43327E-04-6.31193E-13-2.65732E-14 7.24021E-05
 -1        67 2.57666E-04 1.55160E-24 3.95438E-04-8.84561E-13 4.47371E-14 7.98150E-05
 -1        68 2.42340E-04 7.55085E-25 4.43327E-04-6.31192E-13-2.65732E-14 7.24021E-05
 -1        69 2.37062E-04 1.39093E-24 5.42292E-04-8.44174E-13-4.33486E-14 1.14390E-04
 -1        70 2.06706E-04 1.20691E-24 7.23487E-04-7.50010E-13-2.51168E-13 1.09322E-04
 -1        71 2.37062E-04 1.39093E-24 5.42292E-04-8.44174E-13-4.33486E-14 1.14390E-04
 -1        72 2.06706E-04 1.20691E-24 7.23487E-04-7.50010E-13-2.51168E-13 1.09322E-04
 -1        73 2.68770E-04 4.41712E-25 7.30986E-04-5.78731E-13 7.59472E-15 6.62510E-05
 -1        74 2.34681E-04 1.02149E-24 9.92054E-04-5.75193E-13-5.54186E-13 7.49781E-05
 -1        75 2.68770E-04 4.41711E-25 7.30986E-04-5.78730E-13 7.59470E-15 6.62510E-05
 -1        76 2.34681E-04 1.02149E-24 9.92054E-04-5.75193E-13-5.54186E-13 7.49781E-05
 -1        77 1.79935E-04-3.32490E-25 1.01006E-03 2.30833E-13 7.84989E-15-4.09522E-06
 -1        78 2.37662E-04 9.42695E-25 8.61530E-04 2.92956E-13-7.55811E-13-3.82764E-05
 -1        79 1.79935E-04-3.32490E-25 1.01006E-03 2.30833E-13 7.84983E-15-4.09522E-06
 -1        80 2.37662E-04 9.42694E-25 8.61530E-04 2.92956E-13-7.55811E-13-3.82764E-05
 -1        81 2.00454E-04 1.83100E-24 1.17539E-03 1.07485E-12 4.09495E-15-4.21047E-05
 -1        82 1.86525E-04 2.01332E-24 6.39783E-04 8.14120E-13-6.93427E-13-3.96287E-04
 -1        83 2.00454E-04 1.83100E-24 1.17539E-03 1.07485E-12 4.09494E-15-4.21047E-05
 -1        84 1.86525E-04 2.01332E-24 6.39783E-04 8.14121E-13-6.93427E-13-3.96287E-04
 -1        85-3.60377E-06-9.29840E-26 6.65368E-03 2.88920E-16-9.40513E-19 6.16750E-03
 -1        86-6.61327E-04 4.20614E-25 3.47002E-03 4.92492E-13 2.26826E-13 2.79654E-03
 -1        87-3.60377E-06-9.29840E-26 6.65368E-03 2.88898E-16-9.40801E-19 6.16750E-03
 -1        88-6.61327E-04 4.20613E-25 3.47002E-03 4.92492E-13 2.26826E-13 2.79654E-03
 -1        89 9.86218E-04 2.73782E-24-1.35351E-03 1.21966E-12 5.00105E-14 1.25019E-03
 -1        90 9.86218E-04 2.73782E-24-1.35351E-03 1.21966E-12 5.00104E-14 1.25019E-03
 -1        91 1.02410E-03 7.67209E-24-2.76192E-03 1.96319E-12-4.36281E-13 1.62561E-04
 -1        92 1.02410E-03 7.67209E-24-2.76192E-03 1.96319E-12-4.36281E-13 1.62561E-04
 -1        93 7.72689E-04 2.09934E-24-1.86901E-03 8.03457E-13-8.51278E-13-2.87044E-04
 -1        94 7.72689E-04 2.09934E-24-1.86901E-03 8.03457E-13-8.51278E-13-2.87044E-04
 -1        95 5.39577E-04 1.32820E-24-8.06109E-04-2.62668E-13-9.17791E-13-2.51454E-04
 -1        96 5.39577E-04 1.32820E-24-8.06109E-04-2.62667E-13-9.17791E-13-2.51454E-04
 -1        97 5.13282E-04 2.36059E-24-2.45746E-04-9.27046E-13-7.10078E-13-9.63015E-05
 -1        98 5.13282E-04 2.36059E-24-2.45746E-04-9.27046E-13-7.10078E-13-9.63015E-05
 -1        99 3.93185E-04 5.94103E-24-2.82370E-05-1.73452E-12-2.57875E-13 4.32470E-06
 -1       100 3.93185E-04 5.94103E-24-2.82370E-05-1.73452E-12-2.57875E-13 4.32470E-06
 -1       101 3.70635E-04 3.32520E-24 2.67942E-05-1.30834E-12 1.83001E-13 1.27094E-05
 -1       102 3.70635E-04 3.32519E-24 2.67942E-05-1.30834E-12 1.83001E-13 1.27094E-05
 -1       103 3.94032E-04 9.38980E-25-1.37450E-05-6.54356E-13 3.03343E-13 8.17516E-06
 -1       104 3.94032E-04 9.38980E-25-1.37450E-05-6.54356E-13 3.03343E-13 8.17516E-06
 -1       105 4.85353E-04 1.00384E-24-5.49724E-05-6.88265E-13 1.76054E-13 3.31165E-05
 -1       106 4.85353E-04 1.00384E-24-5.49724E-05-6.88264E-13 1.76054E-13 3.31165E-05
 -1       107 3.95179E-04 1.32591E-24-2.10268E-05-8.23359E-13 4.60632E-14 4.90234E-05
 -1       108 3.95179E-04 1.32591E-24-2.10268E-05-8.23361E-13 4.60632E-14 4.90234E-05
 -1       109 3.60535E-04 1.18915E-24 4.12199E-05-7.74979E-13-1.68564E-14 2.85164E-05
 -1       110 3.60535E-04 1.18915E-24 4.12199E-05-7.74979E-13-1.68564E-14 2.85164E-05
 -1       111 3.68804E-04 6.70747E-25 6.52171E-05-5.87139E-13-5.57268E-17 2.65926E-05
 -1       112 3.68804E-04 6.70746E-25 6.52171E-05-5.87139E-13-5.57320E-17 2.65926E-05
 -1       113 4.43776E-04 9.13303E-25 1.00250E-04-6.80799E-13 3.99988E-14 5.65366E-05
 -1       114 4.43776E-04 9.13301E-25 1.00250E-04-6.80798E-13 3.99988E-14 5.65366E-05
 -1       115 3.33267E-04 1.72300E-24 2.07701E-04-9.29888E-13 6.61290E-14 8.25461E-05
 -1       116 3.33267E-04 1.72300E-24 2.07701E-04-9.29887E-13 6.61290E-14 8.25461E-05
 -1       117 2.72992E-04 2.17047E-24 3.16996E-04-1.03918E-12 1.32475E-13 9.07616E-05
 -1       118 2.72992E-04 2.17047E-24 3.16996E-04-1.03918E-12 1.32475E-13 9.07616E-05
 -1       119 2.67419E-04 1.37433E-24 3.52058E-04-7.99731E-13 2.98636E-13 1.10073E-04
 -1       120 2.67419E-04 1.37433E-24 3.52058E-04-7.99731E-13 2.98636E-13 1.10073E-04
 -1       121 3.02858E-04 8.63111E-25 4.32048E-04-4.56413E-13 5.87277E-13 1.01575E-04
 -1       122 3.02858E-04 8.63112E-25 4.32048E-04-4.56415E-13 5.87277E-13 1.01575E-04
 -1       123 1.22208E-04 1.09271E-24 4.99509E-04 2.58041E-13 8.45757E-13 4.01767E-05
 -1       124 1.22208E-04 1.09271E-24 4.99509E-04 2.58042E-13 8.45757E-13 4.01767E-05
 -1       125 2.14383E-04 3.99560E-24 4.85114E-04 1.17475E-12 9.56205E-13 2.40371E-04
 -1       126 2.14383E-04 3.99560E-24 4.85114E-04 1.17475E-12 9.56205E-13 2.40371E-04
 -3
    1PSTEP                        12           3           1          
  100CL  103 3.00000E-02         126                     1    3           1
 -4  ERROR       1    1
 -5  STR(%)      1    1    0    0
 -1         1 4.93828E+01
 -1         2 4.93828E+01
 -1         3 4.93828E+01
 -1         4 4.93828E+01
 -1         5 4.93828E+01
 -1         6 4.93828E+01
 -1         7 4.93828E+01
 -1         8 4.93828E+01
 -1         9 6.85079E+01
 -1        10 5.86622E+01
 -1        11 6.85079E+01
 -1        12 5.86622E+01
 -1        13 6.96712E+01
 -1        14 5.86622E+01
 -1        15 6.96712E+01
 -1        16 5.86622E+01
 -1        17 6.96712E+01
 -1        18 5.71895E+01
 -1        19 6.96712E+01
 -1        20 5.71895E+01
 -1        21 5.55418E+01
 -1        22 4.60444E+01
 -1        23 5.55418E+01
 -1        24 4.60444E+01
 -1        25 3.08909E+01
 -1        26 3.08909E+01
 -1        27 3.08909E+01
 -1        28 3.08909E+01
 -1        29 1.38054E+01
 -1        30 1.38054E+01
 -1        31 1.38054E+01
 -1        32 1.38054E+01
 -1        33 1.74496E+00
 -1        34 1.71706E+00
 -1        35 1.74496E+00
 -1        36 1.71706E+00
 -1        37 1.48894E+01
 -1        38 1.48894E+01
 -1        39 1.48894E+01
 -1        40 1.48894E+01
 -1        41 1.48894E+01
 -1        42 1.48894E+01
 -1        43 1.48894E+01
 -1        44 1.48894E+01
 -1        45 8.98827E+00
 -1        46 8.98827E+00
 -1        47 8.98827E+00
 -1        48 8.98827E+00
 -1        49 2.87085E+00
 -1        50 1.98880E+00
 -1        51 2.87085E+00
 -1        52 1.98880E+00
 -1        53 1.38519E+01
 -1        54 1.38519E+01
 -1        55 1.38519E+01
 -1        56 1.38519E+01
 -1        57 1.38519E+01
 -1        58 1.38519E+01
 -1        59 1.38519E+01
 -1        60 1.38519E+01
 -1        61 3.73427E+00
 -1        62 3.29525E+00
 -1        63 3.73427E+00
 -1        64 3.29525E+00
 -1        65 3.60775E+00
 -1        66 1.92487E+00
 -1        67 3.60775E+00
 -1        68 1.92487E+00
 -1        69 1.34083E+01
 -1        70 8.30820E+00
 -1        71 1.34083E+01
 -1        72 8.30820E+00
 -1        73 1.34083E+01
 -1        74 8.30820E+00
 -1        75 1.34083E+01
 -1        76 8.30820E+00
 -1        77 2.51355E+01
 -1        78 1.46072E+01
 -1        79 2.51355E+01
 -1        80 1.46072E+01
 -1        81 2.51355E+01
 -1        82 1.46072E+01
 -1        83 2.51355E+01
 -1        84 1.46072E+01
 -1        85 4.53282E+01
 -1        86 4.53282E+01
 -1        87 4.53282E+01
 -1        88 4.53282E+01
 -1        89 6.85079E+01
 -1        90 6.85079E+01
 -1        91 6.96712E+01
 -1        92 6.96712E+01
 -1        93 6.96712E+01
 -1        94 6.96712E+01
 -1        95 5.55418E+01
 -1        96 5.55418E+01
 -1        97 1.73787E+01
 -1        98 1.73787E+01
 -1        99 8.60172E+00
 -1       100 8.60172E+00
 -1       101 1.74496E+00
 -1       102 1.74496E+00
 -1       103 4.78059E+00
 -1       104 4.78059E+00
 -1       105 4.78059E+00
 -1       106 4.78059E+00
 -1       107 4.40966E+00
 -1       108 4.40966E+00
 -1       109 2.87085E+00
 -1       110 2.87085E+00
 -1       111 4.02694E+00
 -1       112 4.02694E+00
 -1       113 4.02694E+00
 -1       114 4.02694E+00
 -1       115 3.73427E+00
 -1       116 3.73427E+00
 -1       117 3.60775E+00
 -1       118 3.60775E+00
 -1       119 1.34083E+01
 -1       120 1.34083E+01
 -1       121 1.34083E+01
 -1       122 1.34083E+01
 -1       123 2.51355E+01
 -1       124 2.51355E+01
 -1       125 2.51355E+01
 -1       126 2.51355E+01
 -3
    1PSTEP                        13           4           1          
  100CL  104 4.00000E-02         126                     1    4           1
 -4  DISP        4    1
 -5  D1          1    2    1    0
 -5  D2          1    2    2    0
 -5  D3          1    2    3    0
 -5  ALL         1    2    0    0    1ALL
 -1         1 0.00000E+00 0.00000E+00 0.00000E+00
 -1         2 0.00000E+00 0.00000E+00 0.00000E+00
 -1         3 4.98635E-04 0.00000E+00-8.05636E-07
 -1         4 6.01179E-04 0.00000E+00-4.48942E-04
 -1         5 0.00000E+00 0.00000E+00 0.00000E+00
 -1         6 0.00000E+00 0.00000E+00 0.00000E+00
 -1         7 4.98635E-04 0.00000E+00-8.05636E-07
 -1         8 6.01179E-04 0.00000E+00-4.48942E-04
 -1         9 1.42719E-03 0.00000E+00-3.45597E-06
 -1        10 1.42786E-03 0.00000E+00-6.22933E-04
 -1        11 1.42719E-03 0.00000E+00-3.45597E-06
 -1        12 1.42786E-03 0.00000E+00-6.22933E-04
 -1        13 2.23749E-03 0.00000E+00-7.33761E-06
 -1        14 2.19582E-03 0.00000E+00-4.96603E-04
 -1        15 2.23749E-03 0.00000E+00-7.33761E-06
 -1        16 2.19582E-03 0.00000E+00-4.96603E-04
 -1        17 2.62501E-03 0.00000E+00-5.52795E-06
 -1        18 2.58077E-03 0.00000E+00-2.48106E-04
 -1        19 2.62501E-03 0.00000E+00-5.52795E-06
 -1        20 2.58077E-03 0.00000E+00-2.48106E-04
 -1        21 2.65824E-03 0.00000E+00-2.00428E-06
 -1        22 2.63683E-03 0.00000E+00-5.66100E-05
 -1        23 2.65824E-03 0.00000E+00-2.00428E-06
 -1        24 2.63683E-03 0.00000E+00-5.66100E-05
 -1        25 2.57590E-03 0.00000E+00 1.68601E-06
 -1        26 2.57664E-03 0.00000E+00 2.53279E-05
 -1        27 2.57590E-03 0.00000E+00 1.68601E-06
 -1        28 2.57664E-03 0.00000E+00 2.53279E-05
 -1        29 2.50928E-03 0.00000E+00 5.44767E-06
 -1        30 2.51446E-03 0.00000E+00 4.52991E-05
 -1        31 2.50928E-03 0.00000E+00 5.44767E-06
 -1        32 2.51446E-03 0.00000E+00 4.52991E-05
 -1        33 2.46724E-03 0.00000E+00 9.21219E-06
 -1        34 2.47345E-03 0.00000E+00 5.41835E-05
 -1        35 2.46724E-03 0.00000E+00 9.21219E-06
 -1        36 2.47345E-03 0.00000E+00 5.41835E-05
 -1        37 2.41567E-03 0.00000E+00 1.35395E-05
 -1        38 2.42173E-03 0.00000E+00 6.15767E-05
 -1        39 2.41567E-03 0.00000E+00 1.35395E-05
 -1        40 2.42173E-03 0.00000E+00 6.15767E-05
 -1        41 2.36970E-03 0.00000E+00 1.90723E-05
 -1        42 2.37810E-03 0.00000E+00 6.32513E-05
 -1        43 2.36970E-03 0.00000E+00 1.90723E-05
 -1        44 2.37810E-03 0.00000E+00 6.32513E-05
 -1        45 2.33742E-03 0.00000E+00 2.63873E-05
 -1        46 2.34085E-03 0.00000E+00 6.93479E-05
 -1        47 2.33742E-03 0.00000E+00 2.63873E-05
 -1        48 2.34085E-03 0.00000E+00 6.93479E-05
 -1        49 2.30173E-03 0.00000E+00 3.63001E-05
 -1        50 2.30349E-03 0.00000E+00 8.78510E-05
 -1        51 2.30173E-03 0.00000E+00 3.63001E-05
 -1        52 2.30349E-03 0.00000E+00 8.78510E-05
 -1        53 2.24254E-03 0.00000E+00 5.03288E-05
 -1        54 2.24320E-03 0.00000E+00 1.08684E-04
 -1        55 2.24254E-03 0.00000E+00 5.03288E-05
 -1        56 2.24320E-03 0.00000E+00 1.08684E-04
 -1        57 2.18667E-03 0.00000E+00 6.98366E-05
 -1        58 2.18892E-03 0.00000E+00 1.25202E-04
 -1        59 2.18667E-03 0.00000E+00 6.98366E-05
 -1        60 2.18892E-03 0.00000E+00 1.25202E-04
 -1        61 2.14742E-03 0.00000E+00 9.62154E-05
 -1        62 2.14292E-03 0.00000E+00 1.50331E-04
 -1        63 2.14742E-03 0.00000E+00 9.62154E-05
 -1        64 2.14292E-03 0.00000E+00 1.50331E-04
 -1        65 2.10830E-03 0.00000E+00 1.31084E-04
 -1        66 2.09854E-03 0.00000E+00 1.96305E-04
 -1        67 2.10830E-03 0.00000E+00 1.31084E-04
 -1        68 2.09854E-03 0.00000E+00 1.96305E-04
 -1        69 2.04232E-03 0.00000E+00 1.75578E-04
 -1        70 2.02804E-03 0.00000E+00 2.56284E-04
 -1        71 2.04232E-03 0.00000E+00 1.75578E-04
 -1        72 2.02804E-03 0.00000E+00 2.56284E-04
 -1        73 1.95689E-03 0.00000E+00 2.26485E-04
 -1        74 1.94491E-03 0.00000E+00 3.15253E-04
 -1        75 1.95689E-03 0.00000E+00 2.26485E-04
 -1        76 1.94491E-03 0.00000E+00 3.15253E-04
 -1        77 1.86560E-03 0.00000E+00 2.74131E-04
 -1        78 1.85877E-03 0.00000E+00 3.63493E-04
 -1        79 1.86560E-03 0.00000E+00 2.74131E-04
 -1        80 1.85877E-03 0.00000E+00 3.63493E-04
 -1        81 1.77354E-03 0.00000E+00 3.22761E-04
 -1        82 1.76898E-03 0.00000E+00 3.88039E-04
 -1        83 1.77354E-03 0.00000E+00 3.22761E-04
 -1        84 1.76898E-03 0.00000E+00 3.88039E-04
 -1        85 0.00000E+00 0.00000E+00 0.00000E+00
 -1        86 6.34922E-04 0.00000E+00 4.46961E-04
 -1        87 0.00000E+00 0.00000E+00 0.00000E+00
 -1        88 6.34922E-04 0.00000E+00 4.46961E-04
 -1        89 1.46084E-03 0.00000E+00 6.14476E-04
 -1        90 1.46084E-03 0.00000E+00 6.14476E-04
 -1        91 2.22271E-03 0.00000E+00 4.83529E-04
 -1        92 2.22271E-03 0.00000E+00 4.83529E-04
 -1        93 2.60531E-03 0.00000E+00 2.37578E-04
 -1        94 2.60531E-03 0.00000E+00 2.37578E-04
 -1        95 2.65883E-03 0.00000E+00 5.28832E-05
 -1        96 2.65883E-03 0.00000E+00 5.28832E-05
 -1        97 2.60271E-03 0.00000E+00-2.20826E-05
 -1        98 2.60271E-03 0.00000E+00-2.20826E-05
 -1        99 2.53576E-03 0.00000E+00-3.50156E-05
 -1       100 2.53576E-03 0.00000E+00-3.50156E-05
 -1       101 2.49534E-03 0.00000E+00-3.55914E-05
 -1       102 2.49534E-03 0.00000E+00-3.55914E-05
 -1       103 2.44346E-03 0.00000E+00-3.35892E-05
 -1       104 2.44346E-03 0.00000E+00-3.35892E-05
 -1       105 2.40449E-03 0.00000E+00-2.44756E-05
 -1       106 2.40449E-03 0.00000E+00-2.44756E-05
 -1       107 2.36432E-03 0.00000E+00-1.60849E-05
 -1       108 2.36432E-03 0.00000E+00-1.60849E-05
 -1       109 2.32966E-03 0.00000E+00-1.36598E-05
 -1       110 2.32966E-03 0.00000E+00-1.36598E-05
 -1       111 2.27227E-03 0.00000E+00-5.61686E-06
 -1       112 2.27227E-03 0.00000E+00-5.61686E-06
 -1       113 2.22439E-03 0.00000E+00 1.69215E-05
 -1       114 2.22439E-03 0.00000E+00 1.69215E-05
 -1       115 2.17947E-03 0.00000E+00 4.51389E-05
 -1       116 2.17947E-03 0.00000E+00 4.51389E-05
 -1       117 2.14211E-03 0.00000E+00 7.04389E-05
 -1       118 2.14211E-03 0.00000E+00 7.04389E-05
 -1       119 2.07847E-03 0.00000E+00 9.87432E-05
 -1       120 2.07847E-03 0.00000E+00 9.87432E-05
 -1       121 1.99706E-03 0.00000E+00 1.36368E-04
 -1       122 1.99706E-03 0.00000E+00 1.36368E-04
 -1       123 1.89835E-03 0.00000E+00 1.77761E-04
 -1       124 1.89835E-03 0.00000E+00 1.77761E-04
 -1       125 1.79156E-03 0.00000E+00 2.09868E-04
 -1       126 1.79156E-03 0.00000E+00 2.09868E-04
 -3
    1PSTEP                        14           4           1          
  100CL  104 4.00000E-02         126                     1    4           1
 -4  STRESS      6    1
 -5  SXX         1    4    1    1
 -5  SYY         1    4    2    2
 -5  SZZ         1    4    3    3
 -5  SXY         1    4    1    2
 -5  SYZ         1    4    2    3
 -5  SZX         1    4    3    1
 -1         1-2.02329E+03-2.06453E+03-4.74758E+03-8.30386E-11-1.43727E-11 1.79556E+03
 -1         2 3.51080E+01 7.75812E+00 1.48233E+00-1.83240E-11-2.01698E-10 1.53378E+03
 -1         3-1.10936E+02-5.16027E+01-5.22571E+01-1.34964E-07-1.23636E-09 8.17021E+02
 -1         4-2.62235E+02-9.30583E+02-2.79919E+03-1.82016E-08-6.55937E-08 7.97623E+02
 -1         5-2.02329E+03-2.06453E+03-4.74758E+03-8.30386E-11-1.43727E-11 1.79556E+03
 -1         6 3.51080E+01 7.75812E+00 1.48233E+00-1.83231E-11-2.01698E-10 1.53378E+03
 -1         7-1.10936E+02-5.16027E+01-5.22571E+01-1.34964E-07-1.23635E-09 8.17021E+02
 -1         8-2.62235E+02-9.30583E+02-2.79919E+03-1.82017E-08-6.55937E-08 7.97623E+02
 -1         9-8.96850E+01-3.84543E+01-3.28464E+01 8.99337E-08-3.18882E-09 7.71561E+02
 -1        10-1.62210E+01-6.07958E+01-1.75344E+02 8.50898E-08-1.25598E-07 5.44297E+02
 -1        11-8.96850E+01-3.84543E+01-3.28464E+01 8.99337E-08-3.18883E-09 7.71561E+02
 -1        12-1.62210E+01-6.07958E+01-1.75344E+02 8.50897E-08-1.25598E-07 5.44297E+02
 -1        13-9.17500E+01-3.71663E+01-2.84781E+01 3.45065E-07-5.94708E-09 3.35054E+02
 -1        14 4.68779E+02 7.00146E+02 1.88190E+03 3.33296E-07 4.76087E-09 2.76025E+02
 -1        15-9.17500E+01-3.71663E+01-2.84781E+01 3.45065E-07-5.94708E-09 3.35054E+02
 -1        16 4.68779E+02 7.00146E+02 1.88190E+03 3.33296E-07 4.76089E-09 2.76025E+02
 -1        17-1.07065E+02-3.81404E+01-2.00666E+01 1.69810E-07 1.96444E-09-9.96696E+01
 -1        18 5.50550E+02 8.16798E+02 2.18965E+03 1.30780E-07 1.58883E-07-6.39377E+01
 -1        19-1.07065E+02-3.81404E+01-2.00666E+01 1.69810E-07 1.96443E-09-9.96696E+01
 -1        20 5.50550E+02 8.16798E+02 2.18965E+03 1.30779E-07 1.58883E-07-6.39377E+01
 -1        21-1.00833E+02-3.38041E+01-1.25387E+01-9.02337E-08 2.12530E-08-2.43878E+02
 -1        22 4.00534E+02 5.31964E+02 1.38000E+03-7.53252E-08 1.42701E-07-1.74843E+02
 -1        23-1.00833E+02-3.38041E+01-1.25387E+01-9.02337E-08 2.12530E-08-2.43878E+02
 -1        24 4.00534E+02 5.31964E+02 1.38000E+03-7.53253E-08 1.42701E-07-1.74843E+02
 -1        25-1.22294E+02-4.26757E+01-1.98150E+01-1.66756E-07-2.23199E-08-1.56187E+02
 -1        26 2.43479E+02 2.38632E+02 5.53363E+02-1.32317E-07 7.05313E-08-1.16054E+02
 -1        27-1.22294E+02-4.26757E+01-1.98150E+01-1.66757E-07-2.23199E-08-1.56187E+02
 -1        28 2.43479E+02 2.38632E+02 5.53363E+02-1.32317E-07 7.05313E-08-1.16054E+02
 -1        29-9.67921E+01-3.15862E+01-8.31804E+00-2.32562E-07-3.89554E-08-4.36316E+01
 -1        30 1.22758E+02 9.06759E+01 1.79654E+02-2.95791E-07 3.01580E-08-3.62204E+01
 -1        31-9.67921E+01-3.15862E+01-8.31804E+00-2.32562E-07-3.89554E-08-4.36316E+01
 -1        32 1.22758E+02 9.06759E+01 1.79654E+02-2.95791E-07 3.01580E-08-3.62204E+01
 -1        33-9.87215E+01-3.16575E+01-6.63286E+00-3.15282E-07-2.39906E-08-5.93679E+00
 -1        34 1.04779E+02 6.64066E+01 1.16643E+02-2.92482E-07 2.39257E-09-4.29251E+00
 -1        35-9.87215E+01-3.16575E+01-6.63286E+00-3.15282E-07-2.39906E-08-5.93679E+00
 -1        36 1.04779E+02 6.64066E+01 1.16643E+02-2.92482E-07 2.39258E-09-4.29251E+00
 -1        37-9.37606E+01-2.71895E+01 3.29282E+00-3.47568E-07 5.37365E-09-3.68833E+00
 -1        38 8.65656E+01 4.91059E+01 7.71600E+01-3.93894E-07-1.85592E-08 1.12045E+00
 -1        39-9.37606E+01-2.71895E+01 3.29282E+00-3.47568E-07 5.37365E-09-3.68833E+00
 -1        40 8.65656E+01 4.91059E+01 7.71600E+01-3.93894E-07-1.85592E-08 1.12046E+00
 -1        41-1.11991E+02-3.11127E+01 8.54966E+00-2.41037E-07 2.69404E-08 1.45228E+01
 -1        42 1.08652E+02 5.68459E+01 8.08866E+01-2.13719E-07-3.19873E-08 1.15298E+01
 -1        43-1.11991E+02-3.11127E+01 8.54966E+00-2.41037E-07 2.69404E-08 1.45228E+01
 -1        44 1.08652E+02 5.68459E+01 8.08866E+01-2.13719E-07-3.19873E-08 1.15298E+01
 -1        45-8.62708E+01-1.42657E+01 3.88769E+01-1.51881E-07 1.88389E-08 2.68084E+01
 -1        46 9.39977E+01 7.27584E+01 1.48632E+02-2.20080E-07-3.86812E-08 1.73953E+01
 -1        47-8.62708E+01-1.42657E+01 3.88769E+01-1.51881E-07 1.88389E-08 2.68084E+01
 -1        48 9.39977E+01 7.27584E+01 1.48632E+02-2.20080E-07-3.86812E-08 1.73953E+01
 -1        49-8.51446E+01-4.91180E+00 6.89596E+01-8.54187E-08 1.59659E-08 1.01263E+01
 -1        50 1.10107E+02 9.91097E+01 2.20452E+02-1.26003E-07-1.37903E-08 8.32926E+00
 -1        51-8.51446E+01-4.91180E+00 6.89596E+01-8.54191E-08 1.59659E-08 1.01263E+01
 -1        52 1.10107E+02 9.91097E+01 2.20452E+02-1.26003E-07-1.37903E-08 8.32926E+00
 -1        53-7.84765E+01 1.06193E+01 1.14096E+02-1.04014E-07-1.00722E-09-1.26681E+00
 -1        54 9.37589E+01 8.95134E+01 2.04775E+02-6.75293E-08 2.52437E-08 3.22655E+00
 -1        55-7.84765E+01 1.06193E+01 1.14096E+02-1.04013E-07-1.00723E-09-1.26681E+00
 -1        56 9.37589E+01 8.95134E+01 2.04775E+02-6.75297E-08 2.52437E-08 3.22655E+00
 -1        57-8.44430E+01 2.43011E+01 1.65846E+02-1.88857E-07 6.35864E-09 2.01350E+01
 -1        58 1.20648E+02 1.06685E+02 2.35186E+02-2.00453E-07 4.39646E-08 1.60464E+01
 -1        59-8.44430E+01 2.43011E+01 1.65846E+02-1.88856E-07 6.35863E-09 2.01350E+01
 -1        60 1.20648E+02 1.06685E+02 2.35186E+02-2.00453E-07 4.39646E-08 1.60464E+01
 -1        61-5.49936E+01 5.72156E+01 2.46158E+02-2.22842E-07 1.77215E-08 4.11505E+01
 -1        62 1.15934E+02 1.43502E+02 3.62948E+02-2.16461E-07 1.45597E-08 2.73945E+01
 -1        63-5.49936E+01 5.72156E+01 2.46158E+02-2.22842E-07 1.77215E-08 4.11505E+01
 -1        64 1.15934E+02 1.43502E+02 3.62948E+02-2.16461E-07 1.45597E-08 2.73945E+01
 -1        65-5.07279E+01 8.29653E+01 3.27934E+02-2.10995E-07 1.72832E-08 3.17520E+01
 -1        66 1.39942E+02 1.99772E+02 5.27055E+02-2.48232E-07-3.08658E-08 2.37522E+01
 -1        67-5.07279E+01 8.29653E+01 3.27934E+02-2.10995E-07 1.72831E-08 3.17520E+01
 -1        68 1.39942E+02 1.99772E+02 5.27055E+02-2.48232E-07-3.08658E-08 2.37522E+01
 -1        69-5.01761E+01 1.04416E+02 3.99092E+02-1.40828E-07 1.75219E-08 9.10932E+00
 -1        70 1.21718E+02 2.09167E+02 5.76798E+02-1.43007E-07-7.35196E-08 1.16485E+01
 -1        71-5.01761E+01 1.04416E+02 3.99092E+02-1.40828E-07 1.75219E-08 9.10932E+00
 -1        72 1.21718E+02 2.09167E+02 5.76798E+02-1.43007E-07-7.35196E-08 1.16485E+01
 -1        73-5.18318E+01 1.07897E+02 4.12434E+02-3.37405E-08-3.94636E-10 2.92834E+00
 -1        74 1.19436E+02 1.92745E+02 5.24125E+02-5.79685E-09-8.41750E-08 1.24023E+01
 -1        75-5.18318E+01 1.07897E+02 4.12434E+02-3.37406E-08-3.94690E-10 2.92834E+00
 -1        76 1.19436E+02 1.92745E+02 5.24125E+02-5.79699E-09-8.41750E-08 1.24023E+01
 -1        77 1.05583E+01 1.31669E+02 4.29204E+02 4.26702E-08-1.60338E-09 3.27044E+00
 -1        78 9.56314E+01 1.37159E+02 3.62100E+02 3.91088E-08-6.94442E-08 4.08161E+00
 -1        79 1.05583E+01 1.31669E+02 4.29204E+02 4.26702E-08-1.60337E-09 3.27044E+00
 -1        80 9.56314E+01 1.37159E+02 3.62100E+02 3.91087E-08-6.94443E-08 4.08161E+00
 -1        81 1.04204E+02 1.73101E+02 4.73715E+02 1.14507E-07 2.56079E-09-9.53610E+00
 -1        82 6.52246E+01 9.27791E+01 2.44288E+02 1.59332E-07-7.56814E-08-7.56587E+01
 -1        83 1.04204E+02 1.73101E+02 4.73715E+02 1.14507E-07 2.56078E-09-9.53610E+00
 -1        84 6.52246E+01 9.27791E+01 2.44288E+02 1.59333E-07-7.56813E-08-7.56587E+01
 -1        85 2.11853E+03 2.07214E+03 4.90504E+03-3.63089E-11-1.65556E-10 2.01104E+03
 -1        86 2.65592E+01 8.24715E+02 2.76385E+03-1.20842E-07 6.69295E-08 8.90769E+02
 -1        87 2.11853E+03 2.07214E+03 4.90504E+03-3.63156E-11-1.65556E-10 2.01104E+03
 -1        88 2.65592E+01 8.24715E+02 2.76385E+03-1.20842E-07 6.69295E-08 8.90769E+02
 -1        89-1.91836E+02-2.51267E+01 1.19331E+02 8.57971E-08 1.33533E-07 5.44904E+02
 -1        90-1.91836E+02-2.51267E+01 1.19331E+02 8.57970E-08 1.33533E-07 5.44904E+02
 -1        91-6.59394E+02-7.74753E+02-1.90633E+03 2.39050E-07 6.71732E-09 2.43376E+02
 -1        92-6.59394E+02-7.74753E+02-1.90633E+03 2.39051E-07 6.71735E-09 2.43376E+02
 -1        93-7.71169E+02-8.98056E+02-2.20463E+03 2.07628E-07-1.38704E-07-8.04349E+01
 -1        94-7.71169E+02-8.98056E+02-2.20463E+03 2.07628E-07-1.38704E-07-8.04349E+01
 -1        95-6.05850E+02-6.02558E+02-1.39531E+03-5.68342E-08-1.39404E-07-1.72169E+02
 -1        96-6.05850E+02-6.02558E+02-1.39531E+03-5.68338E-08-1.39404E-07-1.72169E+02
 -1        97-4.91130E+02-3.26753E+02-5.96209E+02-1.94598E-07-1.03963E-07-1.15611E+02
 -1        98-4.91130E+02-3.26753E+02-5.96209E+02-1.94598E-07-1.03963E-07-1.15611E+02
 -1        99-3.15764E+02-1.53261E+02-1.94674E+02-1.94936E-07-9.80085E-08-4.06353E+01
 -1       100-3.15764E+02-1.53261E+02-1.94674E+02-1.94935E-07-9.80085E-08-4.06353E+01
 -1       101-2.98739E+02-1.26241E+02-1.21728E+02-3.25673E-07-5.67769E-08-4.21786E+00
 -1       102-2.98739E+02-1.26241E+02-1.21728E+02-3.25673E-07-5.67769E-08-4.21786E+00
 -1       103-2.73054E+02-1.02430E+02-6.80842E+01-3.31060E-07 2.78055E-08 5.15265E+00
 -1       104-2.73054E+02-1.02430E+02-6.80842E+01-3.31060E-07 2.78055E-08 5.15265E+00
 -1       105-3.33592E+02-1.20020E+02-6.60359E+01-2.31412E-07 8.51087E-08 1.21079E+01
 -1       106-3.33592E+02-1.20020E+02-6.60359E+01-2.31412E-07 8.51087E-08 1.21079E+01
 -1       107-2.64294E+02-9.90742E+01-6.56811E+01-1.02461E-07 7.94338E-08 1.54547E+01
 -1       108-2.64294E+02-9.90742E+01-6.56811E+01-1.02461E-07 7.94338E-08 1.54547E+01
 -1       109-2.75997E+02-1.04544E+02-7.21743E+01-1.05399E-07 1.46366E-08 1.19792E+01
 -1       110-2.75997E+02-1.04544E+02-7.21743E+01-1.05399E-07 1.46366E-08 1.19792E+01
 -1       111-2.48793E+02-6.63276E+01 2.80355E+01-1.34986E-07-2.81419E-08 1.00263E+01
 -1       112-2.48793E+02-6.63276E+01 2.80355E+01-1.34986E-07-2.81419E-08 1.00263E+01
 -1       113-2.88076E+02-5.66116E+01 9.99106E+01-1.85705E-07-1.38327E-08 1.98470E+01
 -1       114-2.88076E+02-5.66116E+01 9.99106E+01-1.85704E-07-1.38327E-08 1.98470E+01
 -1       115-2.20977E+02-2.41636E+01 1.40875E+02-2.08165E-07 2.72707E-08 3.04028E+01
 -1       116-2.20977E+02-2.41636E+01 1.40875E+02-2.08165E-07 2.72707E-08 3.04028E+01
 -1       117-2.39505E+02-3.19807E+01 1.33387E+02-1.74021E-07 6.26233E-08 3.09875E+01
 -1       118-2.39505E+02-3.19807E+01 1.33387E+02-1.74022E-07 6.26233E-08 3.09875E+01
 -1       119-2.35835E+02-1.40947E+01 1.89443E+02-1.44336E-07 7.88500E-08 1.29292E+01
 -1       120-2.35835E+02-1.40947E+01 1.89443E+02-1.44336E-07 7.88500E-08 1.29292E+01
 -1       121-2.48254E+02-2.11400E+00 2.41986E+02-5.92124E-08 8.60496E-08-2.67542E-01
 -1       122-2.48254E+02-2.11400E+00 2.41986E+02-5.92122E-08 8.60496E-08-2.67542E-01
 -1       123-1.81089E+02 1.94835E+01 2.46623E+02 3.90547E-08 7.98893E-08-2.00624E+01
 -1       124-1.81089E+02 1.94835E+01 2.46623E+02 3.90546E-08 7.98893E-08-2.00624E+01
 -1       125-4.38998E+01 6.61918E+01 2.64871E+02 9.89026E-08 7.17729E-08 1.84343E+01
 -1       126-4.38998E+01 6.61918E+01 2.64871E+02 9.89033E-08 7.17729E-08 1.84343E+01
 -3
    1PSTEP                        15           4           1          
  100CL  104 4.00000E-02         126                     1    4           1
 -4  TOSTRAIN    6    1
 -5  EXX         1    4    1    1
 -5  EYY         1    4    2    2
 -5  EZZ         1    4    3    3
 -5  EXY         1    4    1    2
 -5  EYZ         1    4    2    3
 -5  EZX         1    4    3    1
 -1         1-7.07976E-06-5.98779E-27-8.87308E-03-2.97159E-16 1.52050E-18 6.01165E-03
 -1         2-7.16825E-06-5.75330E-26 2.64392E-05-2.09385E-17 4.03807E-20 4.98621E-03
 -1         3-2.98625E-04 2.30629E-25 7.22758E-05-4.38770E-13-7.49581E-15 2.65404E-03
 -1         4 2.08892E-03 1.31124E-26-6.10571E-03-5.63718E-14-2.15185E-13 2.70039E-03
 -1         5-7.07976E-06-5.98779E-27-8.87308E-03-2.97159E-16 1.52050E-18 6.01165E-03
 -1         6-7.16825E-06-5.75330E-26 2.64392E-05-2.09356E-17 4.04105E-20 4.98621E-03
 -1         7-2.98625E-04 2.30629E-25 7.22758E-05-4.38770E-13-7.49581E-15 2.65404E-03
 -1         8 2.08892E-03 1.31124E-26-6.10571E-03-5.63719E-14-2.15185E-13 2.70039E-03
 -1         9-2.54017E-04-8.21350E-26 8.55889E-05 2.92517E-13-6.73164E-15 2.50466E-03
 -1        10 8.92847E-05 2.84437E-25-3.45645E-04 2.82952E-13-4.04814E-13 1.78138E-03
 -1        11-2.54017E-04-8.21350E-26 8.55889E-05 2.92517E-13-6.73166E-15 2.50466E-03
 -1        12 8.92847E-05 2.84436E-25-3.45645E-04 2.82952E-13-4.04814E-13 1.78138E-03
 -1        13-2.21993E-04 2.34569E-24 5.86263E-05 1.12197E-12-8.39279E-15 1.08688E-03
 -1        14-7.86541E-04 2.10678E-24 3.82842E-03 1.08204E-12 2.58695E-14 8.48698E-04
 -1        15-2.21993E-04 2.34569E-24 5.86263E-05 1.12197E-12-8.39278E-15 1.08688E-03
 -1        16-7.86541E-04 2.10678E-24 3.82842E-03 1.08204E-12 2.58696E-14 8.48698E-04
 -1        17-2.34914E-04 3.63083E-25 6.68432E-05 5.51971E-13 9.09088E-15-3.25300E-04
 -1        18-8.74108E-04 6.13862E-25 4.42319E-03 4.22306E-13 5.15318E-13-2.33349E-04
 -1        19-2.34914E-04 3.63086E-25 6.68432E-05 5.51973E-13 9.09086E-15-3.25300E-04
 -1        20-8.74108E-04 6.13856E-25 4.42319E-03 4.22303E-13 5.15318E-13-2.33349E-04
 -1        21-2.20057E-04-2.34629E-26 7.22180E-05-2.93323E-13 6.87593E-14-7.92970E-04
 -1        22-4.28302E-04 4.03455E-25 2.73858E-03-2.44617E-13 4.61744E-13-5.68169E-04
 -1        23-2.20057E-04-2.34630E-26 7.22180E-05-2.93323E-13 6.87593E-14-7.92970E-04
 -1        24-4.28302E-04 4.03456E-25 2.73858E-03-2.44617E-13 4.61744E-13-5.68169E-04
 -1        25-2.60576E-04 5.50606E-25 7.55241E-05-5.42248E-13-7.22550E-14-5.07529E-04
 -1        26 1.48833E-05 3.77745E-25 1.02041E-03-4.29516E-13 2.29107E-13-3.75162E-04
 -1        27-2.60576E-04 5.50606E-25 7.55241E-05-5.42249E-13-7.22550E-14-5.07529E-04
 -1        28 1.48833E-05 3.77742E-25 1.02041E-03-4.29515E-13 2.29107E-13-3.75162E-04
 -1        29-2.12642E-04 1.13542E-24 7.58770E-05-7.56180E-13-1.25994E-13-1.41571E-04
 -1        30 1.03940E-04 1.78956E-24 2.89146E-04-9.60938E-13 9.87290E-14-1.17382E-04
 -1        31-2.12642E-04 1.13542E-24 7.58770E-05-7.56179E-13-1.25994E-13-1.41571E-04
 -1        32 1.03940E-04 1.78957E-24 2.89146E-04-9.60939E-13 9.87290E-14-1.17382E-04
 -1        33-2.18407E-04 2.09762E-24 8.13603E-05-1.02503E-12-7.70493E-14-1.90266E-05
 -1        34 1.24625E-04 1.78621E-24 1.63219E-04-9.50303E-13 8.62817E-15-1.39076E-05
 -1        35-2.18407E-04 2.09762E-24 8.13603E-05-1.02503E-12-7.70493E-14-1.90266E-05
 -1        36 1.24625E-04 1.78621E-24 1.63219E-04-9.50303E-13 8.62819E-15-1.39076E-05
 -1        37-2.16772E-04 2.52775E-24 9.90783E-05-1.12989E-12 1.85363E-14-1.16920E-05
 -1        38 1.21702E-04 3.20098E-24 9.11372E-05-1.27992E-12-5.90812E-14 3.61729E-06
 -1        39-2.16772E-04 2.52775E-24 9.90783E-05-1.12989E-12 1.85363E-14-1.16920E-05
 -1        40 1.21702E-04 3.20098E-24 9.11372E-05-1.27992E-12-5.90812E-14 3.61729E-06
 -1        41-2.63415E-04 1.19848E-24 1.28796E-04-7.83562E-13 8.82375E-14 4.75323E-05
 -1        42 1.68352E-04 9.17733E-25 7.80411E-05-6.94465E-13-1.03325E-13 3.73671E-05
 -1        43-2.63415E-04 1.19848E-24 1.28796E-04-7.83563E-13 8.82375E-14 4.75323E-05
 -1        44 1.68352E-04 9.17733E-25 7.80411E-05-6.94465E-13-1.03325E-13 3.73671E-05
 -1        45-2.34241E-04 4.51771E-25 1.72516E-04-4.93705E-13 6.16383E-14 8.74503E-05
 -1        46 6.90950E-05 1.01249E-24 2.46303E-04-7.15191E-13-1.25048E-13 5.66317E-05
 -1        47-2.34241E-04 4.51769E-25 1.72516E-04-4.93704E-13 6.16383E-14 8.74503E-05
 -1        48 6.90950E-05 1.01249E-24 2.46303E-04-7.15190E-13-1.25048E-13 5.66317E-05
 -1        49-2.61108E-04 1.48562E-25 2.39910E-04-2.77638E-13 5.21595E-14 3.34104E-05
 -1        50 3.57331E-05 3.08091E-25 3.93923E-04-4.09452E-13-4.43667E-14 2.74074E-05
 -1        51-2.61108E-04 1.48564E-25 2.39910E-04-2.77639E-13 5.21595E-14 3.34104E-05
 -1        52 3.57331E-05 3.08092E-25 3.93923E-04-4.09453E-13-4.43667E-14 2.74074E-05
 -1        53-2.89959E-04 2.10343E-25 3.36071E-04-3.38136E-13-2.88447E-15-3.41475E-06
 -1        54 1.38163E-05 6.55912E-26 3.74225E-04-2.19332E-13 8.22564E-14 1.08960E-05
 -1        55-2.89959E-04 2.10342E-25 3.36071E-04-3.38135E-13-2.88450E-15-3.41475E-06
 -1        56 1.38163E-05 6.55927E-26 3.74225E-04-2.19333E-13 8.22564E-14 1.08960E-05
 -1        57-3.53943E-04 7.37813E-25 4.59421E-04-6.13947E-13 2.13200E-14 6.62125E-05
 -1        58 4.54690E-05 8.51346E-25 4.17051E-04-6.51150E-13 1.43515E-13 5.24706E-05
 -1        59-3.53943E-04 7.37812E-25 4.59421E-04-6.13947E-13 2.13200E-14 6.62125E-05
 -1        60 4.54690E-05 8.51346E-25 4.17051E-04-6.51150E-13 1.43515E-13 5.24706E-05
 -1        61-3.64874E-04 1.05520E-24 6.12947E-04-7.24365E-13 5.83146E-14 1.34534E-04
 -1        62-8.94126E-05 9.88282E-25 7.11677E-04-7.03297E-13 4.80305E-14 8.96776E-05
 -1        63-3.64874E-04 1.05520E-24 6.12947E-04-7.24366E-13 5.83146E-14 1.34534E-04
 -1        64-8.94126E-05 9.88276E-25 7.11677E-04-7.03295E-13 4.80305E-14 8.96776E-05
 -1        65-4.34798E-04 9.28306E-25 7.94498E-04-6.85851E-13 5.69749E-14 1.04536E-04
 -1        66-1.94321E-04 1.28261E-24 1.06075E-03-8.06677E-13-9.91159E-14 7.86158E-05
 -1        67-4.34798E-04 9.28304E-25 7.94498E-04-6.85850E-13 5.69749E-14 1.04536E-04
 -1        68-1.94321E-04 1.28261E-24 1.06075E-03-8.06678E-13-9.91158E-14 7.86158E-05
 -1        69-5.02877E-04 3.76520E-25 9.55590E-04-4.57733E-13 5.75957E-14 3.18231E-05
 -1        70-2.84133E-04 4.61749E-25 1.19133E-03-4.65060E-13-2.37800E-13 4.00872E-05
 -1        71-5.02877E-04 3.76520E-25 9.55590E-04-4.57732E-13 5.75958E-14 3.18231E-05
 -1        72-2.84133E-04 4.61748E-25 1.19133E-03-4.65060E-13-2.37800E-13 4.00872E-05
 -1        73-5.19694E-04-3.43655E-26 9.87540E-04-1.09688E-13-1.08715E-15 1.21893E-05
 -1        74-2.38127E-04 8.56478E-26 1.07406E-03-1.92971E-14-2.73128E-13 4.24950E-05
 -1        75-5.19694E-04-3.43652E-26 9.87540E-04-1.09689E-13-1.08732E-15 1.21893E-05
 -1        76-2.38127E-04 8.56479E-26 1.07406E-03-1.92976E-14-2.73127E-13 4.24950E-05
 -1        77-3.93915E-04 3.63760E-29 9.64855E-04 1.38686E-13-5.46288E-15 1.31663E-05
 -1        78-1.34909E-04 8.93028E-26 7.29654E-04 1.26688E-13-2.25691E-13 1.47572E-05
 -1        79-3.93915E-04 3.62687E-29 9.64855E-04 1.38686E-13-5.46284E-15 1.31663E-05
 -1        80-1.34909E-04 8.93025E-26 7.29654E-04 1.26687E-13-2.25692E-13 1.47572E-05
 -1        81-2.24060E-04 2.36677E-25 9.74709E-04 3.72107E-13 7.65226E-15-2.86304E-05
 -1        82-9.04300E-05 5.78413E-25 4.92595E-04 5.17327E-13-2.46471E-13-2.44754E-04
 -1        83-2.24060E-04 2.36676E-25 9.74709E-04 3.72106E-13 7.65222E-15-2.86304E-05
 -1        84-9.04300E-05 5.78415E-25 4.92595E-04 5.17329E-13-2.46470E-13-2.44754E-04
 -1        85-7.25674E-06-6.50056E-26 9.05229E-03 1.52113E-16-1.36792E-18 6.34907E-03
 -1        86-2.68617E-03 2.75858E-25 6.27161E-03-3.95844E-13 2.12705E-13 2.77896E-03
 -1        87-7.25674E-06-6.50056E-26 9.05229E-03 1.52091E-16-1.36814E-18 6.34907E-03
 -1        88-2.68617E-03 2.75859E-25 6.27161E-03-3.95844E-13 2.12705E-13 2.77896E-03
 -1        89-5.97318E-04 3.18708E-25 4.95478E-04 2.72214E-13 4.37175E-13 1.75191E-03
 -1        90-5.97318E-04 3.18707E-25 4.95478E-04 2.72214E-13 4.37175E-13 1.75191E-03
 -1        91 3.42556E-04 1.08112E-24-3.68978E-03 7.77788E-13 2.96192E-14 8.33830E-04
 -1        92 3.42556E-04 1.08112E-24-3.68978E-03 7.77790E-13 2.96193E-14 8.33830E-04
 -1        93 4.04279E-04 1.09938E-24-4.28359E-03 6.77770E-13-4.50131E-13-2.39124E-04
 -1        94 4.04279E-04 1.09938E-24-4.28359E-03 6.77768E-13-4.50131E-13-2.39124E-04
 -1        95-1.18131E-05 2.32760E-25-2.59268E-03-1.84957E-13-4.55028E-13-5.60418E-04
 -1        96-1.18131E-05 2.32761E-25-2.59268E-03-1.84956E-13-4.55028E-13-5.60418E-04
 -1        97-5.36036E-04 9.75540E-25-8.77747E-04-6.33624E-13-3.38116E-13-3.77487E-04
 -1        98-5.36036E-04 9.75541E-25-8.77747E-04-6.33624E-13-3.38116E-13-3.77487E-04
 -1        99-5.29224E-04 9.60415E-25-1.34463E-04-6.34430E-13-3.18156E-13-1.31970E-04
 -1       100-5.29224E-04 9.60411E-25-1.34463E-04-6.34429E-13-3.18156E-13-1.31970E-04
 -1       101-5.61440E-04 2.26707E-24 1.46949E-05-1.05949E-12-1.83625E-13-1.31982E-05
 -1       102-5.61440E-04 2.26707E-24 1.46949E-05-1.05949E-12-1.83625E-13-1.31982E-05
 -1       103-5.55247E-04 2.30084E-24 1.11582E-04-1.07670E-12 9.13899E-14 1.73690E-05
 -1       104-5.55247E-04 2.30084E-24 1.11582E-04-1.07670E-12 9.13899E-14 1.73690E-05
 -1       105-6.95183E-04 1.22409E-24 1.75364E-04-7.52586E-13 2.77280E-13 4.01274E-05
 -1       106-6.95183E-04 1.22409E-24 1.75364E-04-7.52586E-13 2.77280E-13 4.01274E-05
 -1       107-5.37577E-04 3.00356E-25 1.08439E-04-3.33050E-13 2.58466E-13 5.08020E-05
 -1       108-5.37577E-04 3.00357E-25 1.08439E-04-3.33050E-13 2.58466E-13 5.08020E-05
 -1       109-5.57949E-04 2.29029E-25 1.05129E-04-3.42770E-13 4.79166E-14 3.96334E-05
 -1       110-5.57949E-04 2.29029E-25 1.05129E-04-3.42770E-13 4.79165E-14 3.96334E-05
 -1       111-5.93734E-04 3.87570E-25 3.06415E-04-4.39122E-13-9.09548E-14 3.35639E-05
 -1       112-5.93734E-04 3.87568E-25 3.06415E-04-4.39121E-13-9.09548E-14 3.35639E-05
 -1       113-7.53355E-04 7.25348E-25 5.08098E-04-6.04109E-13-4.42995E-14 6.57939E-05
 -1       114-7.53355E-04 7.25346E-25 5.08098E-04-6.04108E-13-4.42995E-14 6.57939E-05
 -1       115-6.40335E-04 9.25309E-25 5.35634E-04-6.76933E-13 8.92800E-14 9.99203E-05
 -1       116-6.40335E-04 9.25310E-25 5.35634E-04-6.76933E-13 8.92800E-14 9.99203E-05
 -1       117-6.75274E-04 7.07245E-25 5.36699E-04-5.65788E-13 2.04111E-13 1.02099E-04
 -1       118-6.75274E-04 7.07249E-25 5.36699E-04-5.65789E-13 2.04111E-13 1.02099E-04
 -1       119-7.21622E-04 5.45200E-25 6.60542E-04-4.69073E-13 2.56815E-13 4.41093E-05
 -1       120-7.21622E-04 5.45200E-25 6.60542E-04-4.69073E-13 2.56815E-13 4.41093E-05
 -1       121-8.01261E-04 1.72163E-25 7.92092E-04-1.92088E-13 2.79783E-13 2.01201E-06
 -1       122-8.01261E-04 1.72163E-25 7.92092E-04-1.92088E-13 2.79783E-13 2.01201E-06
 -1       123-6.52920E-04 1.20085E-25 7.37345E-04 1.27542E-13 2.59186E-13-6.24006E-05
 -1       124-6.52920E-04 1.20085E-25 7.37345E-04 1.27541E-13 2.59186E-13-6.24006E-05
 -1       125-3.57691E-04 2.85000E-25 6.44571E-04 3.22004E-13 2.32344E-13 6.21274E-05
 -1       126-3.57691E-04 2.85003E-25 6.44571E-04 3.22006E-13 2.32344E-13 6.21274E-05
 -3
    1PSTEP                        16           4           1          
  100CL  104 4.00000E-02         126                     1    4           1
 -4  ERROR       1    1
 -5  STR(%)      1    1    0    0
 -1         1 6.07647E+01
 -1         2 6.28640E+01
 -1         3 6.99000E+01
 -1         4 6.99000E+01
 -1         5 6.07647E+01
 -1         6 6.28640E+01
 -1         7 6.99000E+01
 -1         8 6.99000E+01
 -1         9 6.99000E+01
 -1        10 6.99000E+01
 -1        11 6.99000E+01
 -1        12 6.99000E+01
 -1        13 5.76345E+01
 -1        14 5.76345E+01
 -1        15 5.76345E+01
 -1        16 5.76345E+01
 -1        17 5.76345E+01
 -1        18 5.76345E+01
 -1        19 5.76345E+01
 -1        20 5.76345E+01
 -1        21 5.55738E+01
 -1        22 5.55738E+01
 -1        23 5.55738E+01
 -1        24 5.55738E+01
 -1        25 3.81346E+01
 -1        26 3.81346E+01
 -1        27 3.81346E+01
 -1        28 3.81346E+01
 -1        29 1.83828E+01
 -1        30 1.83828E+01
 -1        31 1.83828E+01
 -1        32 1.83828E+01
 -1        33 1.65560E+01
 -1        34 1.65560E+01
 -1        35 1.65560E+01
 -1        36 1.65560E+01
 -1        37 8.84839E+00
 -1        38 8.84839E+00
 -1        39 8.84839E+00
 -1        40 8.84839E+00
 -1        41 1.39859E+01
 -1        42 1.39859E+01
 -1        43 1.39859E+01
 -1        44 1.39859E+01
 -1        45 1.39859E+01
 -1        46 1.39859E+01
 -1        47 1.39859E+01
 -1        48 1.39859E+01
 -1        49 1.35106E+01
 -1        50 1.35106E+01
 -1        51 1.35106E+01
 -1        52 1.35106E+01
 -1        53 1.04555E+01
 -1        54 1.04555E+01
 -1        55 1.04555E+01
 -1        56 1.04555E+01
 -1        57 8.04236E+00
 -1        58 3.47495E+00
 -1        59 8.04236E+00
 -1        60 3.47495E+00
 -1        61 6.39929E+00
 -1        62 5.28949E+00
 -1        63 6.39929E+00
 -1        64 5.28949E+00
 -1        65 2.30486E+01
 -1        66 7.63498E+00
 -1        67 2.30486E+01
 -1        68 7.63498E+00
 -1        69 2.30486E+01
 -1        70 7.63498E+00
 -1        71 2.30486E+01
 -1        72 7.63498E+00
 -1        73 1.43969E+01
 -1        74 3.20596E+00
 -1        75 1.43969E+01
 -1        76 3.20596E+00
 -1        77 2.32215E+01
 -1        78 2.27207E+01
 -1        79 2.32215E+01
 -1        80 2.27207E+01
 -1        81 2.32215E+01
 -1        82 2.27207E+01
 -1        83 2.32215E+01
 -1        84 2.27207E+01
 -1        85 6.28640E+01
 -1        86 6.28640E+01
 -1        87 6.28640E+01
 -1        88 6.28640E+01
 -1        89 6.21877E+01
 -1        90 6.21877E+01
 -1        91 5.58561E+01
 -1        92 5.58561E+01
 -1        93 5.58561E+01
 -1        94 5.58561E+01
 -1        95 5.32158E+01
 -1        96 5.32158E+01
 -1        97 2.84105E+01
 -1        98 2.84105E+01
 -1        99 9.34512E+00
 -1       100 9.34512E+00
 -1       101 2.36852E+00
 -1       102 2.36852E+00
 -1       103 4.98857E+00
 -1       104 4.98857E+00
 -1       105 5.89498E+00
 -1       106 5.89498E+00
 -1       107 5.89498E+00
 -1       108 5.89498E+00
 -1       109 3.49677E+00
 -1       110 3.49677E+00
 -1       111 8.04236E+00
 -1       112 8.04236E+00
 -1       113 8.04236E+00
 -1       114 8.04236E+00
 -1       115 6.39929E+00
 -1       116 6.39929E+00
 -1       117 2.30486E+01
 -1       118 2.30486E+01
 -1       119 2.30486E+01
 -1       120 2.30486E+01
 -1       121 1.43969E+01
 -1       122 1.43969E+01
 -1       123 2.32215E+01
 -1       124 2.32215E+01
 -1       125 2.32215E+01
 -1       126 2.32215E+01
 -3
    1PSTEP                        17           5           1          
  100CL  105 5.00000E-02         126                     1    5           1
 -4  DISP        4    1
 -5  D1          1    2    1    0
 -5  D2          1    2    2    0
 -5  D3          1    2    3    0
 -5  ALL         1    2    0    0    1ALL
 -1         1 0.00000E+00 0.00000E+00 0.00000E+00
 -1         2 0.00000E+00 0.00000E+00 0.00000E+00
 -1         3 5.00699E-04 0.00000E+00-4.08103E-06
 -1         4 5.92874E-04 0.00000E+00-5.04228E-04
 -1         5 0.00000E+00 0.00000E+00 0.00000E+00
 -1         6 0.00000E+00 0.00000E+00 0.00000E+00
 -1         7 5.00699E-04 0.00000E+00-4.08103E-06
 -1         8 5.92874E-04 0.00000E+00-5.04228E-04
 -1         9 1.46286E-03 0.00000E+00-3.58408E-06
 -1        10 1.46203E-03 0.00000E+00-7.83120E-04
 -1        11 1.46286E-03 0.00000E+00-3.58408E-06
 -1        12 1.46203E-03 0.00000E+00-7.83120E-04
 -1        13 2.55870E-03 0.00000E+00-5.48050E-06
 -1        14 2.50854E-03 0.00000E+00-7.84545E-04
 -1        15 2.55870E-03 0.00000E+00-5.48050E-06
 -1        16 2.50854E-03 0.00000E+00-7.84545E-04
 -1        17 3.41125E-03 0.00000E+00-7.44381E-06
 -1        18 3.32883E-03 0.00000E+00-5.49357E-04
 -1        19 3.41125E-03 0.00000E+00-7.44381E-06
 -1        20 3.32883E-03 0.00000E+00-5.49357E-04
 -1        21 3.76632E-03 0.00000E+00-3.84277E-06
 -1        22 3.69139E-03 0.00000E+00-2.41199E-04
 -1        23 3.76632E-03 0.00000E+00-3.84277E-06
 -1        24 3.69139E-03 0.00000E+00-2.41199E-04
 -1        25 3.75386E-03 0.00000E+00 3.64935E-06
 -1        26 3.70529E-03 0.00000E+00-2.04621E-05
 -1        27 3.75386E-03 0.00000E+00 3.64935E-06
 -1        28 3.70529E-03 0.00000E+00-2.04621E-05
 -1        29 3.60846E-03 0.00000E+00 1.20302E-05
 -1        30 3.58522E-03 0.00000E+00 7.54926E-05
 -1        31 3.60846E-03 0.00000E+00 1.20302E-05
 -1        32 3.58522E-03 0.00000E+00 7.54926E-05
 -1        33 3.48413E-03 0.00000E+00 1.97606E-05
 -1        34 3.47164E-03 0.00000E+00 9.45295E-05
 -1        35 3.48413E-03 0.00000E+00 1.97606E-05
 -1        36 3.47164E-03 0.00000E+00 9.45295E-05
 -1        37 3.40648E-03 0.00000E+00 2.96588E-05
 -1        38 3.39356E-03 0.00000E+00 9.33426E-05
 -1        39 3.40648E-03 0.00000E+00 2.96588E-05
 -1        40 3.39356E-03 0.00000E+00 9.33426E-05
 -1        41 3.35363E-03 0.00000E+00 4.45099E-05
 -1        42 3.33775E-03 0.00000E+00 9.95110E-05
 -1        43 3.35363E-03 0.00000E+00 4.45099E-05
 -1        44 3.33775E-03 0.00000E+00 9.95110E-05
 -1        45 3.29710E-03 0.00000E+00 6.34205E-05
 -1        46 3.28132E-03 0.00000E+00 1.14845E-04
 -1        47 3.29710E-03 0.00000E+00 6.34205E-05
 -1        48 3.28132E-03 0.00000E+00 1.14845E-04
 -1        49 3.24430E-03 0.00000E+00 8.60642E-05
 -1        50 3.22770E-03 0.00000E+00 1.36125E-04
 -1        51 3.24430E-03 0.00000E+00 8.60642E-05
 -1        52 3.22770E-03 0.00000E+00 1.36125E-04
 -1        53 3.19423E-03 0.00000E+00 1.16137E-04
 -1        54 3.17394E-03 0.00000E+00 1.65735E-04
 -1        55 3.19423E-03 0.00000E+00 1.16137E-04
 -1        56 3.17394E-03 0.00000E+00 1.65735E-04
 -1        57 3.14667E-03 0.00000E+00 1.55991E-04
 -1        58 3.12465E-03 0.00000E+00 2.06386E-04
 -1        59 3.14667E-03 0.00000E+00 1.55991E-04
 -1        60 3.12465E-03 0.00000E+00 2.06386E-04
 -1        61 3.09256E-03 0.00000E+00 2.03441E-04
 -1        62 3.06913E-03 0.00000E+00 2.58219E-04
 -1        63 3.09256E-03 0.00000E+00 2.03441E-04
 -1        64 3.06913E-03 0.00000E+00 2.58219E-04
 -1        65 3.03381E-03 0.00000E+00 2.54892E-04
 -1        66 3.01052E-03 0.00000E+00 3.20207E-04
 -1        67 3.03381E-03 0.00000E+00 2.54892E-04
 -1        68 3.01052E-03 0.00000E+00 3.20207E-04
 -1        69 2.95158E-03 0.00000E+00 3.06431E-04
 -1        70 2.93204E-03 0.00000E+00 3.84933E-04
 -1        71 2.95158E-03 0.00000E+00 3.06431E-04
 -1        72 2.93204E-03 0.00000E+00 3.84933E-04
 -1        73 2.84572E-03 0.00000E+00 3.51213E-04
 -1        74 2.84007E-03 0.00000E+00 4.37246E-04
 -1        75 2.84572E-03 0.00000E+00 3.51213E-04
 -1        76 2.84007E-03 0.00000E+00 4.37246E-04
 -1        77 2.72861E-03 0.00000E+00 3.90413E-04
 -1        78 2.72919E-03 0.00000E+00 4.70390E-04
 -1        79 2.72861E-03 0.00000E+00 3.90413E-04
 -1        80 2.72919E-03 0.00000E+00 4.70390E-04
 -1        81 2.63411E-03 0.00000E+00 4.39468E-04
 -1        82 2.63682E-03 0.00000E+00 4.85309E-04
 -1        83 2.63411E-03 0.00000E+00 4.39468E-04
 -1        84 2.63682E-03 0.00000E+00 4.85309E-04
 -1        85 0.00000E+00 0.00000E+00 0.00000E+00
 -1        86 6.09992E-04 0.00000E+00 4.99664E-04
 -1        87 0.00000E+00 0.00000E+00 0.00000E+00
 -1        88 6.09992E-04 0.00000E+00 4.99664E-04
 -1        89 1.49594E-03 0.00000E+00 7.76062E-04
 -1        90 1.49594E-03 0.00000E+00 7.76062E-04
 -1        91 2.53722E-03 0.00000E+00 7.72303E-04
 -1        92 2.53722E-03 0.00000E+00 7.72303E-04
 -1        93 3.34839E-03 0.00000E+00 5.35769E-04
 -1        94 3.34839E-03 0.00000E+00 5.35769E-04
 -1        95 3.70842E-03 0.00000E+00 2.34591E-04
 -1        96 3.70842E-03 0.00000E+00 2.34591E-04
 -1        97 3.72109E-03 0.00000E+00 2.72549E-05
 -1        98 3.72109E-03 0.00000E+00 2.72549E-05
 -1        99 3.60090E-03 0.00000E+00-5.27809E-05
 -1       100 3.60090E-03 0.00000E+00-5.27809E-05
 -1       101 3.48541E-03 0.00000E+00-5.45102E-05
 -1       102 3.48541E-03 0.00000E+00-5.45102E-05
 -1       103 3.41149E-03 0.00000E+00-3.19736E-05
 -1       104 3.41149E-03 0.00000E+00-3.19736E-05
 -1       105 3.35714E-03 0.00000E+00-9.43591E-06
 -1       106 3.35714E-03 0.00000E+00-9.43591E-06
 -1       107 3.30355E-03 0.00000E+00 1.24103E-05
 -1       108 3.30355E-03 0.00000E+00 1.24103E-05
 -1       109 3.25163E-03 0.00000E+00 3.83368E-05
 -1       110 3.25163E-03 0.00000E+00 3.83368E-05
 -1       111 3.20593E-03 0.00000E+00 6.99010E-05
 -1       112 3.20593E-03 0.00000E+00 6.99010E-05
 -1       113 3.15935E-03 0.00000E+00 1.07415E-04
 -1       114 3.15935E-03 0.00000E+00 1.07415E-04
 -1       115 3.10831E-03 0.00000E+00 1.48456E-04
 -1       116 3.10831E-03 0.00000E+00 1.48456E-04
 -1       117 3.04789E-03 0.00000E+00 1.87091E-04
 -1       118 3.04789E-03 0.00000E+00 1.87091E-04
 -1       119 2.96402E-03 0.00000E+00 2.20872E-04
 -1       120 2.96402E-03 0.00000E+00 2.20872E-04
 -1       121 2.85208E-03 0.00000E+00 2.55999E-04
 -1       122 2.85208E-03 0.00000E+00 2.55999E-04
 -1       123 2.73533E-03 0.00000E+00 3.00278E-04
 -1       124 2.73533E-03 0.00000E+00 3.00278E-04
 -1       125 2.63519E-03 0.00000E+00 3.36950E-04
 -1       126 2.63519E-03 0.00000E+00 3.36950E-04
 -3
    1PSTEP                        18           5           1          
  100CL  105 5.00000E-02         126                     1    5           1
 -4  STRESS      6    1
 -5  SXX         1    4    1    1
 -5  SYY         1    4    2    2
 -5  SZZ         1    4    3    3
 -5  SXY         1    4    1    2
 -5  SYZ         1    4    2    3
 -5  SZX         1    4    3    1
 -1         1-2.28295E+03-2.32260E+03-5.33108E+03 2.39191E-10-1.93710E-10 1.76380E+03
 -1         2 2.01671E+01-7.26397E+00-3.77269E+01 3.98096E-11-1.71146E-11 1.54000E+03
 -1         3-1.80637E+01-9.46327E+00-1.20554E+01-9.93061E-09 2.39745E-08 7.06177E+02
 -1         4-7.41335E+02-1.34569E+03-3.69086E+03-1.04435E-07 9.13383E-08 6.83946E+02
 -1         5-2.28295E+03-2.32260E+03-5.33108E+03 2.39191E-10-1.93710E-10 1.76380E+03
 -1         6 2.01671E+01-7.26397E+00-3.77269E+01 3.98069E-11-1.71146E-11 1.54000E+03
 -1         7-1.80637E+01-9.46327E+00-1.20554E+01-9.93066E-09 2.39745E-08 7.06177E+02
 -1         8-7.41335E+02-1.34569E+03-3.69086E+03-1.04435E-07 9.13383E-08 6.83946E+02
 -1         9-3.97916E+01-4.34031E+00 2.96566E+01-2.88552E-07 4.37285E-08 7.68028E+02
 -1        10-5.28053E+02-5.81425E+02-1.39358E+03-2.83127E-07 1.00953E-07 5.38735E+02
 -1        11-3.97916E+01-4.34031E+00 2.96566E+01-2.88552E-07 4.37285E-08 7.68028E+02
 -1        12-5.28053E+02-5.81425E+02-1.39358E+03-2.83127E-07 1.00953E-07 5.38735E+02
 -1        13-2.83014E+01-2.68731E+00 2.36987E+01-3.92696E-07 4.10278E-08 6.02908E+02
 -1        14 1.24134E+02 3.76249E+02 1.14315E+03-3.64031E-07-5.77420E-08 4.83408E+02
 -1        15-2.83014E+01-2.68731E+00 2.36987E+01-3.92696E-07 4.10278E-08 6.02908E+02
 -1        16 1.24134E+02 3.76249E+02 1.14315E+03-3.64030E-07-5.77420E-08 4.83408E+02
 -1        17-3.70519E+01-8.31413E+00 1.27841E+01-6.42162E-08 1.36834E-08 1.88684E+02
 -1        18 4.26915E+02 9.05743E+02 2.61987E+03-5.09921E-08-1.53572E-07 1.65080E+02
 -1        19-3.70519E+01-8.31413E+00 1.27841E+01-6.42167E-08 1.36834E-08 1.88684E+02
 -1        20 4.26915E+02 9.05743E+02 2.61987E+03-5.09924E-08-1.53572E-07 1.65080E+02
 -1        21-5.36332E+01-8.37648E+00 2.59080E+01 1.09259E-07-9.82042E-09-2.04765E+02
 -1        22 4.25372E+02 8.80338E+02 2.53295E+03 6.63501E-08-8.77728E-08-1.47011E+02
 -1        23-5.36332E+01-8.37648E+00 2.59080E+01 1.09259E-07-9.82042E-09-2.04765E+02
 -1        24 4.25372E+02 8.80338E+02 2.53295E+03 6.63499E-08-8.77728E-08-1.47011E+02
 -1        25-4.61180E+01 6.16119E-01 4.82267E+01 8.37969E-08 1.08879E-08-3.16303E+02
 -1        26 2.09298E+02 5.07002E+02 1.49014E+03 3.62398E-08-1.55348E-08-2.38636E+02
 -1        27-4.61180E+01 6.16119E-01 4.82267E+01 8.37969E-08 1.08879E-08-3.16303E+02
 -1        28 2.09298E+02 5.07002E+02 1.49014E+03 3.62401E-08-1.55348E-08-2.38636E+02
 -1        29-4.47443E+01 2.02422E+00 5.18579E+01 7.98048E-08 2.98266E-08-2.17713E+02
 -1        30 1.70407E+01 1.58948E+02 5.14548E+02 8.81988E-08 4.43461E-08-1.65083E+02
 -1        31-4.47443E+01 2.02422E+00 5.18579E+01 7.98044E-08 2.98266E-08-2.17713E+02
 -1        32 1.70407E+01 1.58948E+02 5.14548E+02 8.81988E-08 4.43461E-08-1.65083E+02
 -1        33-3.19302E+01 9.66858E+00 6.43415E+01-2.93916E-08 1.96708E-08-8.15360E+01
 -1        34-9.19334E+01-1.57511E+01 3.96103E+01-3.39661E-08 9.50302E-08-6.49464E+01
 -1        35-3.19302E+01 9.66858E+00 6.43415E+01-2.93914E-08 1.96708E-08-8.15360E+01
 -1        36-9.19334E+01-1.57511E+01 3.96103E+01-3.39661E-08 9.50302E-08-6.49464E+01
 -1        37-3.87236E+01 1.61320E+01 9.25758E+01-2.07529E-07-2.53244E-08-8.05537E+00
 -1        38-1.26841E+02-4.77149E+01-3.21340E+01-1.49462E-07 3.01371E-08-1.00858E+01
 -1        39-3.87236E+01 1.61320E+01 9.25758E+01-2.07529E-07-2.53244E-08-8.05537E+00
 -1        40-1.26841E+02-4.77149E+01-3.21340E+01-1.49463E-07 3.01371E-08-1.00858E+01
 -1        41-2.60018E+01 3.34436E+01 1.37598E+02-1.57619E-07-5.45424E-08-7.54120E-01
 -1        42-1.20845E+02-2.33839E+01 4.29982E+01-1.75237E-07-5.70536E-08-3.53145E+00
 -1        43-2.60018E+01 3.34436E+01 1.37598E+02-1.57619E-07-5.45424E-08-7.54119E-01
 -1        44-1.20845E+02-2.33839E+01 4.29982E+01-1.75237E-07-5.70536E-08-3.53145E+00
 -1        45-2.32603E+01 4.48872E+01 1.73050E+02-7.70417E-08-1.08054E-08-1.07152E+01
 -1        46-8.48488E+01 1.19695E+01 1.24897E+02-8.94143E-08-6.26165E-08-1.11874E+01
 -1        47-2.32603E+01 4.48872E+01 1.73050E+02-7.70414E-08-1.08054E-08-1.07152E+01
 -1        48-8.48488E+01 1.19695E+01 1.24897E+02-8.94143E-08-6.26164E-08-1.11874E+01
 -1        49-6.76240E+00 6.66715E+01 2.29261E+02-1.48739E-08 3.93936E-08-7.94110E+00
 -1        50-6.08225E+01 4.10904E+01 1.98041E+02-2.32097E-08-3.01538E-08-1.13098E+01
 -1        51-6.76240E+00 6.66715E+01 2.29261E+02-1.48734E-08 3.93936E-08-7.94110E+00
 -1        52-6.08225E+01 4.10904E+01 1.98041E+02-2.32095E-08-3.01538E-08-1.13098E+01
 -1        53-1.04101E+01 8.77970E+01 3.03516E+02 5.25611E-08 2.78361E-08-2.91939E+00
 -1        54-5.58007E+01 6.87827E+01 2.85536E+02 4.44951E-08-1.38848E-09-6.10795E+00
 -1        55-1.04101E+01 8.77970E+01 3.03516E+02 5.25614E-08 2.78362E-08-2.91939E+00
 -1        56-5.58007E+01 6.87827E+01 2.85536E+02 4.44944E-08-1.38852E-09-6.10795E+00
 -1        57 1.51476E+01 1.21667E+02 3.91096E+02 8.12776E-09-2.20166E-08-4.35124E+00
 -1        58-2.31474E+01 1.12087E+02 3.97539E+02 1.70997E-08 5.81354E-09-6.41643E+00
 -1        59 1.51476E+01 1.21667E+02 3.91096E+02 8.12758E-09-2.20166E-08-4.35124E+00
 -1        60-2.31474E+01 1.12087E+02 3.97539E+02 1.71002E-08 5.81353E-09-6.41643E+00
 -1        61 1.78864E+01 1.38149E+02 4.43475E+02-2.07603E-08-2.97208E-08-5.02132E+00
 -1        62 1.10090E+01 1.54874E+02 5.06383E+02-2.07554E-08-1.52634E-08-7.32271E+00
 -1        63 1.78864E+01 1.38149E+02 4.43475E+02-2.07596E-08-2.97208E-08-5.02132E+00
 -1        64 1.10090E+01 1.54874E+02 5.06383E+02-2.07560E-08-1.52633E-08-7.32271E+00
 -1        65 3.73444E+01 1.51913E+02 4.69981E+02-2.80383E-09-5.28255E-10-1.24196E+01
 -1        66 4.25842E+01 1.85439E+02 5.76967E+02 9.93516E-09-1.41149E-08-1.03291E+01
 -1        67 3.73444E+01 1.51913E+02 4.69981E+02-2.80367E-09-5.28275E-10-1.24196E+01
 -1        68 4.25842E+01 1.85439E+02 5.76967E+02 9.93575E-09-1.41149E-08-1.03291E+01
 -1        69 5.14318E+01 1.49216E+02 4.46809E+02 7.10506E-08 1.74498E-08-3.73676E+01
 -1        70 6.07953E+01 1.80540E+02 5.42234E+02 8.19845E-08 1.66835E-08-2.11268E+01
 -1        71 5.14318E+01 1.49216E+02 4.46809E+02 7.10503E-08 1.74498E-08-3.73676E+01
 -1        72 6.07953E+01 1.80540E+02 5.42234E+02 8.19847E-08 1.66835E-08-2.11268E+01
 -1        73 1.30827E+02 1.66996E+02 4.26566E+02 9.23308E-08 1.66512E-08-6.46218E+01
 -1        74 1.37769E+02 1.71895E+02 4.35996E+02 6.03271E-08 7.07067E-08-4.77193E+01
 -1        75 1.30827E+02 1.66996E+02 4.26566E+02 9.23309E-08 1.66512E-08-6.46218E+01
 -1        76 1.37769E+02 1.71895E+02 4.35996E+02 6.03271E-08 7.07067E-08-4.77193E+01
 -1        77 1.72128E+02 1.90285E+02 4.63007E+02-4.21553E-09 7.05496E-09-6.42758E+01
 -1        78 1.18547E+02 1.14320E+02 2.62822E+02 6.55694E-09 9.04662E-08-6.68616E+01
 -1        79 1.72128E+02 1.90285E+02 4.63007E+02-4.21582E-09 7.05496E-09-6.42758E+01
 -1        80 1.18547E+02 1.14320E+02 2.62822E+02 6.55636E-09 9.04662E-08-6.68616E+01
 -1        81 2.36348E+02 2.30730E+02 5.33897E+02-1.19214E-07-7.66613E-09-6.29868E+01
 -1        82 9.91368E+01 8.18218E+01 1.73876E+02-7.29804E-08 6.52009E-08-1.43376E+02
 -1        83 2.36348E+02 2.30730E+02 5.33897E+02-1.19215E-07-7.66629E-09-6.29868E+01
 -1        84 9.91368E+01 8.18218E+01 1.73876E+02-7.29792E-08 6.52009E-08-1.43376E+02
 -1        85 2.35425E+03 2.31167E+03 5.48110E+03-9.39915E-11-7.15183E-11 1.93927E+03
 -1        86 6.91395E+02 1.32427E+03 3.77754E+03-3.97129E-08-3.59395E-08 7.79266E+02
 -1        87 2.35425E+03 2.31167E+03 5.48110E+03-9.39712E-11-7.15180E-11 1.93927E+03
 -1        88 6.91395E+02 1.32427E+03 3.77754E+03-3.97129E-08-3.59395E-08 7.79266E+02
 -1        89 4.02168E+02 5.46430E+02 1.43645E+03-2.81435E-07-1.23556E-08 5.77573E+02
 -1        90 4.02168E+02 5.46430E+02 1.43645E+03-2.81435E-07-1.23556E-08 5.77573E+02
 -1        91-2.00209E+02-3.87843E+02-1.08040E+03-3.39333E-07 1.40563E-07 4.49560E+02
 -1        92-2.00209E+02-3.87843E+02-1.08040E+03-3.39333E-07 1.40563E-07 4.49560E+02
 -1        93-5.05189E+02-9.19161E+02-2.53288E+03-1.10805E-07 2.02354E-07 1.18814E+02
 -1        94-5.05189E+02-9.19161E+02-2.53288E+03-1.10805E-07 2.02354E-07 1.18814E+02
 -1        95-5.39148E+02-9.01091E+02-2.44227E+03 7.84939E-08 1.18019E-07-1.63884E+02
 -1        96-5.39148E+02-9.01091E+02-2.44227E+03 7.84942E-08 1.18019E-07-1.63884E+02
 -1        97-3.09376E+02-5.11881E+02-1.38881E+03 1.34294E-07 4.09195E-08-2.36915E+02
 -1        98-3.09376E+02-5.11881E+02-1.38881E+03 1.34294E-07 4.09195E-08-2.36915E+02
 -1        99-1.05643E+02-1.53083E+02-4.03397E+02 6.47437E-08-1.79275E-08-1.62463E+02
 -1       100-1.05643E+02-1.53083E+02-4.03397E+02 6.47436E-08-1.79275E-08-1.62463E+02
 -1       101 3.55740E+01 4.28031E+01 1.07298E+02-2.39859E-08-8.23356E-08-6.29171E+01
 -1       102 3.55740E+01 4.28031E+01 1.07298E+02-2.39856E-08-8.23356E-08-6.29171E+01
 -1       103 5.06540E+01 8.12405E+01 2.20338E+02-2.07804E-07-6.06159E-08-7.80992E+00
 -1       104 5.06540E+01 8.12405E+01 2.20338E+02-2.07805E-07-6.06159E-08-7.80992E+00
 -1       105 6.50598E+01 8.64809E+01 2.23396E+02-1.43009E-07 2.74407E-09-1.68706E-01
 -1       106 6.50598E+01 8.64809E+01 2.23396E+02-1.43010E-07 2.74407E-09-1.68706E-01
 -1       107 4.12548E+01 8.07413E+01 2.28091E+02-5.00448E-08 4.37392E-08-5.46835E+00
 -1       108 4.12548E+01 8.07413E+01 2.28091E+02-5.00446E-08 4.37392E-08-5.46835E+00
 -1       109 5.40904E+01 9.90465E+01 2.76370E+02 3.16404E-09 6.68474E-08-3.43517E+00
 -1       110 5.40904E+01 9.90465E+01 2.76370E+02 3.16357E-09 6.68474E-08-3.43517E+00
 -1       111 3.37952E+01 1.05625E+02 3.18715E+02 3.18222E-08 2.76178E-08 1.52683E-01
 -1       112 3.37952E+01 1.05625E+02 3.18715E+02 3.18220E-08 2.76178E-08 1.52683E-01
 -1       113 4.52089E+01 1.23017E+02 3.65398E+02-2.11237E-09-2.47105E-08-8.77779E-01
 -1       114 4.52089E+01 1.23017E+02 3.65398E+02-2.11232E-09-2.47105E-08-8.77779E-01
 -1       115 1.48347E+01 1.11496E+02 3.57372E+02-4.42589E-09-2.45661E-08-2.47583E+00
 -1       116 1.48347E+01 1.11496E+02 3.57372E+02-4.42682E-09-2.45661E-08-2.47583E+00
 -1       117 1.62945E+01 1.02587E+02 3.26126E+02-1.31068E-09 9.65072E-09-1.35953E+01
 -1       118 1.62945E+01 1.02587E+02 3.26126E+02-1.31052E-09 9.65079E-09-1.35953E+01
 -1       119 2.65238E+01 1.02413E+02 3.15296E+02 7.92527E-08 1.30236E-08-3.83010E+01
 -1       120 2.65238E+01 1.02413E+02 3.15296E+02 7.92526E-08 1.30236E-08-3.83010E+01
 -1       121 1.16551E+02 1.54870E+02 4.00339E+02 7.78761E-08-5.53604E-08-5.92853E+01
 -1       122 1.16551E+02 1.54870E+02 4.00339E+02 7.78764E-08-5.53604E-08-5.92853E+01
 -1       123 1.16120E+02 1.56697E+02 4.06880E+02-2.22820E-08-1.29588E-07-5.67531E+01
 -1       124 1.16120E+02 1.56697E+02 4.06880E+02-2.22814E-08-1.29588E-07-5.67531E+01
 -1       125 1.59082E+02 1.65139E+02 3.91935E+02-1.33450E-07-1.56750E-07 7.10081E+00
 -1       126 1.59082E+02 1.65139E+02 3.91935E+02-1.33451E-07-1.56750E-07 7.10081E+00
 -3
    1PSTEP                        19           5           1          
  100CL  105 5.00000E-02         126                     1    5           1
 -4  TOSTRAIN    6    1
 -5  EXX         1    4    1    1
 -5  EYY         1    4    2    2
 -5  EZZ         1    4    3    3
 -5  EXY         1    4    1    2
 -5  EYZ         1    4    2    3
 -5  EZX         1    4    3    1
 -1         1-8.65308E-06-6.13033E-26-9.97180E-03 6.13800E-16-2.76733E-18 5.92860E-03
 -1         2-8.73677E-06 2.95526E-27-4.02167E-05 1.31898E-16-1.44228E-18 5.00685E-03
 -1         3-1.24517E-04-1.52236E-25 7.60275E-05-3.33327E-14 7.76254E-14 2.29365E-03
 -1         4 1.88943E-03 2.83596E-25-7.69288E-03-3.43836E-13 2.96784E-13 2.36122E-03
 -1         5-8.65308E-06-6.13033E-26-9.97180E-03 6.13800E-16-2.76733E-18 5.92860E-03
 -1         6-8.73677E-06 2.95526E-27-4.02167E-05 1.31889E-16-1.44243E-18 5.00685E-03
 -1         7-1.24517E-04-1.52236E-25 7.60275E-05-3.33329E-14 7.76254E-14 2.29365E-03
 -1         8 1.88943E-03 2.83596E-25-7.69288E-03-3.43836E-13 2.96784E-13 2.36122E-03
 -1         9-2.18816E-04 1.64680E-24 1.97211E-04-9.40725E-13 1.27742E-13 2.49063E-03
 -1        10 1.03511E-04 1.80890E-24-2.61176E-03-9.27243E-13 3.15116E-13 1.80454E-03
 -1        11-2.18816E-04 1.64680E-24 1.97211E-04-9.40725E-13 1.27742E-13 2.49063E-03
 -1        12 1.03511E-04 1.80890E-24-2.61176E-03-9.27243E-13 3.15116E-13 1.80454E-03
 -1        13-1.66293E-04 3.05927E-24 1.53173E-04-1.27884E-12 1.13663E-13 1.95511E-03
 -1        14-8.82432E-04 2.59565E-24 2.51891E-03-1.17945E-12-2.05175E-13 1.51569E-03
 -1        15-1.66293E-04 3.05926E-24 1.53173E-04-1.27883E-12 1.13663E-13 1.95511E-03
 -1        16-8.82432E-04 2.59564E-24 2.51891E-03-1.17945E-12-2.05175E-13 1.51569E-03
 -1        17-1.38079E-04-2.65587E-25 9.91675E-05-2.09201E-13 4.21253E-14 6.11172E-04
 -1        18-1.59062E-03 2.28406E-25 5.52629E-03-1.59806E-13-4.97299E-13 4.55912E-04
 -1        19-1.38079E-04-2.65583E-25 9.91675E-05-2.09203E-13 4.21252E-14 6.11172E-04
 -1        20-1.59062E-03 2.28409E-25 5.52629E-03-1.59807E-13-4.97299E-13 4.55912E-04
 -1        21-1.60411E-04 1.58692E-25 1.21235E-04 3.55252E-13-3.04006E-14-6.66408E-04
 -1        22-1.48858E-03 1.86460E-25 5.31404E-03 2.16528E-13-2.82369E-13-5.06614E-04
 -1        23-1.60411E-04 1.58693E-25 1.21235E-04 3.55253E-13-3.04006E-14-6.66408E-04
 -1        24-1.48858E-03 1.86460E-25 5.31404E-03 2.16528E-13-2.82369E-13-5.06614E-04
 -1        25-1.58449E-04 1.42202E-25 1.59952E-04 2.72398E-13 3.54084E-14-1.02778E-03
 -1        26-9.71626E-04 2.93099E-27 3.17319E-03 1.17667E-13-5.02839E-14-7.72136E-04
 -1        27-1.58449E-04 1.42202E-25 1.59952E-04 2.72398E-13 3.54084E-14-1.02778E-03
 -1        28-9.71626E-04 2.93153E-27 3.17319E-03 1.17668E-13-5.02839E-14-7.72136E-04
 -1        29-1.56055E-04 1.30224E-25 1.64636E-04 2.59665E-13 9.66041E-14-7.06924E-04
 -1        30-4.63879E-04 1.65962E-25 1.15343E-03 2.87020E-13 1.43580E-13-5.32324E-04
 -1        31-1.56055E-04 1.30223E-25 1.64636E-04 2.59664E-13 9.66041E-14-7.06924E-04
 -1        32-4.63879E-04 1.65962E-25 1.15343E-03 2.87020E-13 1.43580E-13-5.32324E-04
 -1        33-1.36537E-04-8.03046E-26 1.78437E-04-9.54035E-14 6.40641E-14-2.64424E-04
 -1        34-2.48644E-04 1.35523E-25 1.80423E-04-1.09835E-13 3.08969E-13-2.10240E-04
 -1        35-1.36537E-04-8.03040E-26 1.78437E-04-9.54030E-14 6.40641E-14-2.64424E-04
 -1        36-2.48644E-04 1.35523E-25 1.80423E-04-1.09835E-13 3.08969E-13-2.10240E-04
 -1        37-1.78482E-04 8.49002E-25 2.48393E-04-6.74673E-13-8.14337E-14-2.56442E-05
 -1        38-2.57454E-04 4.27427E-25 5.07306E-05-4.85800E-13 9.85694E-14-3.24185E-05
 -1        39-1.78482E-04 8.48998E-25 2.48393E-04-6.74671E-13-8.14337E-14-2.56442E-05
 -1        40-2.57454E-04 4.27432E-25 5.07306E-05-4.85802E-13 9.85694E-14-3.24185E-05
 -1        41-1.93301E-04 5.63543E-25 3.38259E-04-5.12519E-13-1.76633E-13-1.86358E-06
 -1        42-3.16988E-04 6.93018E-25 2.15673E-04-5.69936E-13-1.84766E-13-1.08843E-05
 -1        43-1.93301E-04 5.63541E-25 3.38259E-04-5.12518E-13-1.76633E-13-1.86358E-06
 -1        44-3.16988E-04 6.93018E-25 2.15673E-04-5.69936E-13-1.84767E-13-1.08843E-05
 -1        45-2.21654E-04 9.09578E-26 4.16212E-04-2.50455E-13-3.48430E-14-3.41334E-05
 -1        46-3.14930E-04 2.20056E-25 3.66803E-04-2.90904E-13-2.03125E-13-3.56315E-05
 -1        47-2.21654E-04 9.09569E-26 4.16212E-04-2.50454E-13-3.48431E-14-3.41334E-05
 -1        48-3.14930E-04 2.20056E-25 3.66803E-04-2.90904E-13-2.03125E-13-3.56315E-05
 -1        49-2.38812E-04 8.12023E-27 5.27819E-04-4.82144E-14 1.27990E-13-2.50200E-05
 -1        50-3.31483E-04-5.21649E-27 5.09579E-04-7.55556E-14-9.78656E-14-3.58675E-05
 -1        51-2.38812E-04 8.12027E-27 5.27819E-04-4.82128E-14 1.27990E-13-2.50200E-05
 -1        52-3.31483E-04-5.21638E-27 5.09579E-04-7.55552E-14-9.78656E-14-3.58675E-05
 -1        53-3.19351E-04 5.73813E-26 6.99965E-04 1.70933E-13 9.02229E-14-8.49218E-06
 -1        54-4.05203E-04 2.92576E-26 7.03362E-04 1.44640E-13-4.65278E-15-1.87238E-05
 -1        55-3.19351E-04 5.73820E-26 6.99965E-04 1.70933E-13 9.02229E-14-8.49218E-06
 -1        56-4.05203E-04 2.92565E-26 7.03362E-04 1.44638E-13-4.65291E-15-1.87238E-05
 -1        57-3.46389E-04 1.17065E-27 8.73903E-04 2.63456E-14-7.14992E-14-1.28891E-05
 -1        58-4.39836E-04 2.90718E-28 9.25791E-04 5.56051E-14 1.88162E-14-1.94133E-05
 -1        59-3.46389E-04 1.17073E-27 8.73903E-04 2.63450E-14-7.14992E-14-1.28891E-05
 -1        60-4.39836E-04 2.90895E-28 9.25791E-04 5.56068E-14 1.88161E-14-1.94133E-05
 -1        61-3.91094E-04 2.34960E-26 9.90100E-04-6.75858E-14-9.63933E-14-1.47551E-05
 -1        62-4.67893E-04 8.66102E-27 1.13947E-03-6.75200E-14-4.94565E-14-2.19569E-05
 -1        63-3.91094E-04 2.34956E-26 9.90100E-04-6.75836E-14-9.63933E-14-1.47551E-05
 -1        64-4.67893E-04 8.66120E-27 1.13947E-03-6.75221E-14-4.94562E-14-2.19569E-05
 -1        65-3.72688E-04-1.26263E-26 1.03140E-03-9.11339E-15-1.69743E-15-3.83715E-05
 -1        66-4.64649E-04-7.09224E-27 1.26885E-03 3.22312E-14-4.58344E-14-3.11673E-05
 -1        67-3.72688E-04-1.26264E-26 1.03140E-03-9.11284E-15-1.69749E-15-3.83715E-05
 -1        68-4.64649E-04-7.09192E-27 1.26885E-03 3.22331E-14-4.58344E-14-3.11673E-05
 -1        69-3.18404E-04 1.03328E-25 9.65419E-04 2.31023E-13 5.62681E-14-1.19012E-04
 -1        70-3.89545E-04 1.32264E-25 1.17250E-03 2.66541E-13 5.37252E-14-6.59830E-05
 -1        71-3.18404E-04 1.03327E-25 9.65419E-04 2.31022E-13 5.62682E-14-1.19012E-04
 -1        72-3.89545E-04 1.32265E-25 1.17250E-03 2.66542E-13 5.37252E-14-6.59830E-05
 -1        73-1.18464E-04 1.54651E-25 8.42633E-04 3.00125E-13 5.35132E-14-2.07704E-04
 -1        74-1.11529E-04 1.58798E-25 8.56989E-04 1.96477E-13 2.29181E-13-1.53041E-04
 -1        75-1.18464E-04 1.54651E-25 8.42633E-04 3.00126E-13 5.35132E-14-2.07704E-04
 -1        76-1.11529E-04 1.58798E-25 8.56989E-04 1.96478E-13 2.29182E-13-1.53041E-04
 -1        77-5.99313E-05-8.33088E-26 8.85170E-04-1.36497E-14 2.29221E-14-2.06693E-04
 -1        78 1.28240E-05 1.31688E-25 4.82798E-04 2.19000E-14 2.93756E-13-2.16133E-04
 -1        79-5.99313E-05-8.33087E-26 8.85170E-04-1.36506E-14 2.29221E-14-2.06693E-04
 -1        80 1.28240E-05 1.31688E-25 4.82798E-04 2.18981E-14 2.93756E-13-2.16133E-04
 -1        81 1.74808E-05 2.01961E-25 9.83306E-04-3.87298E-13-2.42958E-14-2.02533E-04
 -1        82 5.45389E-05 1.51846E-25 3.00070E-04-2.36749E-13 2.12008E-13-4.65239E-04
 -1        83 1.74808E-05 2.01962E-25 9.83306E-04-3.87299E-13-2.42964E-14-2.02533E-04
 -1        84 5.45389E-05 1.51843E-25 3.00070E-04-2.36745E-13 2.12008E-13-4.65239E-04
 -1        85-8.82045E-06-7.31952E-27 1.01085E-02-2.37525E-16-7.79403E-21 6.09978E-03
 -1        86-2.13846E-03-6.32591E-26 7.90294E-03-1.27408E-13-1.16752E-13 2.38667E-03
 -1        87-8.82045E-06-7.31952E-27 1.01085E-02-2.37459E-16-6.67792E-21 6.09978E-03
 -1        88-2.13846E-03-6.32594E-26 7.90294E-03-1.27408E-13-1.16752E-13 2.38667E-03
 -1        89-5.41143E-04 1.52105E-24 2.91946E-03-9.13258E-13-5.39522E-14 1.81192E-03
 -1        90-5.41143E-04 1.52105E-24 2.91946E-03-9.13258E-13-5.39522E-14 1.81192E-03
 -1        91 5.49846E-04 2.68591E-24-2.22405E-03-1.11147E-12 4.41121E-13 1.50700E-03
 -1        92 5.49846E-04 2.68591E-24-2.22405E-03-1.11147E-12 4.41121E-13 1.50700E-03
 -1        93 1.31446E-03 8.40824E-25-5.28607E-03-3.67965E-13 6.58306E-13 4.60437E-04
 -1        94 1.31446E-03 8.40824E-25-5.28607E-03-3.67965E-13 6.58306E-13 4.60437E-04
 -1        95 1.16776E-03 2.83095E-25-5.06100E-03 2.53898E-13 3.87351E-13-5.06494E-04
 -1        96 1.16776E-03 2.83095E-25-5.06100E-03 2.53899E-13 3.87351E-13-5.06494E-04
 -1        97 6.54728E-04 3.81895E-25-2.86817E-03 4.36761E-13 1.33698E-13-7.73257E-04
 -1        98 6.54728E-04 3.81897E-25-2.86817E-03 4.36762E-13 1.33698E-13-7.73257E-04
 -1        99 1.51768E-04 5.45664E-26-8.14359E-04 2.10332E-13-5.85983E-14-5.30985E-04
 -1       100 1.51768E-04 5.45664E-26-8.14359E-04 2.10332E-13-5.85983E-14-5.30985E-04
 -1       101-2.44295E-05 3.94030E-26 2.09991E-04-7.84503E-14-2.67387E-13-2.04171E-04
 -1       102-2.44295E-05 3.94017E-26 2.09991E-04-7.84493E-14-2.67387E-13-2.04171E-04
 -1       103-9.95092E-05 9.14566E-25 4.51668E-04-6.75558E-13-1.96042E-13-2.46627E-05
 -1       104-9.95092E-05 9.14570E-25 4.51668E-04-6.75560E-13-1.96042E-13-2.46627E-05
 -1       105-6.96146E-05 3.89897E-25 4.44503E-04-4.64716E-13 9.41446E-15 6.69203E-09
 -1       106-6.96146E-05 3.89902E-25 4.44503E-04-4.64719E-13 9.41445E-15 6.69246E-09
 -1       107-1.28378E-04 5.64125E-26 4.78380E-04-1.62489E-13 1.42225E-13-1.71270E-05
 -1       108-1.28378E-04 5.64116E-26 4.78380E-04-1.62488E-13 1.42225E-13-1.71270E-05
 -1       109-1.46141E-04 8.13977E-26 5.75529E-04 1.04940E-14 2.17073E-13-1.04608E-05
 -1       110-1.46141E-04 8.13977E-26 5.75529E-04 1.04925E-14 2.17073E-13-1.04608E-05
 -1       111-2.33498E-04 2.56648E-26 6.91418E-04 1.03505E-13 8.95797E-14 1.35131E-06
 -1       112-2.33498E-04 2.56645E-26 6.91418E-04 1.03504E-13 8.95797E-14 1.35131E-06
 -1       113-2.52942E-04 5.96887E-27 7.86299E-04-6.94292E-15-8.02182E-14-1.83699E-06
 -1       114-2.52942E-04 5.96866E-27 7.86299E-04-6.94277E-15-8.02181E-14-1.83699E-06
 -1       115-3.14295E-04 1.03008E-26 7.97671E-04-1.44748E-14-7.97417E-14-6.80973E-06
 -1       116-3.14295E-04 1.03010E-26 7.97671E-04-1.44778E-14-7.97417E-14-6.80973E-06
 -1       117-2.80726E-04-1.17510E-26 7.25455E-04-4.21392E-15 3.13465E-14-4.27420E-05
 -1       118-2.80726E-04-1.17511E-26 7.25455E-04-4.21340E-15 3.13468E-14-4.27420E-05
 -1       119-2.47263E-04 1.17956E-25 6.91233E-04 2.57661E-13 4.18551E-14-1.22603E-04
 -1       120-2.47263E-04 1.17956E-25 6.91233E-04 2.57660E-13 4.18549E-14-1.22603E-04
 -1       121-1.25400E-04 1.40691E-25 7.96958E-04 2.52635E-13-1.80195E-13-1.90409E-04
 -1       122-1.25400E-04 1.40692E-25 7.96958E-04 2.52636E-13-1.80195E-13-1.90409E-04
 -1       123-1.32687E-04 2.48216E-25 8.12168E-04-7.33142E-14-4.20543E-13-1.82230E-04
 -1       124-1.32687E-04 2.48215E-25 8.12168E-04-7.33123E-14-4.20543E-13-1.82230E-04
 -1       125-1.95773E-05 7.68473E-25 7.35679E-04-4.34586E-13-5.07977E-13 2.45829E-05
 -1       126-1.95773E-05 7.68475E-25 7.35679E-04-4.34588E-13-5.07978E-13 2.45829E-05
 -3
    1PSTEP                        20           5           1          
  100CL  105 5.00000E-02         126                     1    5           1
 -4  ERROR       1    1
 -5  STR(%)      1    1    0    0
 -1         1 6.02136E+01
 -1         2 6.19568E+01
 -1         3 6.19568E+01
 -1         4 6.02136E+01
 -1         5 6.02136E+01
 -1         6 6.19568E+01
 -1         7 6.19568E+01
 -1         8 6.02136E+01
 -1         9 4.42594E+01
 -1        10 4.40541E+01
 -1        11 4.42594E+01
 -1        12 4.40541E+01
 -1        13 5.52397E+01
 -1        14 5.52397E+01
 -1        15 5.52397E+01
 -1        16 5.52397E+01
 -1        17 6.20363E+01
 -1        18 6.14654E+01
 -1        19 6.20363E+01
 -1        20 6.14654E+01
 -1        21 6.20363E+01
 -1        22 6.14654E+01
 -1        23 6.20363E+01
 -1        24 6.14654E+01
 -1        25 6.04302E+01
 -1        26 5.80763E+01
 -1        27 6.04302E+01
 -1        28 5.80763E+01
 -1        29 4.52388E+01
 -1        30 4.26274E+01
 -1        31 4.52388E+01
 -1        32 4.26274E+01
 -1        33 3.14199E+01
 -1        34 3.14199E+01
 -1        35 3.14199E+01
 -1        36 3.14199E+01
 -1        37 2.32768E+01
 -1        38 1.72362E+01
 -1        39 2.32768E+01
 -1        40 1.72362E+01
 -1        41 1.70209E+01
 -1        42 1.70209E+01
 -1        43 1.70209E+01
 -1        44 1.70209E+01
 -1        45 7.52480E+00
 -1        46 7.52480E+00
 -1        47 7.52480E+00
 -1        48 7.52480E+00
 -1        49 2.90680E+00
 -1        50 1.98104E+00
 -1        51 2.90680E+00
 -1        52 1.98104E+00
 -1        53 2.20141E+00
 -1        54 1.62082E+00
 -1        55 2.20141E+00
 -1        56 1.62082E+00
 -1        57 3.52873E+00
 -1        58 2.23671E+00
 -1        59 3.52873E+00
 -1        60 2.23671E+00
 -1        61 7.37226E+00
 -1        62 3.93578E+00
 -1        63 7.37226E+00
 -1        64 3.93578E+00
 -1        65 1.22997E+01
 -1        66 4.92288E+00
 -1        67 1.22997E+01
 -1        68 4.92288E+00
 -1        69 1.22997E+01
 -1        70 4.92288E+00
 -1        71 1.22997E+01
 -1        72 4.92288E+00
 -1        73 4.86383E+00
 -1        74 4.84423E+00
 -1        75 4.86383E+00
 -1        76 4.84423E+00
 -1        77 3.24634E+01
 -1        78 3.24634E+01
 -1        79 3.24634E+01
 -1        80 3.24634E+01
 -1        81 3.24634E+01
 -1        82 3.24634E+01
 -1        83 3.24634E+01
 -1        84 3.24634E+01
 -1        85 6.19568E+01
 -1        86 6.19568E+01
 -1        87 6.19568E+01
 -1        88 6.19568E+01
 -1        89 4.42594E+01
 -1        90 4.42594E+01
 -1        91 5.48992E+01
 -1        92 5.48992E+01
 -1        93 6.20363E+01
 -1        94 6.20363E+01
 -1        95 6.20363E+01
 -1        96 6.20363E+01
 -1        97 6.04302E+01
 -1        98 6.04302E+01
 -1        99 4.52388E+01
 -1       100 4.52388E+01
 -1       101 2.88660E+01
 -1       102 2.88660E+01
 -1       103 2.32768E+01
 -1       104 2.32768E+01
 -1       105 1.15280E+01
 -1       106 1.15280E+01
 -1       107 3.79367E+00
 -1       108 3.79367E+00
 -1       109 2.90680E+00
 -1       110 2.90680E+00
 -1       111 2.20141E+00
 -1       112 2.20141E+00
 -1       113 3.52873E+00
 -1       114 3.52873E+00
 -1       115 7.37226E+00
 -1       116 7.37226E+00
 -1       117 1.22997E+01
 -1       118 1.22997E+01
 -1       119 1.22997E+01
 -1       120 1.22997E+01
 -1       121 4.86383E+00
 -1       122 4.86383E+00
 -1       123 7.45822E+00
 -1       124 7.45822E+00
 -1       125 7.45822E+00
 -1       126 7.45822E+00
 -3
    1PSTEP                        21           6           1          
  100CL  106 6.00000E-02         126                     1    6           1
 -4  DISP        4    1
 -5  D1          1    2    1    0
 -5  D2          1    2    2    0
 -5  D3          1    2    3    0
 -5  ALL         1    2    0    0    1ALL
 -1         1 0.00000E+00 0.00000E+00 0.00000E+00
 -1         2 0.00000E+00 0.00000E+00 0.00000E+00
 -1         3 5.10503E-04 0.00000E+00 5.32748E-06
 -1         4 6.55571E-04 0.00000E+00-5.43694E-04
 -1         5 0.00000E+00 0.00000E+00 0.00000E+00
 -1         6 0.00000E+00 0.00000E+00 0.00000E+00
 -1         7 5.10503E-04 0.00000E+00 5.32748E-06
 -1         8 6.55571E-04 0.00000E+00-5.43694E-04
 -1         9 1.52389E-03 0.00000E+00-1.05553E-06
 -1        10 1.57895E-03 0.00000E+00-8.69507E-04
 -1        11 1.52389E-03 0.00000E+00-1.05553E-06
 -1        12 1.57895E-03 0.00000E+00-8.69507E-04
 -1        13 2.68924E-03 0.00000E+00-6.04656E-06
 -1        14 2.69765E-03 0.00000E+00-9.65566E-04
 -1        15 2.68924E-03 0.00000E+00-6.04656E-06
 -1        16 2.69765E-03 0.00000E+00-9.65566E-04
 -1        17 3.85699E-03 0.00000E+00-6.04376E-06
 -1        18 3.81933E-03 0.00000E+00-8.46208E-04
 -1        19 3.85699E-03 0.00000E+00-6.04376E-06
 -1        20 3.81933E-03 0.00000E+00-8.46208E-04
 -1        21 4.70325E-03 0.00000E+00 4.66932E-07
 -1        22 4.64142E-03 0.00000E+00-5.31247E-04
 -1        23 4.70325E-03 0.00000E+00 4.66932E-07
 -1        24 4.64142E-03 0.00000E+00-5.31247E-04
 -1        25 4.99404E-03 0.00000E+00 1.14497E-05
 -1        26 4.95023E-03 0.00000E+00-1.69634E-04
 -1        27 4.99404E-03 0.00000E+00 1.14497E-05
 -1        28 4.95023E-03 0.00000E+00-1.69634E-04
 -1        29 4.87954E-03 0.00000E+00 2.51448E-05
 -1        30 4.86508E-03 0.00000E+00 7.49886E-05
 -1        31 4.87954E-03 0.00000E+00 2.51448E-05
 -1        32 4.86508E-03 0.00000E+00 7.49886E-05
 -1        33 4.64580E-03 0.00000E+00 4.43005E-05
 -1        34 4.65700E-03 0.00000E+00 1.66971E-04
 -1        35 4.64580E-03 0.00000E+00 4.43005E-05
 -1        36 4.65700E-03 0.00000E+00 1.66971E-04
 -1        37 4.48267E-03 0.00000E+00 6.84565E-05
 -1        38 4.50077E-03 0.00000E+00 1.78716E-04
 -1        39 4.48267E-03 0.00000E+00 6.84565E-05
 -1        40 4.50077E-03 0.00000E+00 1.78716E-04
 -1        41 4.38346E-03 0.00000E+00 9.61706E-05
 -1        42 4.40261E-03 0.00000E+00 1.84134E-04
 -1        43 4.38346E-03 0.00000E+00 9.61706E-05
 -1        44 4.40261E-03 0.00000E+00 1.84134E-04
 -1        45 4.30935E-03 0.00000E+00 1.30643E-04
 -1        46 4.32011E-03 0.00000E+00 2.03006E-04
 -1        47 4.30935E-03 0.00000E+00 1.30643E-04
 -1        48 4.32011E-03 0.00000E+00 2.03006E-04
 -1        49 4.24548E-03 0.00000E+00 1.74831E-04
 -1        50 4.25252E-03 0.00000E+00 2.30173E-04
 -1        51 4.24548E-03 0.00000E+00 1.74831E-04
 -1        52 4.25252E-03 0.00000E+00 2.30173E-04
 -1        53 4.21175E-03 0.00000E+00 2.25943E-04
 -1        54 4.21346E-03 0.00000E+00 2.71603E-04
 -1        55 4.21175E-03 0.00000E+00 2.25943E-04
 -1        56 4.21346E-03 0.00000E+00 2.71603E-04
 -1        57 4.17489E-03 0.00000E+00 2.78872E-04
 -1        58 4.17735E-03 0.00000E+00 3.34278E-04
 -1        59 4.17489E-03 0.00000E+00 2.78872E-04
 -1        60 4.17735E-03 0.00000E+00 3.34278E-04
 -1        61 4.11219E-03 0.00000E+00 3.31502E-04
 -1        62 4.11128E-03 0.00000E+00 4.05573E-04
 -1        63 4.11219E-03 0.00000E+00 3.31502E-04
 -1        64 4.11128E-03 0.00000E+00 4.05573E-04
 -1        65 4.01888E-03 0.00000E+00 3.80857E-04
 -1        66 4.02285E-03 0.00000E+00 4.67393E-04
 -1        67 4.01888E-03 0.00000E+00 3.80857E-04
 -1        68 4.02285E-03 0.00000E+00 4.67393E-04
 -1        69 3.92102E-03 0.00000E+00 4.21339E-04
 -1        70 3.93004E-03 0.00000E+00 5.17113E-04
 -1        71 3.92102E-03 0.00000E+00 4.21339E-04
 -1        72 3.93004E-03 0.00000E+00 5.17113E-04
 -1        73 3.80886E-03 0.00000E+00 4.55051E-04
 -1        74 3.82158E-03 0.00000E+00 5.61011E-04
 -1        75 3.80886E-03 0.00000E+00 4.55051E-04
 -1        76 3.82158E-03 0.00000E+00 5.61011E-04
 -1        77 3.68866E-03 0.00000E+00 4.88568E-04
 -1        78 3.69795E-03 0.00000E+00 5.95001E-04
 -1        79 3.68866E-03 0.00000E+00 4.88568E-04
 -1        80 3.69795E-03 0.00000E+00 5.95001E-04
 -1        81 3.58090E-03 0.00000E+00 5.22357E-04
 -1        82 3.59029E-03 0.00000E+00 6.07667E-04
 -1        83 3.58090E-03 0.00000E+00 5.22357E-04
 -1        84 3.59029E-03 0.00000E+00 6.07667E-04
 -1        85 0.00000E+00 0.00000E+00 0.00000E+00
 -1        86 6.49887E-04 0.00000E+00 5.41266E-04
 -1        87 0.00000E+00 0.00000E+00 0.00000E+00
 -1        88 6.49887E-04 0.00000E+00 5.41266E-04
 -1        89 1.57679E-03 0.00000E+00 8.64282E-04
 -1        90 1.57679E-03 0.00000E+00 8.64282E-04
 -1        91 2.70615E-03 0.00000E+00 9.56330E-04
 -1        92 2.70615E-03 0.00000E+00 9.56330E-04
 -1        93 3.82657E-03 0.00000E+00 8.36918E-04
 -1        94 3.82657E-03 0.00000E+00 8.36918E-04
 -1        95 4.63838E-03 0.00000E+00 5.32524E-04
 -1        96 4.63838E-03 0.00000E+00 5.32524E-04
 -1        97 4.94020E-03 0.00000E+00 1.92752E-04
 -1        98 4.94020E-03 0.00000E+00 1.92752E-04
 -1        99 4.85743E-03 0.00000E+00-2.21619E-05
 -1       100 4.85743E-03 0.00000E+00-2.21619E-05
 -1       101 4.65565E-03 0.00000E+00-7.66745E-05
 -1       102 4.65565E-03 0.00000E+00-7.66745E-05
 -1       103 4.50064E-03 0.00000E+00-4.16756E-05
 -1       104 4.50064E-03 0.00000E+00-4.16756E-05
 -1       105 4.40478E-03 0.00000E+00 1.06847E-05
 -1       106 4.40478E-03 0.00000E+00 1.06847E-05
 -1       107 4.32988E-03 0.00000E+00 6.30685E-05
 -1       108 4.32988E-03 0.00000E+00 6.30685E-05
 -1       109 4.27091E-03 0.00000E+00 1.22037E-04
 -1       110 4.27091E-03 0.00000E+00 1.22037E-04
 -1       111 4.23350E-03 0.00000E+00 1.79426E-04
 -1       112 4.23350E-03 0.00000E+00 1.79426E-04
 -1       113 4.19488E-03 0.00000E+00 2.22589E-04
 -1       114 4.19488E-03 0.00000E+00 2.22589E-04
 -1       115 4.12776E-03 0.00000E+00 2.56155E-04
 -1       116 4.12776E-03 0.00000E+00 2.56155E-04
 -1       117 4.03369E-03 0.00000E+00 2.89396E-04
 -1       118 4.03369E-03 0.00000E+00 2.89396E-04
 -1       119 3.92915E-03 0.00000E+00 3.20747E-04
 -1       120 3.92915E-03 0.00000E+00 3.20747E-04
 -1       121 3.81670E-03 0.00000E+00 3.48648E-04
 -1       122 3.81670E-03 0.00000E+00 3.48648E-04
 -1       123 3.69729E-03 0.00000E+00 3.79679E-04
 -1       124 3.69729E-03 0.00000E+00 3.79679E-04
 -1       125 3.58188E-03 0.00000E+00 4.02266E-04
 -1       126 3.58188E-03 0.00000E+00 4.02266E-04
 -3
    1PSTEP                        22           6           1          
  100CL  106 6.00000E-02         126                     1    6           1
 -4  STRESS      6    1
 -5  SXX         1    4    1    1
 -5  SYY         1    4    2    2
 -5  SZZ         1    4    3    3
 -5  SXY         1    4    1    2
 -5  SYZ         1    4    2    3
 -5  SZX         1    4    3    1
 -1         1-2.45540E+03-2.50302E+03-5.73875E+03 5.30480E-10-4.04222E-10 1.94696E+03
 -1         2 6.40137E+01 3.66132E+01 6.10894E+01 1.62835E-11-2.81171E-10 1.57168E+03
 -1         3 1.21289E+02 5.30310E+01 5.82257E+01-1.55540E-07 5.80388E-09 6.75175E+02
 -1         4-3.53878E+02-1.29166E+03-3.89160E+03-1.94007E-07 1.53077E-07 7.08826E+02
 -1         5-2.45540E+03-2.50302E+03-5.73875E+03 5.30480E-10-4.04222E-10 1.94696E+03
 -1         6 6.40137E+01 3.66132E+01 6.10894E+01 1.62844E-11-2.81171E-10 1.57168E+03
 -1         7 1.21289E+02 5.30310E+01 5.82257E+01-1.55540E-07 5.80387E-09 6.75175E+02
 -1         8-3.53878E+02-1.29166E+03-3.89160E+03-1.94007E-07 1.53077E-07 7.08826E+02
 -1         9 1.51845E+02 6.82880E+01 7.82079E+01-4.53907E-07 3.52540E-08 6.84561E+02
 -1        10-2.31059E+02-6.36275E+02-1.87103E+03-4.87547E-07 1.59881E-07 4.51441E+02
 -1        11 1.51845E+02 6.82880E+01 7.82079E+01-4.53907E-07 3.52540E-08 6.84561E+02
 -1        12-2.31059E+02-6.36275E+02-1.87103E+03-4.87547E-07 1.59881E-07 4.51441E+02
 -1        13 1.34248E+02 7.42588E+01 1.17389E+02-6.07036E-07 4.39445E-08 6.33170E+02
 -1        14 3.22684E+02 1.92277E+02 3.25713E+02-5.66673E-07-1.35967E-09 4.95809E+02
 -1        15 1.34248E+02 7.42588E+01 1.17389E+02-6.07037E-07 4.39445E-08 6.33170E+02
 -1        16 3.22684E+02 1.92277E+02 3.25713E+02-5.66673E-07-1.35961E-09 4.95809E+02
 -1        17 1.23709E+02 7.89399E+01 1.41343E+02-4.08555E-07 3.49304E-08 5.09740E+02
 -1        18 7.33476E+02 9.03961E+02 2.30324E+03-3.80269E-07-2.07064E-07 4.21718E+02
 -1        19 1.23709E+02 7.89399E+01 1.41343E+02-4.08555E-07 3.49304E-08 5.09740E+02
 -1        20 7.33476E+02 9.03961E+02 2.30324E+03-3.80269E-07-2.07064E-07 4.21718E+02
 -1        21 1.17887E+02 7.87220E+01 1.45848E+02 8.55924E-08 2.59344E-08 1.12966E+02
 -1        22 9.51199E+02 1.30487E+03 3.44110E+03 9.40663E-08-2.30207E-07 1.18106E+02
 -1        23 1.17887E+02 7.87220E+01 1.45848E+02 8.55923E-08 2.59344E-08 1.12966E+02
 -1        24 9.51199E+02 1.30487E+03 3.44110E+03 9.40656E-08-2.30207E-07 1.18106E+02
 -1        25 1.20596E+02 8.37269E+01 1.57581E+02 3.45536E-07 4.50205E-08-2.86615E+02
 -1        26 9.33816E+02 1.19861E+03 3.09587E+03 3.01720E-07-7.63817E-08-2.11197E+02
 -1        27 1.20596E+02 8.37269E+01 1.57581E+02 3.45536E-07 4.50205E-08-2.86615E+02
 -1        28 9.33816E+02 1.19861E+03 3.09587E+03 3.01720E-07-7.63817E-08-2.11197E+02
 -1        29 1.21655E+02 9.50861E+01 1.95208E+02 3.02281E-07 3.14895E-08-3.86859E+02
 -1        30 6.23103E+02 7.10163E+02 1.75687E+03 3.26958E-07 4.29984E-08-3.00901E+02
 -1        31 1.21655E+02 9.50861E+01 1.95208E+02 3.02281E-07 3.14895E-08-3.86859E+02
 -1        32 6.23103E+02 7.10163E+02 1.75687E+03 3.26958E-07 4.29984E-08-3.00901E+02
 -1        33 1.12687E+02 1.05601E+02 2.40164E+02 2.27586E-07-2.27390E-09-2.36227E+02
 -1        34 3.64340E+02 2.93017E+02 6.14758E+02 2.35746E-07 4.88309E-08-1.84396E+02
 -1        35 1.12687E+02 1.05601E+02 2.40164E+02 2.27586E-07-2.27389E-09-2.36227E+02
 -1        36 3.64340E+02 2.93017E+02 6.14758E+02 2.35746E-07 4.88309E-08-1.84396E+02
 -1        37 1.23039E+02 1.21334E+02 2.81988E+02 2.08501E-07 7.09431E-09-6.48082E+01
 -1        38 2.37034E+02 1.24425E+02 1.78063E+02 1.62753E-07 5.94278E-08-5.21430E+01
 -1        39 1.23039E+02 1.21334E+02 2.81988E+02 2.08501E-07 7.09430E-09-6.48082E+01
 -1        40 2.37034E+02 1.24425E+02 1.78063E+02 1.62753E-07 5.94278E-08-5.21430E+01
 -1        41 1.33089E+02 1.39138E+02 3.31273E+02 3.41628E-08 1.84476E-08 4.41232E-02
 -1        42 2.63545E+02 1.45077E+02 2.20345E+02 1.01806E-07 3.86802E-08-7.23980E+00
 -1        43 1.33089E+02 1.39138E+02 3.31273E+02 3.41630E-08 1.84476E-08 4.41230E-02
 -1        44 2.63545E+02 1.45077E+02 2.20345E+02 1.01806E-07 3.86802E-08-7.23980E+00
 -1        45 1.29674E+02 1.59363E+02 4.02237E+02 1.99356E-08-1.88367E-08 2.83037E+00
 -1        46 2.22942E+02 1.56324E+02 2.98495E+02 7.29844E-08-1.66747E-08-8.32478E+00
 -1        47 1.29674E+02 1.59363E+02 4.02237E+02 1.99361E-08-1.88367E-08 2.83037E+00
 -1        48 2.22942E+02 1.56324E+02 2.98495E+02 7.29834E-08-1.66746E-08-8.32478E+00
 -1        49 1.21343E+02 1.77675E+02 4.71893E+02 6.79457E-08-5.76500E-08 1.60828E+01
 -1        50 2.34518E+02 1.90964E+02 4.02676E+02 9.25606E-08-4.50791E-08 6.13625E+00
 -1        51 1.21343E+02 1.77675E+02 4.71893E+02 6.79458E-08-5.76500E-08 1.60828E+01
 -1        52 2.34518E+02 1.90964E+02 4.02676E+02 9.25604E-08-4.50791E-08 6.13625E+00
 -1        53 1.32408E+02 1.93945E+02 5.15159E+02 1.01227E-07-2.81472E-08 3.31450E+01
 -1        54 2.58660E+02 2.48097E+02 5.69580E+02 9.84780E-08-6.23601E-08 2.48033E+01
 -1        55 1.32408E+02 1.93945E+02 5.15159E+02 1.01227E-07-2.81472E-08 3.31450E+01
 -1        56 2.58660E+02 2.48097E+02 5.69580E+02 9.84775E-08-6.23600E-08 2.48033E+01
 -1        57 1.49625E+02 2.03346E+02 5.29315E+02 2.13412E-07 1.37778E-08 1.84956E+01
 -1        58 3.35858E+02 3.20530E+02 7.34590E+02 2.03512E-07-5.04080E-08 1.31105E+01
 -1        59 1.49625E+02 2.03346E+02 5.29315E+02 2.13412E-07 1.37778E-08 1.84956E+01
 -1        60 3.35858E+02 3.20530E+02 7.34590E+02 2.03512E-07-5.04080E-08 1.31105E+01
 -1        61 1.47517E+02 1.97807E+02 5.12866E+02 2.43448E-07 8.85252E-09-1.04433E+01
 -1        62 2.98084E+02 3.03313E+02 7.14852E+02 2.46849E-07-1.88788E-08-1.01192E+01
 -1        63 1.47517E+02 1.97807E+02 5.12866E+02 2.43447E-07 8.85252E-09-1.04433E+01
 -1        64 2.98084E+02 3.03313E+02 7.14852E+02 2.46848E-07-1.88788E-08-1.01192E+01
 -1        65 1.50293E+02 1.83038E+02 4.60667E+02 2.70603E-07-2.15980E-08-2.06006E+01
 -1        66 3.01214E+02 2.76254E+02 6.21073E+02 2.55826E-07 1.27968E-08-1.28893E+01
 -1        67 1.50293E+02 1.83038E+02 4.60667E+02 2.70602E-07-2.15980E-08-2.06006E+01
 -1        68 3.01214E+02 2.76254E+02 6.21073E+02 2.55827E-07 1.27967E-08-1.28893E+01
 -1        69 1.77608E+02 1.74152E+02 4.03544E+02 2.35181E-07-3.09351E-08-2.12923E+01
 -1        70 3.14551E+02 2.58366E+02 5.47813E+02 2.15726E-07 5.82267E-08-1.52372E+01
 -1        71 1.77608E+02 1.74152E+02 4.03544E+02 2.35181E-07-3.09352E-08-2.12923E+01
 -1        72 3.14551E+02 2.58366E+02 5.47813E+02 2.15726E-07 5.82267E-08-1.52372E+01
 -1        73 1.83380E+02 1.67475E+02 3.75450E+02 9.41911E-08-1.25495E-08-3.10493E+01
 -1        74 3.18651E+02 2.39425E+02 4.80370E+02 9.75577E-08 9.29946E-08-3.13046E+01
 -1        75 1.83380E+02 1.67475E+02 3.75450E+02 9.41913E-08-1.25494E-08-3.10493E+01
 -1        76 3.18651E+02 2.39425E+02 4.80370E+02 9.75576E-08 9.29946E-08-3.13046E+01
 -1        77 1.60767E+02 1.57910E+02 3.66124E+02-2.48046E-08-1.11479E-08-1.97183E+01
 -1        78 2.09645E+02 1.51603E+02 2.96101E+02-3.08889E-08 1.35442E-07-2.85209E+01
 -1        79 1.60767E+02 1.57910E+02 3.66124E+02-2.48056E-08-1.11478E-08-1.97183E+01
 -1        80 2.09645E+02 1.51603E+02 2.96101E+02-3.08880E-08 1.35442E-07-2.85209E+01
 -1        81 2.02942E+02 1.76307E+02 3.85329E+02-1.98916E-07-8.97193E-09-1.58231E+01
 -1        82 1.61216E+02 1.02641E+02 1.81095E+02-2.08809E-07 1.69186E-07-6.88757E+01
 -1        83 2.02942E+02 1.76307E+02 3.85329E+02-1.98914E-07-8.97199E-09-1.58231E+01
 -1        84 1.61216E+02 1.02641E+02 1.81095E+02-2.08810E-07 1.69186E-07-6.88757E+01
 -1        85 2.55188E+03 2.50397E+03 5.94579E+03-3.46646E-10-1.95504E-10 2.07090E+03
 -1        86 5.81505E+02 1.39462E+03 4.13128E+03-9.64660E-08-1.38247E-07 8.09589E+02
 -1        87 2.55188E+03 2.50397E+03 5.94579E+03-3.46653E-10-1.95504E-10 2.07090E+03
 -1        88 5.81505E+02 1.39462E+03 4.13128E+03-9.64661E-08-1.38247E-07 8.09589E+02
 -1        89 5.37909E+02 7.96269E+02 2.13814E+03-3.92577E-07-1.29006E-07 5.19978E+02
 -1        90 5.37909E+02 7.96269E+02 2.13814E+03-3.92577E-07-1.29006E-07 5.19978E+02
 -1        91-6.53481E+01-4.05463E+01-6.29642E+01-5.66522E-07 4.79890E-08 4.99899E+02
 -1        92-6.53481E+01-4.05463E+01-6.29642E+01-5.66521E-07 4.79891E-08 4.99899E+02
 -1        93-5.13596E+02-7.61444E+02-2.00560E+03-3.66633E-07 2.40046E-07 3.64288E+02
 -1        94-5.13596E+02-7.61444E+02-2.00560E+03-3.66633E-07 2.40046E-07 3.64288E+02
 -1        95-7.32124E+02-1.15760E+03-3.09076E+03 9.29212E-08 2.58488E-07 6.30606E+01
 -1        96-7.32124E+02-1.15760E+03-3.09076E+03 9.29218E-08 2.58488E-07 6.30606E+01
 -1        97-6.92741E+02-1.02885E+03-2.70932E+03 2.93040E-07 1.33417E-07-2.22969E+02
 -1        98-6.92741E+02-1.02885E+03-2.70932E+03 2.93039E-07 1.33417E-07-2.22969E+02
 -1        99-3.81195E+02-5.19105E+02-1.34068E+03 2.33765E-07 3.00566E-08-2.90001E+02
 -1       100-3.81195E+02-5.19105E+02-1.34068E+03 2.33766E-07 3.00566E-08-2.90001E+02
 -1       101-1.46854E+02-8.84376E+01-1.46798E+02 2.19293E-07-9.86829E-09-1.76159E+02
 -1       102-1.46854E+02-8.84376E+01-1.46798E+02 2.19295E-07-9.86828E-09-1.76159E+02
 -1       103 1.05478E+01 1.20001E+02 3.90262E+02 2.03157E-07-5.72914E-08-4.75548E+01
 -1       104 1.05478E+01 1.20001E+02 3.90262E+02 2.03158E-07-5.72914E-08-4.75548E+01
 -1       105 1.34666E+01 1.44074E+02 4.67719E+02 3.78817E-08-7.08296E-08-6.16387E-02
 -1       106 1.34666E+01 1.44074E+02 4.67719E+02 3.78815E-08-7.08295E-08-6.16389E-02
 -1       107 3.66795E+01 1.62663E+02 5.06616E+02-4.11309E-08-2.68182E-08 1.67312E+00
 -1       108 3.66795E+01 1.62663E+02 5.06616E+02-4.11299E-08-2.68182E-08 1.67312E+00
 -1       109-4.79900E+00 1.51433E+02 5.10772E+02 4.55865E-08 6.37136E-09 1.39257E+01
 -1       110-4.79900E+00 1.51433E+02 5.10772E+02 4.55867E-08 6.37135E-09 1.39257E+01
 -1       111-1.71887E+00 1.31899E+02 4.42296E+02 1.35312E-07 4.21992E-08 2.60148E+01
 -1       112-1.71887E+00 1.31899E+02 4.42296E+02 1.35312E-07 4.21992E-08 2.60148E+01
 -1       113-3.75716E+01 8.51417E+01 3.21915E+02 2.06804E-07 4.19509E-08 1.03245E+01
 -1       114-3.75716E+01 8.51417E+01 3.21915E+02 2.06805E-07 4.19509E-08 1.03245E+01
 -1       115-1.24315E+01 8.29052E+01 2.89173E+02 2.19878E-07 2.62192E-09-1.64089E+01
 -1       116-1.24315E+01 8.29052E+01 2.89173E+02 2.19877E-07 2.62192E-09-1.64089E+01
 -1       117-8.85379E+00 8.15930E+01 2.81193E+02 2.34360E-07-4.40834E-08-2.44370E+01
 -1       118-8.85379E+00 8.15930E+01 2.81193E+02 2.34360E-07-4.40834E-08-2.44370E+01
 -1       119 5.09485E+01 1.00228E+02 2.83469E+02 2.20774E-07-9.57788E-08-2.45916E+01
 -1       120 5.09485E+01 1.00228E+02 2.83469E+02 2.20773E-07-9.57788E-08-2.45916E+01
 -1       121 5.35334E+01 1.00944E+02 2.83278E+02 1.00989E-07-1.12806E-07-2.96045E+01
 -1       122 5.35334E+01 1.00944E+02 2.83278E+02 1.00990E-07-1.12806E-07-2.96045E+01
 -1       123 3.28268E+01 8.50801E+01 2.51041E+02-3.06197E-08-1.15781E-07-2.65034E+01
 -1       124 3.28268E+01 8.50801E+01 2.51041E+02-3.06194E-08-1.15781E-07-2.65034E+01
 -1       125 9.57512E+01 1.00974E+02 2.41030E+02-1.58910E-07-1.12311E-07 1.42363E+01
 -1       126 9.57512E+01 1.00974E+02 2.41030E+02-1.58911E-07-1.12311E-07 1.42363E+01
 -3
    1PSTEP                        23           6           1          
  100CL  106 6.00000E-02         126                     1    6           1
 -4  TOSTRAIN    6    1
 -5  EXX         1    4    1    1
 -5  EYY         1    4    2    2
 -5  EZZ         1    4    3    3
 -5  EXY         1    4    1    2
 -5  EYZ         1    4    2    3
 -5  EZX         1    4    3    1
 -1         1-1.07986E-05-2.05319E-25-1.07393E-02 1.24800E-15-3.42870E-18 6.55557E-03
 -1         2-1.04871E-05-7.12483E-26 1.48187E-04 4.97496E-17-3.82500E-19 5.10489E-03
 -1         3 1.12623E-04 2.33628E-25 1.11076E-04-5.05485E-13 1.33309E-14 2.19502E-03
 -1         4 2.95858E-03 9.78073E-25-8.53367E-03-6.38101E-13 4.96361E-13 2.47505E-03
 -1         5-1.07986E-05-2.05319E-25-1.07393E-02 1.24800E-15-3.42870E-18 6.55557E-03
 -1         6-1.04871E-05-7.12483E-26 1.48187E-04 4.97525E-17-3.82441E-19 5.10489E-03
 -1         7 1.12623E-04 2.33628E-25 1.11076E-04-5.05485E-13 1.33308E-14 2.19502E-03
 -1         8 2.95858E-03 9.78074E-25-8.53367E-03-6.38101E-13 4.96362E-13 2.47505E-03
 -1         9 1.70347E-04 4.10513E-24 1.22700E-04-1.47680E-12 8.90718E-14 2.22588E-03
 -1        10 1.25056E-03 5.31864E-24-3.99869E-03-1.59483E-12 4.94893E-13 1.57366E-03
 -1        11 1.70347E-04 4.10514E-24 1.22700E-04-1.47680E-12 8.90719E-14 2.22588E-03
 -1        12 1.25056E-03 5.31864E-24-3.99869E-03-1.59483E-12 4.94893E-13 1.57366E-03
 -1        13 9.92248E-05 7.72720E-24 2.21830E-04-1.97514E-12 1.05038E-13 2.05543E-03
 -1        14 3.51798E-04 6.58349E-24 4.85840E-04-1.83973E-12-3.95247E-14 1.60629E-03
 -1        15 9.92248E-05 7.72722E-24 2.21830E-04-1.97514E-12 1.05038E-13 2.05543E-03
 -1        16 3.51798E-04 6.58347E-24 4.85840E-04-1.83973E-12-3.95244E-14 1.60629E-03
 -1        17 6.76571E-05 2.88394E-24 2.71220E-04-1.32948E-12 9.12966E-14 1.65303E-03
 -1        18-6.13582E-04 3.19550E-24 4.54595E-03-1.22099E-12-6.89102E-13 1.27333E-03
 -1        19 6.76571E-05 2.88393E-24 2.71220E-04-1.32948E-12 9.12966E-14 1.65303E-03
 -1        20-6.13582E-04 3.19550E-24 4.54595E-03-1.22099E-12-6.89102E-13 1.27333E-03
 -1        21 8.41692E-05-5.85085E-25 2.51344E-04 2.77131E-13 8.72161E-14 3.65587E-04
 -1        22-1.18282E-03 5.44094E-25 6.86204E-03 3.13512E-13-7.37948E-13 2.94347E-04
 -1        23 8.41692E-05-5.85084E-25 2.51344E-04 2.77131E-13 8.72161E-14 3.65587E-04
 -1        24-1.18282E-03 5.44091E-25 6.86204E-03 3.13510E-13-7.37948E-13 2.94347E-04
 -1        25 1.04386E-04 2.40519E-24 2.53617E-04 1.12239E-12 1.50262E-13-9.30765E-04
 -1        26-8.72155E-04 1.85130E-24 6.08858E-03 9.79328E-13-2.42738E-13-7.04453E-04
 -1        27 1.04386E-04 2.40519E-24 2.53617E-04 1.12239E-12 1.50262E-13-9.30765E-04
 -1        28-8.72155E-04 1.85130E-24 6.08858E-03 9.79329E-13-2.42738E-13-7.04453E-04
 -1        29 7.60217E-05 1.93220E-24 3.34326E-04 9.82527E-13 1.01263E-13-1.25536E-03
 -1        30-2.89691E-04 2.25933E-24 3.37685E-03 1.06169E-12 1.38032E-13-9.65537E-04
 -1        31 7.60217E-05 1.93220E-24 3.34326E-04 9.82526E-13 1.01263E-13-1.25536E-03
 -1        32-2.89691E-04 2.25933E-24 3.37685E-03 1.06169E-12 1.38032E-13-9.65537E-04
 -1        33 1.64357E-05 1.07780E-24 4.41213E-04 7.39444E-13-9.20064E-15-7.65612E-04
 -1        34 2.27019E-04 1.19049E-24 1.04477E-03 7.66074E-13 1.56551E-13-5.93975E-04
 -1        35 1.64357E-05 1.07780E-24 4.41213E-04 7.39445E-13-9.20063E-15-7.65612E-04
 -1        36 2.27019E-04 1.19049E-24 1.04477E-03 7.66074E-13 1.56551E-13-5.93975E-04
 -1        37 3.71332E-06 8.51726E-25 5.22448E-04 6.77509E-13 2.15525E-14-2.09137E-04
 -1        38 3.64419E-04 6.04315E-25 1.75029E-04 5.29104E-13 1.91886E-13-1.69636E-04
 -1        39 3.71332E-06 8.51723E-25 5.22448E-04 6.77508E-13 2.15525E-14-2.09137E-04
 -1        40 3.64419E-04 6.04314E-25 1.75029E-04 5.29103E-13 1.91886E-13-1.69636E-04
 -1        41-2.01187E-05-4.36421E-26 6.23555E-04 1.11099E-13 5.97120E-14 1.22182E-06
 -1        42 3.84503E-04 2.22646E-25 2.44549E-04 3.30858E-13 1.25064E-13-2.37663E-05
 -1        43-2.01187E-05-4.36411E-26 6.23555E-04 1.11100E-13 5.97120E-14 1.22182E-06
 -1        44 3.84503E-04 2.22647E-25 2.44549E-04 3.30858E-13 1.25064E-13-2.37663E-05
 -1        45-9.66965E-05-2.49223E-27 7.87835E-04 6.46836E-14-6.12440E-14 1.03827E-05
 -1        46 2.16251E-04 9.98067E-26 4.61597E-04 2.36983E-13-5.44908E-14-2.66473E-05
 -1        47-9.66965E-05-2.49110E-27 7.87835E-04 6.46851E-14-6.12440E-14 1.03827E-05
 -1        48 2.16251E-04 9.98042E-26 4.61597E-04 2.36980E-13-5.44906E-14-2.66473E-05
 -1        49-1.83320E-04 1.49890E-25 9.53935E-04 2.20592E-13-1.87352E-13 5.32969E-05
 -1        50 1.41417E-04 2.19318E-25 6.86786E-04 3.00495E-13-1.46683E-13 2.04364E-05
 -1        51-1.83320E-04 1.49890E-25 9.53935E-04 2.20593E-13-1.87352E-13 5.32969E-05
 -1        52 1.41417E-04 2.19317E-25 6.86786E-04 3.00495E-13-1.46683E-13 2.04364E-05
 -1        53-1.99974E-04 1.93225E-25 1.04116E-03 3.28849E-13-9.16442E-14 1.08513E-04
 -1        54 3.44313E-05 2.63226E-25 1.04185E-03 3.19719E-13-2.02637E-13 8.12289E-05
 -1        55-1.99974E-04 1.93227E-25 1.04116E-03 3.28851E-13-9.16443E-14 1.08513E-04
 -1        56 3.44313E-05 2.63224E-25 1.04185E-03 3.19718E-13-2.02637E-13 8.12289E-05
 -1        57-1.74646E-04 9.31329E-25 1.05662E-03 6.93449E-13 4.39359E-14 6.12835E-05
 -1        58 4.97772E-05 8.88257E-25 1.34111E-03 6.60753E-13-1.64230E-13 4.38746E-05
 -1        59-1.74646E-04 9.31332E-25 1.05662E-03 6.93450E-13 4.39358E-14 6.12835E-05
 -1        60 4.97772E-05 8.88258E-25 1.34111E-03 6.60753E-13-1.64230E-13 4.38746E-05
 -1        61-1.63675E-04 1.24763E-24 1.02158E-03 7.91041E-13 2.75506E-14-3.20677E-05
 -1        62-1.71287E-05 1.28514E-24 1.33320E-03 8.01649E-13-6.24224E-14-3.07750E-05
 -1        63-1.63675E-04 1.24762E-24 1.02158E-03 7.91039E-13 2.75506E-14-3.20677E-05
 -1        64-1.71287E-05 1.28514E-24 1.33320E-03 8.01647E-13-6.24226E-14-3.07750E-05
 -1        65-1.06738E-04 1.54664E-24 9.00563E-04 8.79068E-13-7.16609E-14-6.49418E-05
 -1        66 8.09138E-05 1.37283E-24 1.11763E-03 8.30944E-13 4.00875E-14-3.99266E-05
 -1        67-1.06738E-04 1.54663E-24 9.00563E-04 8.79068E-13-7.16609E-14-6.49418E-05
 -1        68 8.09138E-05 1.37284E-24 1.11763E-03 8.30947E-13 4.00873E-14-3.99266E-05
 -1        69 1.08497E-05 1.12844E-24 7.44407E-04 7.63828E-13-1.01923E-13-6.75741E-05
 -1        70 1.82218E-04 9.91521E-25 9.38618E-04 7.00967E-13 1.87619E-13-4.79043E-05
 -1        71 1.08497E-05 1.12844E-24 7.44407E-04 7.63828E-13-1.01923E-13-6.75741E-05
 -1        72 1.82218E-04 9.91517E-25 9.38618E-04 7.00965E-13 1.87619E-13-4.79043E-05
 -1        73 5.10926E-05 9.34405E-26 6.75197E-04 3.05898E-13-4.13920E-14-9.93380E-05
 -1        74 2.56731E-04 2.85583E-25 7.81861E-04 3.17517E-13 3.01171E-13-1.00335E-04
 -1        75 5.10926E-05 9.34408E-26 6.75197E-04 3.05899E-13-4.13917E-14-9.93380E-05
 -1        76 2.56731E-04 2.85583E-25 7.81861E-04 3.17516E-13 3.01171E-13-1.00335E-04
 -1        77 8.90441E-06-1.18962E-25 6.75860E-04-8.06714E-14-3.60230E-14-6.24861E-05
 -1        78 1.88053E-04 2.42018E-25 4.69356E-04-9.93187E-14 4.40042E-13-9.18581E-05
 -1        79 8.90441E-06-1.18959E-25 6.75860E-04-8.06748E-14-3.60229E-14-6.24861E-05
 -1        80 1.88053E-04 2.42017E-25 4.69356E-04-9.93157E-14 4.40042E-13-9.18581E-05
 -1        81 8.62756E-05 6.53529E-25 6.78297E-04-6.46241E-13-2.78131E-14-5.00096E-05
 -1        82 1.89292E-04 1.29588E-24 2.55654E-04-6.77166E-13 5.50727E-13-2.23472E-04
 -1        83 8.62756E-05 6.53523E-25 6.78297E-04-6.46238E-13-2.78133E-14-5.00096E-05
 -1        84 1.89292E-04 1.29588E-24 2.55654E-04-6.77166E-13 5.50727E-13-2.23472E-04
 -1        85-1.01755E-05-8.29306E-26 1.09579E-02-9.22676E-16 2.84210E-18 6.49873E-03
 -1        86-2.73333E-03 3.01442E-25 8.80345E-03-3.06347E-13-4.47554E-13 2.45618E-03
 -1        87-1.01755E-05-8.29306E-26 1.09579E-02-9.22698E-16 2.84166E-18 6.49873E-03
 -1        88-2.73333E-03 3.01443E-25 8.80345E-03-3.06348E-13-4.47554E-13 2.45618E-03
 -1        89-9.09863E-04 3.22590E-24 4.37317E-03-1.26604E-12-4.38594E-13 1.58106E-03
 -1        90-9.09863E-04 3.22590E-24 4.37317E-03-1.26604E-12-4.38594E-13 1.58106E-03
 -1        91-1.53348E-04 6.61008E-24-1.87503E-05-1.84467E-12 1.20768E-13 1.62383E-03
 -1        92-1.53348E-04 6.61008E-24-1.87503E-05-1.84467E-12 1.20769E-13 1.62383E-03
 -1        93 7.48896E-04 3.44369E-24-4.03775E-03-1.20747E-12 7.64560E-13 1.27303E-03
 -1        94 7.48896E-04 3.44368E-24-4.03775E-03-1.20747E-12 7.64560E-13 1.27303E-03
 -1        95 1.35116E-03 9.72479E-25-6.34937E-03 2.92935E-13 8.50737E-13 2.89073E-04
 -1        96 1.35116E-03 9.72482E-25-6.34937E-03 2.92937E-13 8.50737E-13 2.89073E-04
 -1        97 1.08093E-03 2.05084E-24-5.52372E-03 9.52564E-13 4.40405E-13-7.06457E-04
 -1        98 1.08093E-03 2.05083E-24-5.52372E-03 9.52560E-13 4.40405E-13-7.06457E-04
 -1        99 4.41734E-04 1.13359E-24-2.68553E-03 7.60599E-13 9.72803E-14-9.51546E-04
 -1       100 4.41734E-04 1.13360E-24-2.68553E-03 7.60601E-13 9.72802E-14-9.51546E-04
 -1       101-1.94148E-04 1.01285E-24-1.88357E-04 7.12864E-13-3.38053E-14-5.74055E-04
 -1       102-1.94148E-04 1.01286E-24-1.88357E-04 7.12868E-13-3.38053E-14-5.74055E-04
 -1       103-3.56992E-04 8.75113E-25 8.77269E-04 6.59854E-13-1.87433E-13-1.51606E-04
 -1       104-3.56992E-04 8.75123E-25 8.77269E-04 6.59858E-13-1.87433E-13-1.51606E-04
 -1       105-4.24741E-04 4.83754E-26 1.04942E-03 1.22739E-13-2.30094E-13 2.32596E-06
 -1       106-4.24741E-04 4.83739E-26 1.04942E-03 1.22739E-13-2.30094E-13 2.32596E-06
 -1       107-4.09644E-04 1.30711E-26 1.11500E-03-1.33809E-13-8.68527E-14 7.46661E-06
 -1       108-4.09644E-04 1.30706E-26 1.11500E-03-1.33806E-13-8.68527E-14 7.46661E-06
 -1       109-5.08057E-04-3.02695E-29 1.16469E-03 1.48201E-13 2.05207E-14 4.68847E-05
 -1       110-5.08057E-04-2.90223E-29 1.16469E-03 1.48201E-13 2.05206E-14 4.68847E-05
 -1       111-4.34380E-04 3.79674E-25 1.00628E-03 4.39934E-13 1.36561E-13 8.56411E-05
 -1       112-4.34380E-04 3.79673E-25 1.00628E-03 4.39933E-13 1.36561E-13 8.56411E-05
 -1       113-3.99069E-04 9.28085E-25 7.68146E-04 6.72401E-13 1.35452E-13 3.47615E-05
 -1       114-3.99069E-04 9.28094E-25 7.68146E-04 6.72405E-13 1.35452E-13 3.47615E-05
 -1       115-3.10220E-04 1.01367E-24 6.69584E-04 7.14712E-13 7.44146E-15-5.17440E-05
 -1       116-3.10220E-04 1.01367E-24 6.69584E-04 7.14709E-13 7.44148E-15-5.17440E-05
 -1       117-2.94390E-04 1.18727E-24 6.48072E-04 7.61477E-13-1.44541E-13-7.75479E-05
 -1       118-2.94390E-04 1.18727E-24 6.48072E-04 7.61477E-13-1.44541E-13-7.75479E-05
 -1       119-1.60519E-04 1.17773E-24 5.95024E-04 7.16798E-13-3.12468E-13-7.82546E-05
 -1       120-1.60519E-04 1.17773E-24 5.95024E-04 7.16797E-13-3.12468E-13-7.82546E-05
 -1       121-1.54546E-04 3.92173E-25 5.92162E-04 3.27344E-13-3.67020E-13-9.44467E-05
 -1       122-1.54546E-04 3.92176E-25 5.92162E-04 3.27345E-13-3.67020E-13-9.44467E-05
 -1       123-1.70245E-04 2.04938E-25 5.39062E-04-1.00399E-13-3.75796E-13-8.44371E-05
 -1       124-1.70245E-04 2.04937E-25 5.39062E-04-1.00397E-13-3.75796E-13-8.44371E-05
 -1       125-1.67409E-05 6.99226E-25 4.54473E-04-5.17202E-13-3.63522E-13 4.73473E-05
 -1       126-1.67409E-05 6.99230E-25 4.54473E-04-5.17205E-13-3.63521E-13 4.73473E-05
 -3
    1PSTEP                        24           6           1          
  100CL  106 6.00000E-02         126                     1    6           1
 -4  ERROR       1    1
 -5  STR(%)      1    1    0    0
 -1         1 6.51147E+01
 -1         2 6.51147E+01
 -1         3 6.51147E+01
 -1         4 6.51147E+01
 -1         5 6.51147E+01
 -1         6 6.51147E+01
 -1         7 6.51147E+01
 -1         8 6.51147E+01
 -1         9 5.52707E+01
 -1        10 5.52707E+01
 -1        11 5.52707E+01
 -1        12 5.52707E+01
 -1        13 5.04995E+01
 -1        14 5.04995E+01
 -1        15 5.04995E+01
 -1        16 5.04995E+01
 -1        17 6.22775E+01
 -1        18 5.43894E+01
 -1        19 6.22775E+01
 -1        20 5.43894E+01
 -1        21 6.31463E+01
 -1        22 5.60819E+01
 -1        23 6.31463E+01
 -1        24 5.60819E+01
 -1        25 6.31463E+01
 -1        26 5.60819E+01
 -1        27 6.31463E+01
 -1        28 5.60819E+01
 -1        29 7.47527E+01
 -1        30 4.85419E+01
 -1        31 7.47527E+01
 -1        32 4.85419E+01
 -1        33 7.47527E+01
 -1        34 2.03089E+01
 -1        35 7.47527E+01
 -1        36 2.03089E+01
 -1        37 2.42048E+01
 -1        38 1.46215E+01
 -1        39 2.42048E+01
 -1        40 1.46215E+01
 -1        41 2.42048E+01
 -1        42 1.64074E+01
 -1        43 2.42048E+01
 -1        44 1.64074E+01
 -1        45 1.64074E+01
 -1        46 1.64074E+01
 -1        47 1.64074E+01
 -1        48 1.64074E+01
 -1        49 1.14443E+01
 -1        50 1.14443E+01
 -1        51 1.14443E+01
 -1        52 1.14443E+01
 -1        53 4.78745E+00
 -1        54 4.63322E+00
 -1        55 4.78745E+00
 -1        56 4.63322E+00
 -1        57 1.64654E+01
 -1        58 6.08867E+00
 -1        59 1.64654E+01
 -1        60 6.08867E+00
 -1        61 1.64654E+01
 -1        62 6.08867E+00
 -1        63 1.64654E+01
 -1        64 6.08867E+00
 -1        65 1.19248E+01
 -1        66 4.11806E+00
 -1        67 1.19248E+01
 -1        68 4.11806E+00
 -1        69 7.97601E+00
 -1        70 4.05932E+00
 -1        71 7.97601E+00
 -1        72 4.05932E+00
 -1        73 4.05932E+00
 -1        74 4.05932E+00
 -1        75 4.05932E+00
 -1        76 4.05932E+00
 -1        77 2.44595E+01
 -1        78 2.44595E+01
 -1        79 2.44595E+01
 -1        80 2.44595E+01
 -1        81 2.44595E+01
 -1        82 2.44595E+01
 -1        83 2.44595E+01
 -1        84 2.44595E+01
 -1        85 6.24207E+01
 -1        86 6.24207E+01
 -1        87 6.24207E+01
 -1        88 6.24207E+01
 -1        89 5.14418E+01
 -1        90 5.14418E+01
 -1        91 2.67711E+01
 -1        92 2.67711E+01
 -1        93 6.22775E+01
 -1        94 6.22775E+01
 -1        95 6.31463E+01
 -1        96 6.31463E+01
 -1        97 6.31463E+01
 -1        98 6.31463E+01
 -1        99 7.47527E+01
 -1       100 7.47527E+01
 -1       101 7.47527E+01
 -1       102 7.47527E+01
 -1       103 2.42048E+01
 -1       104 2.42048E+01
 -1       105 2.42048E+01
 -1       106 2.42048E+01
 -1       107 1.39332E+01
 -1       108 1.39332E+01
 -1       109 9.32663E+00
 -1       110 9.32663E+00
 -1       111 4.78745E+00
 -1       112 4.78745E+00
 -1       113 1.64654E+01
 -1       114 1.64654E+01
 -1       115 1.64654E+01
 -1       116 1.64654E+01
 -1       117 1.19248E+01
 -1       118 1.19248E+01
 -1       119 7.97601E+00
 -1       120 7.97601E+00
 -1       121 3.72567E+00
 -1       122 3.72567E+00
 -1       123 1.55138E+01
 -1       124 1.55138E+01
 -1       125 1.55138E+01
 -1       126 1.55138E+01
 -3
    1PSTEP                        25           7           1          
  100CL  107 7.00000E-02         126                     1    7           1
 -4  DISP        4    1
 -5  D1          1    2    1    0
 -5  D2          1    2    2    0
 -5  D3          1    2    3    0
 -5  ALL         1    2    0    0    1ALL
 -1         1 0.00000E+00 0.00000E+00 0.00000E+00
 -1         2 0.00000E+00 0.00000E+00 0.00000E+00
 -1         3 5.39171E-04 0.00000E+00 3.60231E-06
 -1         4 6.49565E-04 0.00000E+00-5.79604E-04
 -1         5 0.00000E+00 0.00000E+00 0.00000E+00
 -1         6 0.00000E+00 0.00000E+00 0.00000E+00
 -1         7 5.39171E-04 0.00000E+00 3.60231E-06
 -1         8 6.49565E-04 0.00000E+00-5.79604E-04
 -1         9 1.62286E-03 0.00000E+00 8.77198E-06
 -1        10 1.64309E-03 0.00000E+00-9.54261E-04
 -1        11 1.62286E-03 0.00000E+00 8.77198E-06
 -1        12 1.64309E-03 0.00000E+00-9.54261E-04
 -1        13 2.88827E-03 0.00000E+00 6.12408E-06
 -1        14 2.86962E-03 0.00000E+00-1.09960E-03
 -1        15 2.88827E-03 0.00000E+00 6.12408E-06
 -1        16 2.86962E-03 0.00000E+00-1.09960E-03
 -1        17 4.18755E-03 0.00000E+00 5.42106E-06
 -1        18 4.12674E-03 0.00000E+00-1.05358E-03
 -1        19 4.18755E-03 0.00000E+00 5.42106E-06
 -1        20 4.12674E-03 0.00000E+00-1.05358E-03
 -1        21 5.35515E-03 0.00000E+00 1.28953E-05
 -1        22 5.25835E-03 0.00000E+00-8.15817E-04
 -1        23 5.35515E-03 0.00000E+00 1.28953E-05
 -1        24 5.25835E-03 0.00000E+00-8.15817E-04
 -1        25 6.10972E-03 0.00000E+00 3.29269E-05
 -1        26 5.99724E-03 0.00000E+00-4.26000E-04
 -1        27 6.10972E-03 0.00000E+00 3.29269E-05
 -1        28 5.99724E-03 0.00000E+00-4.26000E-04
 -1        29 6.28275E-03 0.00000E+00 6.21263E-05
 -1        30 6.19144E-03 0.00000E+00-3.12045E-05
 -1        31 6.28275E-03 0.00000E+00 6.21263E-05
 -1        32 6.19144E-03 0.00000E+00-3.12045E-05
 -1        33 6.06871E-03 0.00000E+00 9.57842E-05
 -1        34 6.01266E-03 0.00000E+00 2.27626E-04
 -1        35 6.06871E-03 0.00000E+00 9.57842E-05
 -1        36 6.01266E-03 0.00000E+00 2.27626E-04
 -1        37 5.75391E-03 0.00000E+00 1.35843E-04
 -1        38 5.72426E-03 0.00000E+00 3.27699E-04
 -1        39 5.75391E-03 0.00000E+00 1.35843E-04
 -1        40 5.72426E-03 0.00000E+00 3.27699E-04
 -1        41 5.53116E-03 0.00000E+00 1.83977E-04
 -1        42 5.50937E-03 0.00000E+00 3.38467E-04
 -1        43 5.53116E-03 0.00000E+00 1.83977E-04
 -1        44 5.50937E-03 0.00000E+00 3.38467E-04
 -1        45 5.41133E-03 0.00000E+00 2.38153E-04
 -1        46 5.38742E-03 0.00000E+00 3.38292E-04
 -1        47 5.41133E-03 0.00000E+00 2.38153E-04
 -1        48 5.38742E-03 0.00000E+00 3.38292E-04
 -1        49 5.35951E-03 0.00000E+00 2.94952E-04
 -1        50 5.33023E-03 0.00000E+00 3.63185E-04
 -1        51 5.35951E-03 0.00000E+00 2.94952E-04
 -1        52 5.33023E-03 0.00000E+00 3.63185E-04
 -1        53 5.32179E-03 0.00000E+00 3.51223E-04
 -1        54 5.28955E-03 0.00000E+00 4.11316E-04
 -1        55 5.32179E-03 0.00000E+00 3.51223E-04
 -1        56 5.28955E-03 0.00000E+00 4.11316E-04
 -1        57 5.28309E-03 0.00000E+00 4.02743E-04
 -1        58 5.25213E-03 0.00000E+00 4.71478E-04
 -1        59 5.28309E-03 0.00000E+00 4.02743E-04
 -1        60 5.25213E-03 0.00000E+00 4.71478E-04
 -1        61 5.20969E-03 0.00000E+00 4.45426E-04
 -1        62 5.18339E-03 0.00000E+00 5.35248E-04
 -1        63 5.20969E-03 0.00000E+00 4.45426E-04
 -1        64 5.18339E-03 0.00000E+00 5.35248E-04
 -1        65 5.10640E-03 0.00000E+00 4.79824E-04
 -1        66 5.08512E-03 0.00000E+00 5.92927E-04
 -1        67 5.10640E-03 0.00000E+00 4.79824E-04
 -1        68 5.08512E-03 0.00000E+00 5.92927E-04
 -1        69 4.98231E-03 0.00000E+00 5.12540E-04
 -1        70 4.96253E-03 0.00000E+00 6.38393E-04
 -1        71 4.98231E-03 0.00000E+00 5.12540E-04
 -1        72 4.96253E-03 0.00000E+00 6.38393E-04
 -1        73 4.86375E-03 0.00000E+00 5.44899E-04
 -1        74 4.84787E-03 0.00000E+00 6.73282E-04
 -1        75 4.86375E-03 0.00000E+00 5.44899E-04
 -1        76 4.84787E-03 0.00000E+00 6.73282E-04
 -1        77 4.74078E-03 0.00000E+00 5.71850E-04
 -1        78 4.73050E-03 0.00000E+00 7.02594E-04
 -1        79 4.74078E-03 0.00000E+00 5.71850E-04
 -1        80 4.73050E-03 0.00000E+00 7.02594E-04
 -1        81 4.60579E-03 0.00000E+00 6.08002E-04
 -1        82 4.59754E-03 0.00000E+00 7.19844E-04
 -1        83 4.60579E-03 0.00000E+00 6.08002E-04
 -1        84 4.59754E-03 0.00000E+00 7.19844E-04
 -1        85 0.00000E+00 0.00000E+00 0.00000E+00
 -1        86 6.96730E-04 0.00000E+00 5.91082E-04
 -1        87 0.00000E+00 0.00000E+00 0.00000E+00
 -1        88 6.96730E-04 0.00000E+00 5.91082E-04
 -1        89 1.70120E-03 0.00000E+00 9.67696E-04
 -1        90 1.70120E-03 0.00000E+00 9.67696E-04
 -1        91 2.92925E-03 0.00000E+00 1.11121E-03
 -1        92 2.92925E-03 0.00000E+00 1.11121E-03
 -1        93 4.18934E-03 0.00000E+00 1.06905E-03
 -1        94 4.18934E-03 0.00000E+00 1.06905E-03
 -1        95 5.31775E-03 0.00000E+00 8.48323E-04
 -1        96 5.31775E-03 0.00000E+00 8.48323E-04
 -1        97 6.05343E-03 0.00000E+00 4.95024E-04
 -1        98 6.05343E-03 0.00000E+00 4.95024E-04
 -1        99 6.24288E-03 0.00000E+00 1.55316E-04
 -1       100 6.24288E-03 0.00000E+00 1.55316E-04
 -1       101 6.06751E-03 0.00000E+00-3.39594E-05
 -1       102 6.06751E-03 0.00000E+00-3.39594E-05
 -1       103 5.78629E-03 0.00000E+00-5.17704E-05
 -1       104 5.78629E-03 0.00000E+00-5.17704E-05
 -1       105 5.57865E-03 0.00000E+00 3.20901E-05
 -1       106 5.57865E-03 0.00000E+00 3.20901E-05
 -1       107 5.45749E-03 0.00000E+00 1.38256E-04
 -1       108 5.45749E-03 0.00000E+00 1.38256E-04
 -1       109 5.40001E-03 0.00000E+00 2.26508E-04
 -1       110 5.40001E-03 0.00000E+00 2.26508E-04
 -1       111 5.35712E-03 0.00000E+00 2.89714E-04
 -1       112 5.35712E-03 0.00000E+00 2.89714E-04
 -1       113 5.31269E-03 0.00000E+00 3.29790E-04
 -1       114 5.31269E-03 0.00000E+00 3.29790E-04
 -1       115 5.23222E-03 0.00000E+00 3.51119E-04
 -1       116 5.23222E-03 0.00000E+00 3.51119E-04
 -1       117 5.12703E-03 0.00000E+00 3.66847E-04
 -1       118 5.12703E-03 0.00000E+00 3.66847E-04
 -1       119 5.00622E-03 0.00000E+00 3.88935E-04
 -1       120 5.00622E-03 0.00000E+00 3.88935E-04
 -1       121 4.88712E-03 0.00000E+00 4.14884E-04
 -1       122 4.88712E-03 0.00000E+00 4.14884E-04
 -1       123 4.75904E-03 0.00000E+00 4.37280E-04
 -1       124 4.75904E-03 0.00000E+00 4.37280E-04
 -1       125 4.61822E-03 0.00000E+00 4.59790E-04
 -1       126 4.61822E-03 0.00000E+00 4.59790E-04
 -3
    1PSTEP                        26           7           1          
  100CL  107 7.00000E-02         126                     1    7           1
 -4  STRESS      6    1
 -5  SXX         1    4    1    1
 -5  SYY         1    4    2    2
 -5  SZZ         1    4    3    3
 -5  SXY         1    4    1    2
 -5  SYZ         1    4    2    3
 -5  SZX         1    4    3    1
 -1         1-2.62403E+03-2.67099E+03-6.11641E+03 2.23759E-10-3.60493E-10 1.92309E+03
 -1         2 6.07891E+01 3.00407E+01 4.17898E+01-7.16681E-11-4.71160E-10 1.65857E+03
 -1         3-1.28903E+02-3.97832E+01-3.96609E+00-2.41284E-07-1.50918E-08 6.96037E+02
 -1         4-9.19537E+02-1.64563E+03-4.49241E+03-1.79795E-07 2.54821E-08 6.97605E+02
 -1         5-2.62403E+03-2.67099E+03-6.11641E+03 2.23759E-10-3.60493E-10 1.92309E+03
 -1         6 6.07891E+01 3.00407E+01 4.17898E+01-7.16672E-11-4.71160E-10 1.65857E+03
 -1         7-1.28903E+02-3.97832E+01-3.96609E+00-2.41284E-07-1.50918E-08 6.96037E+02
 -1         8-9.19537E+02-1.64563E+03-4.49241E+03-1.79795E-07 2.54821E-08 6.97605E+02
 -1         9-1.11917E+02-2.16789E+01 3.95747E+01-3.04058E-07-2.14829E-08 6.58592E+02
 -1        10-8.06400E+02-1.00824E+03-2.52799E+03-3.00174E-07-7.38249E-09 4.30088E+02
 -1        11-1.11917E+02-2.16789E+01 3.95747E+01-3.04058E-07-2.14829E-08 6.58592E+02
 -1        12-8.06400E+02-1.00824E+03-2.52799E+03-3.00174E-07-7.38246E-09 4.30088E+02
 -1        13-9.33995E+01-1.29993E+01 5.29145E+01-2.70190E-07-3.99464E-09 5.46234E+02
 -1        14-2.07050E+02-1.88116E+02-4.14296E+02-2.65447E-07 1.75581E-08 4.15604E+02
 -1        15-9.33995E+01-1.29993E+01 5.29145E+01-2.70189E-07-3.99467E-09 5.46234E+02
 -1        16-2.07050E+02-1.88116E+02-4.14296E+02-2.65447E-07 1.75582E-08 4.15604E+02
 -1        17-1.02970E+02-6.41217E+00 8.36461E+01-3.01562E-07 1.27872E-08 5.31796E+02
 -1        18 2.07001E+02 4.91677E+02 1.44441E+03-2.99057E-07-2.77383E-10 4.32284E+02
 -1        19-1.02970E+02-6.41217E+00 8.36461E+01-3.01563E-07 1.27872E-08 5.31796E+02
 -1        20 2.07001E+02 4.91677E+02 1.44441E+03-2.99057E-07-2.77456E-10 4.32284E+02
 -1        21-1.16100E+02 2.78368E+00 1.25976E+02-1.39027E-07 4.49901E-08 3.99059E+02
 -1        22 5.38871E+02 1.07507E+03 3.08183E+03-1.69095E-07-1.21569E-07 3.52265E+02
 -1        23-1.16100E+02 2.78368E+00 1.25976E+02-1.39027E-07 4.49901E-08 3.99059E+02
 -1        24 5.38871E+02 1.07507E+03 3.08183E+03-1.69094E-07-1.21569E-07 3.52265E+02
 -1        25-1.40568E+02 7.28342E+00 1.66030E+02 1.82839E-07 1.12128E-08 1.13520E+01
 -1        26 6.45636E+02 1.31489E+03 3.79036E+03 1.94436E-07-1.65633E-07 3.83048E+01
 -1        27-1.40568E+02 7.28342E+00 1.66030E+02 1.82840E-07 1.12128E-08 1.13520E+01
 -1        28 6.45636E+02 1.31489E+03 3.79036E+03 1.94436E-07-1.65633E-07 3.83048E+01
 -1        29-1.23760E+02 2.83486E+01 2.18098E+02 3.57083E-07-5.91378E-09-3.50143E+02
 -1        30 5.31932E+02 1.08890E+03 3.13500E+03 2.93913E-07-1.09714E-07-2.63662E+02
 -1        31-1.23760E+02 2.83486E+01 2.18098E+02 3.57082E-07-5.91377E-09-3.50143E+02
 -1        32 5.31932E+02 1.08890E+03 3.13500E+03 2.93913E-07-1.09714E-07-2.63662E+02
 -1        33-1.15165E+02 4.77284E+01 2.75084E+02 4.19238E-07 1.80321E-08-4.12192E+02
 -1        34 2.32540E+02 5.72917E+02 1.69051E+03 4.06383E-07-1.51392E-08-3.17448E+02
 -1        35-1.15165E+02 4.77284E+01 2.75084E+02 4.19239E-07 1.80321E-08-4.12192E+02
 -1        36 2.32540E+02 5.72917E+02 1.69051E+03 4.06383E-07-1.51392E-08-3.17448E+02
 -1        37-1.19978E+02 6.55863E+01 3.40122E+02 3.81497E-07 3.31285E-08-2.44425E+02
 -1        38-5.43772E+01 1.23639E+02 4.68823E+02 3.72033E-07 6.80683E-08-1.85821E+02
 -1        39-1.19978E+02 6.55863E+01 3.40122E+02 3.81495E-07 3.31285E-08-2.44425E+02
 -1        40-5.43772E+01 1.23639E+02 4.68823E+02 3.72035E-07 6.80683E-08-1.85821E+02
 -1        41-1.31731E+02 7.89198E+01 3.96035E+02 3.41607E-07 2.09033E-08-5.65890E+01
 -1        42-2.05530E+02-7.36121E+01-3.95761E+01 3.30289E-07 1.16484E-07-4.31444E+01
 -1        43-1.31731E+02 7.89198E+01 3.96035E+02 3.41608E-07 2.09032E-08-5.65890E+01
 -1        44-2.05530E+02-7.36121E+01-3.95761E+01 3.30288E-07 1.16484E-07-4.31444E+01
 -1        45-1.19244E+02 9.53930E+01 4.38403E+02 1.42864E-07-3.92015E-09 4.32133E+01
 -1        46-1.98733E+02-5.24091E+01 2.42627E+01 1.07681E-07 7.42700E-08 3.23567E+01
 -1        47-1.19244E+02 9.53930E+01 4.38403E+02 1.42863E-07-3.92017E-09 4.32133E+01
 -1        48-1.98733E+02-5.24091E+01 2.42627E+01 1.07681E-07 7.42701E-08 3.23567E+01
 -1        49-1.13861E+02 1.00356E+02 4.49592E+02 9.66705E-08-7.75126E-09 7.23016E+01
 -1        50-1.45978E+02 3.37874E+01 2.59213E+02 1.07956E-07-2.93277E-08 5.91787E+01
 -1        51-1.13861E+02 1.00356E+02 4.49592E+02 9.66706E-08-7.75127E-09 7.23016E+01
 -1        52-1.45978E+02 3.37874E+01 2.59213E+02 1.07956E-07-2.93278E-08 5.91787E+01
 -1        53-1.14294E+02 9.31913E+01 4.26061E+02 1.77584E-07-3.02402E-08 6.93286E+01
 -1        54-9.65790E+01 1.01451E+02 4.35881E+02 2.14176E-07-8.49485E-08 6.45799E+01
 -1        55-1.14294E+02 9.31913E+01 4.26061E+02 1.77584E-07-3.02402E-08 6.93286E+01
 -1        56-9.65790E+01 1.01451E+02 4.35881E+02 2.14177E-07-8.49484E-08 6.45799E+01
 -1        57-1.07653E+02 7.81626E+01 3.69065E+02 2.56075E-07-3.42433E-08 4.52659E+01
 -1        58-4.64309E+01 1.43611E+02 5.26530E+02 2.66998E-07-8.24033E-08 4.79065E+01
 -1        59-1.07653E+02 7.81626E+01 3.69065E+02 2.56076E-07-3.42433E-08 4.52659E+01
 -1        60-4.64309E+01 1.43611E+02 5.26530E+02 2.66999E-07-8.24034E-08 4.79065E+01
 -1        61-8.35450E+01 6.60306E+01 3.04193E+02 3.68796E-07-1.63311E-08 1.11160E+01
 -1        62-1.51228E+00 1.59693E+02 5.35110E+02 3.37563E-07-3.55688E-08 1.90084E+01
 -1        63-8.35450E+01 6.60306E+01 3.04193E+02 3.68797E-07-1.63310E-08 1.11160E+01
 -1        64-1.51228E+00 1.59693E+02 5.35110E+02 3.37562E-07-3.55687E-08 1.90084E+01
 -1        65-6.86105E+01 5.94118E+01 2.67052E+02 3.35845E-07-1.89296E-09-2.37257E+00
 -1        66 1.09092E+01 1.41012E+02 4.60072E+02 3.07061E-07 2.62073E-08 7.74517E+00
 -1        67-6.86105E+01 5.94118E+01 2.67052E+02 3.35844E-07-1.89296E-09-2.37257E+00
 -1        68 1.09092E+01 1.41012E+02 4.60072E+02 3.07062E-07 2.62072E-08 7.74517E+00
 -1        69-8.25875E+01 5.08024E+01 2.52326E+02 2.05660E-07-3.84366E-09 1.00705E+01
 -1        70-2.52195E+01 9.55574E+01 3.44330E+02 2.11062E-07 5.15748E-08 2.18183E+01
 -1        71-8.25875E+01 5.08024E+01 2.52326E+02 2.05660E-07-3.84370E-09 1.00705E+01
 -1        72-2.52195E+01 9.55574E+01 3.44330E+02 2.11061E-07 5.15747E-08 2.18183E+01
 -1        73-7.19240E+01 4.78030E+01 2.31615E+02 1.01103E-07-2.46640E-08 2.55810E+01
 -1        74-2.05427E+01 7.62777E+01 2.75189E+02 1.25228E-07 6.37372E-08 3.77363E+01
 -1        75-7.19240E+01 4.78030E+01 2.31615E+02 1.01103E-07-2.46640E-08 2.55810E+01
 -1        76-2.05427E+01 7.62777E+01 2.75189E+02 1.25228E-07 6.37372E-08 3.77363E+01
 -1        77-5.38329E+00 8.13601E+01 2.76945E+02-1.42455E-08-2.31862E-09 1.09481E+01
 -1        78-7.13537E-01 6.15380E+01 2.06042E+02-2.36456E-08 5.26309E-08 1.69270E+01
 -1        79-5.38329E+00 8.13601E+01 2.76945E+02-1.42451E-08-2.31864E-09 1.09481E+01
 -1        80-7.13538E-01 6.15380E+01 2.06042E+02-2.36452E-08 5.26310E-08 1.69270E+01
 -1        81 5.83169E+01 1.20777E+02 3.44770E+02-3.28689E-08 1.37563E-08-1.56647E+01
 -1        82-6.69730E+00 4.29400E+01 1.49959E+02 3.97548E-08 1.19385E-08-6.51905E+01
 -1        83 5.83169E+01 1.20777E+02 3.44770E+02-3.28687E-08 1.37565E-08-1.56647E+01
 -1        84-6.69730E+00 4.29400E+01 1.49959E+02 3.97546E-08 1.19383E-08-6.51905E+01
 -1        85 2.78893E+03 2.73418E+03 6.50261E+03-5.12737E-10-6.45085E-10 2.22690E+03
 -1        86 6.39876E+02 1.55737E+03 4.62960E+03-3.28770E-07-4.93233E-08 8.49019E+02
 -1        87 2.78893E+03 2.73418E+03 6.50261E+03-5.12743E-10-6.45085E-10 2.22690E+03
 -1        88 6.39876E+02 1.55737E+03 4.62960E+03-3.28770E-07-4.93232E-08 8.49019E+02
 -1        89 5.35520E+02 9.38264E+02 2.62144E+03-3.08520E-07-5.03212E-09 5.10231E+02
 -1        90 5.35520E+02 9.38264E+02 2.62144E+03-3.08520E-07-5.03229E-09 5.10231E+02
 -1        91 1.65380E+01 1.72244E+02 5.63972E+02-2.94328E-07 4.04389E-10 4.34955E+02
 -1        92 1.65380E+01 1.72244E+02 5.63972E+02-2.94328E-07 4.04612E-10 4.34955E+02
 -1        93-4.19471E+02-4.97335E+02-1.22915E+03-2.70134E-07 6.57837E-08 3.91173E+02
 -1        94-4.19471E+02-4.97335E+02-1.22915E+03-2.70135E-07 6.57836E-08 3.91173E+02
 -1        95-7.91620E+02-1.07939E+03-2.77761E+03-8.73989E-08 1.82271E-07 2.77971E+02
 -1        96-7.91620E+02-1.07939E+03-2.77761E+03-8.73983E-08 1.82271E-07 2.77971E+02
 -1        97-9.50832E+02-1.31811E+03-3.40144E+03 1.75457E-07 1.88663E-07-1.02050E+01
 -1        98-9.50832E+02-1.31811E+03-3.40144E+03 1.75455E-07 1.88663E-07-1.02050E+01
 -1        99-7.87640E+02-1.03640E+03-2.64139E+03 3.79856E-07 9.65389E-08-2.64843E+02
 -1       100-7.87640E+02-1.03640E+03-2.64139E+03 3.79857E-07 9.65389E-08-2.64843E+02
 -1       101-4.58644E+02-4.69815E+02-1.10073E+03 4.02926E-07 2.44103E-08-3.00827E+02
 -1       102-4.58644E+02-4.69815E+02-1.10073E+03 4.02926E-07 2.44103E-08-3.00827E+02
 -1       103-1.87555E+02 7.41117E+00 2.14183E+02 3.83684E-07-4.44827E-09-1.75245E+02
 -1       104-1.87555E+02 7.41117E+00 2.14183E+02 3.83684E-07-4.44826E-09-1.75245E+02
 -1       105-6.78031E+01 2.22025E+02 8.11205E+02 3.22484E-07-4.25972E-08-3.99131E+01
 -1       106-6.78031E+01 2.22025E+02 8.11205E+02 3.22484E-07-4.25972E-08-3.99131E+01
 -1       107-4.62218E+01 2.36747E+02 8.38721E+02 1.97137E-07-6.59060E-08 3.17537E+01
 -1       108-4.62218E+01 2.36747E+02 8.38721E+02 1.97138E-07-6.59059E-08 3.17537E+01
 -1       109-8.55167E+01 1.63130E+02 6.31396E+02 1.31674E-07-4.20638E-08 5.58614E+01
 -1       110-8.55167E+01 1.63130E+02 6.31396E+02 1.31674E-07-4.20637E-08 5.58614E+01
 -1       111-1.41225E+02 7.56949E+01 3.94641E+02 1.56417E-07 3.25988E-09 5.46852E+01
 -1       112-1.41225E+02 7.56949E+01 3.94641E+02 1.56417E-07 3.25992E-09 5.46852E+01
 -1       113-1.75941E+02 5.62984E+00 1.95215E+02 2.54223E-07 4.95379E-08 3.20965E+01
 -1       114-1.75941E+02 5.62984E+00 1.95215E+02 2.54223E-07 4.95379E-08 3.20965E+01
 -1       115-1.55601E+02-1.76367E+01 9.70070E+01 3.76137E-07 3.24935E-08 4.31336E+00
 -1       116-1.55601E+02-1.76367E+01 9.70070E+01 3.76138E-07 3.24935E-08 4.31336E+00
 -1       117-1.32714E+02-6.71173E+00 1.10524E+02 3.57954E-07-4.51456E-08-3.50741E-01
 -1       118-1.32714E+02-6.71173E+00 1.10524E+02 3.57954E-07-4.51456E-08-3.50742E-01
 -1       119-1.44121E+02 1.93597E+00 1.50853E+02 2.04396E-07-1.00924E-07 1.08661E+01
 -1       120-1.44121E+02 1.93597E+00 1.50853E+02 2.04397E-07-1.00924E-07 1.08661E+01
 -1       121-1.37371E+02 5.27923E+00 1.55252E+02 8.66539E-08-1.04179E-07 1.94045E+01
 -1       122-1.37371E+02 5.27923E+00 1.55252E+02 8.66520E-08-1.04179E-07 1.94045E+01
 -1       123-9.01528E+01 2.10348E+01 1.60472E+02 1.99228E-09-7.16610E-08 3.69547E-02
 -1       124-9.01528E+01 2.10348E+01 1.60472E+02 1.99216E-09-7.16610E-08 3.69546E-02
 -1       125-2.67266E+01 4.84847E+01 1.88513E+02-6.80395E-08-5.74359E-08 2.24353E+01
 -1       126-2.67266E+01 4.84847E+01 1.88513E+02-6.80404E-08-5.74360E-08 2.24353E+01
 -3
    1PSTEP                        27           7           1          
  100CL  107 7.00000E-02         126                     1    7           1
 -4  TOSTRAIN    6    1
 -5  EXX         1    4    1    1
 -5  EYY         1    4    2    2
 -5  EZZ         1    4    3    3
 -5  EXY         1    4    1    2
 -5  EYZ         1    4    2    3
 -5  EZX         1    4    3    1
 -1         1-1.17819E-05-1.13185E-25-1.14520E-02 3.97601E-16 3.40148E-20 6.49551E-03
 -1         2-1.20307E-05-2.01735E-25 1.18145E-04-1.36021E-16 7.85982E-19 5.39157E-03
 -1         3-4.07897E-04 1.10438E-24 2.25732E-04-7.83798E-13-5.76190E-14 2.25643E-03
 -1         4 2.26988E-03 5.96045E-25-9.36228E-03-5.86558E-13 7.75681E-14 2.45707E-03
 -1         5-1.17819E-05-1.13185E-25-1.14520E-02 3.97601E-16 3.40148E-20 6.49551E-03
 -1         6-1.20307E-05-2.01735E-25 1.18145E-04-1.36018E-16 7.86044E-19 5.39157E-03
 -1         7-4.07897E-04 1.10438E-24 2.25732E-04-7.83798E-13-5.76190E-14 2.25643E-03
 -1         8 2.26988E-03 5.96045E-25-9.36228E-03-5.86558E-13 7.75680E-14 2.45707E-03
 -1         9-3.98577E-04 1.95483E-24 2.99930E-04-9.86732E-13-8.86779E-14 2.12854E-03
 -1        10 5.87186E-04 1.87654E-24-4.93746E-03-9.76256E-13-4.28848E-14 1.52441E-03
 -1        11-3.98577E-04 1.95483E-24 2.99930E-04-9.86732E-13-8.86778E-14 2.12854E-03
 -1        12 5.87186E-04 1.87654E-24-4.93746E-03-9.76256E-13-4.28847E-14 1.52441E-03
 -1        13-3.52126E-04 1.53848E-24 2.94985E-04-8.77837E-13-3.24316E-14 1.76204E-03
 -1        14-1.28860E-04 1.49082E-24-6.82816E-04-8.64325E-13 3.79613E-14 1.36730E-03
 -1        15-3.52126E-04 1.53848E-24 2.94985E-04-8.77835E-13-3.24317E-14 1.76204E-03
 -1        16-1.28860E-04 1.49082E-24-6.82816E-04-8.64325E-13 3.79615E-14 1.36730E-03
 -1        17-4.01237E-04 1.87641E-24 3.71885E-04-9.81231E-13 2.08492E-14 1.71275E-03
 -1        18-9.91980E-04 1.84206E-24 3.12873E-03-9.71574E-13-2.12868E-14 1.30899E-03
 -1        19-4.01237E-04 1.87641E-24 3.71885E-04-9.81232E-13 2.08492E-14 1.71275E-03
 -1        20-9.91980E-04 1.84206E-24 3.12873E-03-9.71574E-13-2.12871E-14 1.30899E-03
 -1        21-4.57690E-04 1.37207E-25 4.65148E-04-4.54822E-13 1.38714E-13 1.28212E-03
 -1        22-1.79997E-03 5.23255E-25 6.47595E-03-5.41888E-13-4.00577E-13 9.95176E-04
 -1        23-4.57690E-04 1.37208E-25 4.65148E-04-4.54823E-13 1.38714E-13 1.28212E-03
 -1        24-1.79997E-03 5.23253E-25 6.47595E-03-5.41887E-13-4.00577E-13 9.95176E-04
 -1        25-5.22493E-04 3.63624E-25 5.47785E-04 5.94158E-13 4.18247E-14 2.79859E-05
 -1        26-2.20946E-03 9.99394E-25 7.93057E-03 6.36378E-13-5.26950E-13 2.96615E-05
 -1        27-5.22493E-04 3.63630E-25 5.47785E-04 5.94161E-13 4.18247E-14 2.79859E-05
 -1        28-2.20946E-03 9.99390E-25 7.93057E-03 6.36376E-13-5.26951E-13 2.96615E-05
 -1        29-5.14854E-04 2.59695E-24 6.33207E-04 1.16095E-12-1.71158E-14-1.13807E-03
 -1        30-1.82588E-03 1.96657E-24 6.56226E-03 9.54608E-13-3.51829E-13-8.62375E-04
 -1        31-5.14854E-04 2.59694E-24 6.33207E-04 1.16094E-12-1.71158E-14-1.13807E-03
 -1        32-1.82588E-03 1.96657E-24 6.56226E-03 9.54608E-13-3.51829E-13-8.62375E-04
 -1        33-5.45633E-04 3.71919E-24 7.50965E-04 1.36341E-12 5.50073E-14-1.33378E-03
 -1        34-1.11780E-03 3.44737E-24 3.60722E-03 1.32032E-12-5.23832E-14-1.01004E-03
 -1        35-5.45633E-04 3.71921E-24 7.50965E-04 1.36342E-12 5.50073E-14-1.33378E-03
 -1        36-1.11780E-03 3.44738E-24 3.60722E-03 1.32032E-12-5.23833E-14-1.01004E-03
 -1        37-6.12964E-04 3.09704E-24 8.97062E-04 1.24101E-12 1.02854E-13-7.87060E-04
 -1        38-5.85552E-04 3.00589E-24 1.12222E-03 1.21058E-12 2.16287E-13-5.94256E-04
 -1        39-6.12964E-04 3.09702E-24 8.97062E-04 1.24100E-12 1.02854E-13-7.87060E-04
 -1        40-5.85552E-04 3.00591E-24 1.12222E-03 1.21059E-12 2.16287E-13-5.94256E-04
 -1        41-6.87887E-04 2.38439E-24 1.02991E-03 1.11102E-12 6.44610E-14-1.78288E-04
 -1        42-4.30966E-04 2.46778E-24 1.11948E-04 1.07535E-12 3.75275E-13-1.38421E-04
 -1        43-6.87887E-04 2.38439E-24 1.02991E-03 1.11102E-12 6.44610E-14-1.78288E-04
 -1        44-4.30966E-04 2.46778E-24 1.11948E-04 1.07535E-12 3.75275E-13-1.38421E-04
 -1        45-6.98494E-04 3.35986E-25 1.11196E-03 4.64522E-13-1.36350E-14 1.43633E-04
 -1        46-4.76097E-04 2.30257E-25 2.48971E-04 3.50610E-13 2.40656E-13 1.06345E-04
 -1        47-6.98494E-04 3.35981E-25 1.11196E-03 4.64519E-13-1.36350E-14 1.43633E-04
 -1        48-4.76097E-04 2.30259E-25 2.48971E-04 3.50611E-13 2.40656E-13 1.06345E-04
 -1        49-6.96647E-04 1.81019E-25 1.13169E-03 3.14310E-13-2.55839E-14 2.36793E-04
 -1        50-5.84524E-04 2.22755E-25 7.30974E-04 3.50939E-13-9.57126E-14 1.93758E-04
 -1        51-6.96647E-04 1.81019E-25 1.13169E-03 3.14310E-13-2.55840E-14 2.36793E-04
 -1        52-5.84524E-04 2.22755E-25 7.30974E-04 3.50939E-13-9.57129E-14 1.93758E-04
 -1        53-6.74753E-04 6.55410E-25 1.07874E-03 5.77346E-13-9.88559E-14 2.26830E-04
 -1        54-6.43957E-04 1.07875E-24 1.08378E-03 6.96150E-13-2.76561E-13 2.11364E-04
 -1        55-6.74753E-04 6.55415E-25 1.07874E-03 5.77348E-13-9.88560E-14 2.26830E-04
 -1        56-6.43957E-04 1.07875E-24 1.08378E-03 6.96151E-13-2.76560E-13 2.11364E-04
 -1        57-6.04310E-04 1.36379E-24 9.43116E-04 8.32485E-13-1.12345E-13 1.48918E-04
 -1        58-6.17968E-04 1.62698E-24 1.24065E-03 8.67726E-13-2.68588E-13 1.57750E-04
 -1        59-6.04310E-04 1.36380E-24 9.43116E-04 8.32486E-13-1.12345E-13 1.48918E-04
 -1        60-6.17968E-04 1.62699E-24 1.24065E-03 8.67727E-13-2.68588E-13 1.57750E-04
 -1        61-4.86479E-04 2.85408E-24 7.72670E-04 1.19890E-12-5.52351E-14 3.83500E-05
 -1        62-5.24154E-04 2.41313E-24 1.21660E-03 1.09708E-12-1.17388E-13 6.46808E-05
 -1        63-4.86479E-04 2.85409E-24 7.72670E-04 1.19890E-12-5.52349E-14 3.83500E-05
 -1        64-5.24154E-04 2.41312E-24 1.21660E-03 1.09707E-12-1.17388E-13 6.46808E-05
 -1        65-4.16436E-04 2.34947E-24 6.73933E-04 1.09179E-12-8.61648E-15-5.23217E-06
 -1        66-4.22999E-04 1.97827E-24 1.03441E-03 9.98245E-13 8.28031E-14 2.83544E-05
 -1        67-4.16436E-04 2.34946E-24 6.73933E-04 1.09179E-12-8.61645E-15-5.23217E-06
 -1        68-4.22999E-04 1.97828E-24 1.03441E-03 9.98248E-13 8.28027E-14 2.83544E-05
 -1        69-4.33686E-04 8.24348E-25 6.53874E-04 6.68578E-13-1.41499E-14 3.53859E-05
 -1        70-3.92413E-04 9.57526E-25 8.06671E-04 6.86472E-13 1.65722E-13 7.37859E-05
 -1        71-4.33686E-04 8.24349E-25 6.53874E-04 6.68578E-13-1.41500E-14 3.53859E-05
 -1        72-3.92413E-04 9.57518E-25 8.06671E-04 6.86469E-13 1.65721E-13 7.37859E-05
 -1        73-3.88980E-04 1.59251E-25 5.96175E-04 3.28482E-13-8.09498E-14 8.55593E-05
 -1        74-3.14233E-04 3.36081E-25 6.44880E-04 4.07525E-13 2.05933E-13 1.24887E-04
 -1        75-3.88980E-04 1.59251E-25 5.96175E-04 3.28482E-13-8.09497E-14 8.55593E-05
 -1        76-3.14233E-04 3.36085E-25 6.44880E-04 4.07527E-13 2.05933E-13 1.24887E-04
 -1        77-2.81860E-04-3.30401E-26 6.34548E-04-4.63247E-14-7.40659E-15 3.79771E-05
 -1        78-2.02113E-04 1.36135E-26 4.68850E-04-7.64283E-14 1.71132E-13 5.66577E-05
 -1        79-2.81860E-04-3.30395E-26 6.34548E-04-4.63235E-14-7.40666E-15 3.79771E-05
 -1        80-2.02113E-04 1.36132E-26 4.68850E-04-7.64271E-14 1.71132E-13 5.66577E-05
 -1        81-2.03294E-04 8.00640E-27 7.26918E-04-1.06698E-13 4.49504E-14-4.83487E-05
 -1        82-1.62481E-04 3.69320E-27 3.48565E-04 1.29309E-13 3.84811E-14-2.10531E-04
 -1        83-2.03294E-04 8.00622E-27 7.26918E-04-1.06697E-13 4.49510E-14-4.83487E-05
 -1        84-1.62481E-04 3.69311E-27 3.48565E-04 1.29309E-13 3.84805E-14-2.10531E-04
 -1        85-1.22795E-05-3.83960E-25 1.19760E-02-8.41481E-16 1.67662E-18 6.96714E-03
 -1        86-3.08567E-03 2.11047E-24 9.86672E-03-1.06504E-12-1.69942E-13 2.54743E-03
 -1        87-1.22795E-05-3.83960E-25 1.19760E-02-8.41503E-16 1.67616E-18 6.96714E-03
 -1        88-3.08567E-03 2.11047E-24 9.86672E-03-1.06504E-12-1.69942E-13 2.54743E-03
 -1        89-1.38434E-03 2.01114E-24 5.46628E-03-1.00139E-12-3.53378E-14 1.50589E-03
 -1        90-1.38434E-03 2.01114E-24 5.46628E-03-1.00139E-12-3.53384E-14 1.50589E-03
 -1        91-5.75391E-04 1.82306E-24 1.32489E-03-9.56489E-13-1.98046E-14 1.36839E-03
 -1        92-5.75391E-04 1.82306E-24 1.32489E-03-9.56489E-13-1.98039E-14 1.36839E-03
 -1        93 1.89505E-04 1.53773E-24-2.33857E-03-8.83568E-13 1.95887E-13 1.33371E-03
 -1        94 1.89505E-04 1.53774E-24-2.33857E-03-8.83570E-13 1.95887E-13 1.33371E-03
 -1        95 8.84586E-04 6.04645E-25-5.54454E-03-2.95556E-13 5.92351E-13 1.02107E-03
 -1        96 8.84586E-04 6.04643E-25-5.54454E-03-2.95554E-13 5.92351E-13 1.02107E-03
 -1        97 1.16448E-03 1.10348E-24-6.85279E-03 5.65426E-13 6.24369E-13 4.19143E-05
 -1        98 1.16448E-03 1.10346E-24-6.85279E-03 5.65418E-13 6.24369E-13 4.19143E-05
 -1        99 7.96170E-04 3.12362E-24-5.27107E-03 1.23618E-12 3.18431E-13-8.56485E-04
 -1       100 7.96170E-04 3.12363E-24-5.27107E-03 1.23618E-12 3.18431E-13-8.56485E-04
 -1       101 2.65355E-05 3.44053E-24-2.05716E-03 1.31117E-12 7.61972E-14-9.88224E-04
 -1       102 2.65355E-05 3.44053E-24-2.05716E-03 1.31117E-12 7.61972E-14-9.88224E-04
 -1       103-6.40376E-04 3.10275E-24 6.73319E-04 1.24767E-12-1.91088E-14-5.65314E-04
 -1       104-6.40376E-04 3.10275E-24 6.73319E-04 1.24767E-12-1.91088E-14-5.65314E-04
 -1       105-9.44808E-04 2.18958E-24 1.90775E-03 1.04809E-12-1.41287E-13-1.20671E-04
 -1       106-9.44808E-04 2.18958E-24 1.90775E-03 1.04809E-12-1.41287E-13-1.20671E-04
 -1       107-9.20892E-04 8.55268E-25 1.94776E-03 6.40581E-13-2.14942E-13 1.08533E-04
 -1       108-9.20892E-04 8.55275E-25 1.94776E-03 6.40583E-13-2.14942E-13 1.08533E-04
 -1       109-8.08770E-04 3.85430E-25 1.51619E-03 4.28000E-13-1.37037E-13 1.84025E-04
 -1       110-8.08770E-04 3.85430E-25 1.51619E-03 4.28000E-13-1.37037E-13 1.84025E-04
 -1       111-7.05549E-04 4.90683E-25 1.03371E-03 5.08644E-13 9.96218E-15 1.79408E-04
 -1       112-7.05549E-04 4.90680E-25 1.03371E-03 5.08642E-13 9.96233E-15 1.79408E-04
 -1       113-5.90652E-04 1.34931E-24 6.15061E-04 8.26908E-13 1.59690E-13 1.05847E-04
 -1       114-5.90652E-04 1.34932E-24 6.15061E-04 8.26910E-13 1.59690E-13 1.05847E-04
 -1       115-4.48804E-04 2.97317E-24 3.72359E-04 1.22324E-12 1.03258E-13 1.55555E-05
 -1       116-4.48804E-04 2.97319E-24 3.72359E-04 1.22324E-12 1.03258E-13 1.55555E-05
 -1       117-4.09872E-04 2.69138E-24 3.80777E-04 1.16351E-12-1.49298E-13 6.64267E-07
 -1       118-4.09872E-04 2.69138E-24 3.80777E-04 1.16351E-12-1.49298E-13 6.64266E-07
 -1       119-4.74959E-04 9.95654E-25 4.83344E-04 6.63813E-13-3.29482E-13 3.76439E-05
 -1       120-4.74959E-04 9.95659E-25 4.83344E-04 6.63816E-13-3.29483E-13 3.76439E-05
 -1       121-4.63726E-04 3.26357E-25 4.86602E-04 2.80914E-13-3.39144E-13 6.54693E-05
 -1       122-4.63726E-04 3.26347E-25 4.86602E-04 2.80907E-13-3.39144E-13 6.54693E-05
 -1       123-3.61607E-04 6.81103E-26 4.52758E-04 5.84725E-15-2.32795E-13 2.32307E-06
 -1       124-3.61607E-04 6.81098E-26 4.52758E-04 5.84687E-15-2.32795E-13 2.32307E-06
 -1       125-2.44106E-04 1.28770E-25 4.54236E-04-2.21683E-13-1.85900E-13 7.49144E-05
 -1       126-2.44106E-04 1.28772E-25 4.54236E-04-2.21686E-13-1.85901E-13 7.49144E-05
 -3
    1PSTEP                        28           7           1          
  100CL  107 7.00000E-02         126                     1    7           1
 -4  ERROR       1    1
 -5  STR(%)      1    1    0    0
 -1         1 6.23204E+01
 -1         2 6.32456E+01
 -1         3 6.32456E+01
 -1         4 6.23204E+01
 -1         5 6.23204E+01
 -1         6 6.32456E+01
 -1         7 6.32456E+01
 -1         8 6.23204E+01
 -1         9 5.46507E+01
 -1        10 5.46507E+01
 -1        11 5.46507E+01
 -1        12 5.46507E+01
 -1        13 3.82969E+01
 -1        14 3.62383E+01
 -1        15 3.82969E+01
 -1        16 3.62383E+01
 -1        17 5.27425E+01
 -1        18 4.92083E+01
 -1        19 5.27425E+01
 -1        20 4.92083E+01
 -1        21 6.60757E+01
 -1        22 5.80587E+01
 -1        23 6.60757E+01
 -1        24 5.80587E+01
 -1        25 6.68491E+01
 -1        26 5.80587E+01
 -1        27 6.68491E+01
 -1        28 5.80587E+01
 -1        29 6.68491E+01
 -1        30 5.72938E+01
 -1        31 6.68491E+01
 -1        32 5.72938E+01
 -1        33 6.17856E+01
 -1        34 4.81972E+01
 -1        35 6.17856E+01
 -1        36 4.81972E+01
 -1        37 6.17856E+01
 -1        38 5.36461E+01
 -1        39 6.17856E+01
 -1        40 5.36461E+01
 -1        41 7.23669E+01
 -1        42 7.23669E+01
 -1        43 7.23669E+01
 -1        44 7.23669E+01
 -1        45 7.23669E+01
 -1        46 7.23669E+01
 -1        47 7.23669E+01
 -1        48 7.23669E+01
 -1        49 3.56734E+01
 -1        50 3.56734E+01
 -1        51 3.56734E+01
 -1        52 3.56734E+01
 -1        53 1.17427E+01
 -1        54 4.38450E+00
 -1        55 1.17427E+01
 -1        56 4.38450E+00
 -1        57 3.53054E+01
 -1        58 1.59847E+01
 -1        59 3.53054E+01
 -1        60 1.59847E+01
 -1        61 3.56857E+01
 -1        62 2.05044E+01
 -1        63 3.56857E+01
 -1        64 2.05044E+01
 -1        65 3.56857E+01
 -1        66 2.05044E+01
 -1        67 3.56857E+01
 -1        68 2.05044E+01
 -1        69 1.95908E+01
 -1        70 1.04388E+01
 -1        71 1.95908E+01
 -1        72 1.04388E+01
 -1        73 1.09197E+01
 -1        74 3.94914E+00
 -1        75 1.09197E+01
 -1        76 3.94914E+00
 -1        77 2.69902E+01
 -1        78 2.69902E+01
 -1        79 2.69902E+01
 -1        80 2.69902E+01
 -1        81 2.69902E+01
 -1        82 2.69902E+01
 -1        83 2.69902E+01
 -1        84 2.69902E+01
 -1        85 6.32456E+01
 -1        86 6.32456E+01
 -1        87 6.32456E+01
 -1        88 6.32456E+01
 -1        89 5.33180E+01
 -1        90 5.33180E+01
 -1        91 3.82969E+01
 -1        92 3.82969E+01
 -1        93 5.27425E+01
 -1        94 5.27425E+01
 -1        95 6.60757E+01
 -1        96 6.60757E+01
 -1        97 6.68491E+01
 -1        98 6.68491E+01
 -1        99 6.68491E+01
 -1       100 6.68491E+01
 -1       101 6.17856E+01
 -1       102 6.17856E+01
 -1       103 6.17856E+01
 -1       104 6.17856E+01
 -1       105 2.55481E+01
 -1       106 2.55481E+01
 -1       107 2.55481E+01
 -1       108 2.55481E+01
 -1       109 1.54399E+01
 -1       110 1.54399E+01
 -1       111 1.17427E+01
 -1       112 1.17427E+01
 -1       113 3.53054E+01
 -1       114 3.53054E+01
 -1       115 3.56857E+01
 -1       116 3.56857E+01
 -1       117 3.56857E+01
 -1       118 3.56857E+01
 -1       119 1.95908E+01
 -1       120 1.95908E+01
 -1       121 1.09197E+01
 -1       122 1.09197E+01
 -1       123 2.08125E+01
 -1       124 2.08125E+01
 -1       125 2.08125E+01
 -1       126 2.08125E+01
 -3
    1PSTEP                        29           8           1          
  100CL  108 8.00000E-02         126                     1    8           1
 -4  DISP        4    1
 -5  D1          1    2    1    0
 -5  D2          1    2    2    0
 -5  D3          1    2    3    0
 -5  ALL         1    2    0    0    1ALL
 -1         1 0.00000E+00 0.00000E+00 0.00000E+00
 -1         2 0.00000E+00 0.00000E+00 0.00000E+00
 -1         3 5.42679E-04 0.00000E+00 9.85657E-06
 -1         4 6.89459E-04 0.00000E+00-6.27254E-04
 -1         5 0.00000E+00 0.00000E+00 0.00000E+00
 -1         6 0.00000E+00 0.00000E+00 0.00000E+00
 -1         7 5.42679E-04 0.00000E+00 9.85657E-06
 -1         8 6.89459E-04 0.00000E+00-6.27254E-04
 -1         9 1.69990E-03 0.00000E+00 2.13547E-05
 -1        10 1.74175E-03 0.00000E+00-1.03864E-03
 -1        11 1.69990E-03 0.00000E+00 2.13547E-05
 -1        12 1.74175E-03 0.00000E+00-1.03864E-03
 -1        13 3.11061E-03 0.00000E+00 3.15444E-05
 -1        14 3.10899E-03 0.00000E+00-1.21303E-03
 -1        15 3.11061E-03 0.00000E+00 3.15444E-05
 -1        16 3.10899E-03 0.00000E+00-1.21303E-03
 -1        17 4.54620E-03 0.00000E+00 3.90722E-05
 -1        18 4.50814E-03 0.00000E+00-1.19355E-03
 -1        19 4.54620E-03 0.00000E+00 3.90722E-05
 -1        20 4.50814E-03 0.00000E+00-1.19355E-03
 -1        21 5.85593E-03 0.00000E+00 5.41328E-05
 -1        22 5.78668E-03 0.00000E+00-1.01564E-03
 -1        23 5.85593E-03 0.00000E+00 5.41328E-05
 -1        24 5.78668E-03 0.00000E+00-1.01564E-03
 -1        25 6.93988E-03 0.00000E+00 8.32757E-05
 -1        26 6.84535E-03 0.00000E+00-6.83730E-04
 -1        27 6.93988E-03 0.00000E+00 8.32757E-05
 -1        28 6.84535E-03 0.00000E+00-6.83730E-04
 -1        29 7.57050E-03 0.00000E+00 1.27829E-04
 -1        30 7.46478E-03 0.00000E+00-2.33260E-04
 -1        31 7.57050E-03 0.00000E+00 1.27829E-04
 -1        32 7.46478E-03 0.00000E+00-2.33260E-04
 -1        33 7.61356E-03 0.00000E+00 1.81028E-04
 -1        34 7.53391E-03 0.00000E+00 1.92741E-04
 -1        35 7.61356E-03 0.00000E+00 1.81028E-04
 -1        36 7.53391E-03 0.00000E+00 1.92741E-04
 -1        37 7.27182E-03 0.00000E+00 2.37997E-04
 -1        38 7.23147E-03 0.00000E+00 4.53350E-04
 -1        39 7.27182E-03 0.00000E+00 2.37997E-04
 -1        40 7.23147E-03 0.00000E+00 4.53350E-04
 -1        41 6.87790E-03 0.00000E+00 2.98573E-04
 -1        42 6.87137E-03 0.00000E+00 5.34177E-04
 -1        43 6.87790E-03 0.00000E+00 2.98573E-04
 -1        44 6.87137E-03 0.00000E+00 5.34177E-04
 -1        45 6.63739E-03 0.00000E+00 3.58646E-04
 -1        46 6.63874E-03 0.00000E+00 5.23019E-04
 -1        47 6.63739E-03 0.00000E+00 3.58646E-04
 -1        48 6.63874E-03 0.00000E+00 5.23019E-04
 -1        49 6.53901E-03 0.00000E+00 4.12464E-04
 -1        50 6.53922E-03 0.00000E+00 5.09724E-04
 -1        51 6.53901E-03 0.00000E+00 4.12464E-04
 -1        52 6.53922E-03 0.00000E+00 5.09724E-04
 -1        53 6.49521E-03 0.00000E+00 4.58304E-04
 -1        54 6.49020E-03 0.00000E+00 5.28819E-04
 -1        55 6.49521E-03 0.00000E+00 4.58304E-04
 -1        56 6.49020E-03 0.00000E+00 5.28819E-04
 -1        57 6.44091E-03 0.00000E+00 4.96902E-04
 -1        58 6.43910E-03 0.00000E+00 5.71759E-04
 -1        59 6.44091E-03 0.00000E+00 4.96902E-04
 -1        60 6.43910E-03 0.00000E+00 5.71759E-04
 -1        61 6.36662E-03 0.00000E+00 5.30715E-04
 -1        62 6.36220E-03 0.00000E+00 6.22673E-04
 -1        63 6.36662E-03 0.00000E+00 5.30715E-04
 -1        64 6.36220E-03 0.00000E+00 6.22673E-04
 -1        65 6.26520E-03 0.00000E+00 5.63547E-04
 -1        66 6.26200E-03 0.00000E+00 6.73815E-04
 -1        67 6.26520E-03 0.00000E+00 5.63547E-04
 -1        68 6.26200E-03 0.00000E+00 6.73815E-04
 -1        69 6.13937E-03 0.00000E+00 5.95197E-04
 -1        70 6.13912E-03 0.00000E+00 7.19217E-04
 -1        71 6.13937E-03 0.00000E+00 5.95197E-04
 -1        72 6.13912E-03 0.00000E+00 7.19217E-04
 -1        73 5.99846E-03 0.00000E+00 6.23429E-04
 -1        74 6.00661E-03 0.00000E+00 7.56117E-04
 -1        75 5.99846E-03 0.00000E+00 6.23429E-04
 -1        76 6.00661E-03 0.00000E+00 7.56117E-04
 -1        77 5.84807E-03 0.00000E+00 6.54090E-04
 -1        78 5.85408E-03 0.00000E+00 7.85528E-04
 -1        79 5.84807E-03 0.00000E+00 6.54090E-04
 -1        80 5.85408E-03 0.00000E+00 7.85528E-04
 -1        81 5.70611E-03 0.00000E+00 6.87157E-04
 -1        82 5.71269E-03 0.00000E+00 7.99203E-04
 -1        83 5.70611E-03 0.00000E+00 6.87157E-04
 -1        84 5.71269E-03 0.00000E+00 7.99203E-04
 -1        85 0.00000E+00 0.00000E+00 0.00000E+00
 -1        86 7.06438E-04 0.00000E+00 6.46588E-04
 -1        87 0.00000E+00 0.00000E+00 0.00000E+00
 -1        88 7.06438E-04 0.00000E+00 6.46588E-04
 -1        89 1.78423E-03 0.00000E+00 1.08076E-03
 -1        90 1.78423E-03 0.00000E+00 1.08076E-03
 -1        91 3.15887E-03 0.00000E+00 1.27322E-03
 -1        92 3.15887E-03 0.00000E+00 1.27322E-03
 -1        93 4.55608E-03 0.00000E+00 1.27351E-03
 -1        94 4.55608E-03 0.00000E+00 1.27351E-03
 -1        95 5.83492E-03 0.00000E+00 1.12975E-03
 -1        96 5.83492E-03 0.00000E+00 1.12975E-03
 -1        97 6.88929E-03 0.00000E+00 8.56748E-04
 -1        98 6.88929E-03 0.00000E+00 8.56748E-04
 -1        99 7.50682E-03 0.00000E+00 4.91911E-04
 -1       100 7.50682E-03 0.00000E+00 4.91911E-04
 -1       101 7.57454E-03 0.00000E+00 1.69531E-04
 -1       102 7.57454E-03 0.00000E+00 1.69531E-04
 -1       103 7.27673E-03 0.00000E+00 2.28028E-05
 -1       104 7.27673E-03 0.00000E+00 2.28028E-05
 -1       105 6.91521E-03 0.00000E+00 6.19543E-05
 -1       106 6.91521E-03 0.00000E+00 6.19543E-05
 -1       107 6.67912E-03 0.00000E+00 1.91038E-04
 -1       108 6.67912E-03 0.00000E+00 1.91038E-04
 -1       109 6.57021E-03 0.00000E+00 3.10599E-04
 -1       110 6.57021E-03 0.00000E+00 3.10599E-04
 -1       111 6.51336E-03 0.00000E+00 3.82749E-04
 -1       112 6.51336E-03 0.00000E+00 3.82749E-04
 -1       113 6.45113E-03 0.00000E+00 4.18514E-04
 -1       114 6.45113E-03 0.00000E+00 4.18514E-04
 -1       115 6.37296E-03 0.00000E+00 4.37521E-04
 -1       116 6.37296E-03 0.00000E+00 4.37521E-04
 -1       117 6.27164E-03 0.00000E+00 4.50612E-04
 -1       118 6.27164E-03 0.00000E+00 4.50612E-04
 -1       119 6.14401E-03 0.00000E+00 4.64668E-04
 -1       120 6.14401E-03 0.00000E+00 4.64668E-04
 -1       121 6.00000E-03 0.00000E+00 4.84611E-04
 -1       122 6.00000E-03 0.00000E+00 4.84611E-04
 -1       123 5.85157E-03 0.00000E+00 5.14392E-04
 -1       124 5.85157E-03 0.00000E+00 5.14392E-04
 -1       125 5.70503E-03 0.00000E+00 5.37419E-04
 -1       126 5.70503E-03 0.00000E+00 5.37419E-04
 -3
    1PSTEP                        30           8           1          
  100CL  108 8.00000E-02         126                     1    8           1
 -4  STRESS      6    1
 -5  SXX         1    4    1    1
 -5  SYY         1    4    2    2
 -5  SZZ         1    4    3    3
 -5  SXY         1    4    1    2
 -5  SYZ         1    4    2    3
 -5  SZX         1    4    3    1
 -1         1-2.83910E+03-2.89108E+03-6.61083E+03-5.28843E-11-1.43170E-11 2.03608E+03
 -1         2 8.91823E+01 5.90737E+01 1.04349E+02 4.84886E-12 2.07623E-11 1.67071E+03
 -1         3 7.65882E+01 6.53922E+01 1.40593E+02 9.71888E-09 1.92035E-09 6.56629E+02
 -1         4-7.06741E+02-1.66336E+03-4.75582E+03-1.10208E-08-3.01629E-08 6.79364E+02
 -1         5-2.83910E+03-2.89108E+03-6.61083E+03-5.28843E-11-1.43170E-11 2.03608E+03
 -1         6 8.91823E+01 5.90737E+01 1.04349E+02 4.84976E-12 2.07623E-11 1.67071E+03
 -1         7 7.65882E+01 6.53922E+01 1.40593E+02 9.71884E-09 1.92036E-09 6.56629E+02
 -1         8-7.06741E+02-1.66336E+03-4.75582E+03-1.10209E-08-3.01630E-08 6.79364E+02
 -1         9 5.63478E+01 8.05034E+01 2.11819E+02 5.57034E-08-1.27324E-08 6.92661E+02
 -1        10-6.88950E+02-1.03943E+03-2.74476E+03 5.97305E-08-4.55268E-08 4.33602E+02
 -1        11 5.63478E+01 8.05034E+01 2.11819E+02 5.57036E-08-1.27324E-08 6.92661E+02
 -1        12-6.88950E+02-1.03943E+03-2.74476E+03 5.97303E-08-4.55269E-08 4.33602E+02
 -1        13 6.37050E+01 9.05622E+01 2.40975E+02 1.02942E-07-1.57842E-08 5.57082E+02
 -1        14-9.68147E+01-2.05490E+02-5.82099E+02 7.94455E-08-4.91800E-08 4.19182E+02
 -1        15 6.37050E+01 9.05622E+01 2.40975E+02 1.02942E-07-1.57842E-08 5.57082E+02
 -1        16-9.68147E+01-2.05490E+02-5.82099E+02 7.94456E-08-4.91800E-08 4.19182E+02
 -1        17 6.88466E+01 9.88404E+01 2.62566E+02 8.61672E-08-1.73474E-08 4.31272E+02
 -1        18 3.09427E+02 4.32313E+02 1.13975E+03 1.12564E-07-1.60716E-09 3.38625E+02
 -1        19 6.88466E+01 9.88404E+01 2.62566E+02 8.61664E-08-1.73474E-08 4.31272E+02
 -1        20 3.09427E+02 4.32313E+02 1.13975E+03 1.12564E-07-1.60733E-09 3.38625E+02
 -1        21 5.27446E+01 1.10382E+02 3.14491E+02-1.51142E-07-4.13525E-08 3.85466E+02
 -1        22 6.31883E+02 9.72176E+02 2.63493E+03-1.15778E-07 9.67144E-09 3.29100E+02
 -1        23 5.27446E+01 1.10382E+02 3.14491E+02-1.51142E-07-4.13524E-08 3.85466E+02
 -1        24 6.31883E+02 9.72176E+02 2.63493E+03-1.15779E-07 9.67126E-09 3.29100E+02
 -1        25 4.95724E+01 1.32103E+02 3.89043E+02-1.66892E-07-1.04700E-08 2.70851E+02
 -1        26 8.96871E+02 1.42956E+03 3.92310E+03-1.46185E-07-1.05891E-07 2.47891E+02
 -1        27 4.95724E+01 1.32103E+02 3.89043E+02-1.66892E-07-1.04701E-08 2.70851E+02
 -1        28 8.96871E+02 1.42956E+03 3.92310E+03-1.46185E-07-1.05891E-07 2.47891E+02
 -1        29 3.30084E+01 1.43570E+02 4.46074E+02 1.34028E-07 1.34309E-08-7.81054E+01
 -1        30 9.14378E+02 1.54867E+03 4.31444E+03 1.44853E-07-1.55109E-07-4.01330E+01
 -1        31 3.30084E+01 1.43570E+02 4.46074E+02 1.34028E-07 1.34309E-08-7.81054E+01
 -1        32 9.14378E+02 1.54867E+03 4.31444E+03 1.44853E-07-1.55109E-07-4.01330E+01
 -1        33 4.55214E+01 1.63087E+02 4.99100E+02 3.32399E-07 1.16902E-08-4.25132E+02
 -1        34 7.33371E+02 1.21809E+03 3.37057E+03 3.21712E-07-8.07473E-08-3.27023E+02
 -1        35 4.55214E+01 1.63087E+02 4.99100E+02 3.32400E-07 1.16902E-08-4.25132E+02
 -1        36 7.33371E+02 1.21809E+03 3.37057E+03 3.21711E-07-8.07472E-08-3.27023E+02
 -1        37 4.57241E+01 1.75254E+02 5.40732E+02 3.57454E-07-1.18150E-08-4.71898E+02
 -1        38 3.67574E+02 6.08362E+02 1.67432E+03 3.52900E-07-2.11529E-08-3.62807E+02
 -1        39 4.57241E+01 1.75254E+02 5.40732E+02 3.57453E-07-1.18151E-08-4.71898E+02
 -1        40 3.67574E+02 6.08362E+02 1.67432E+03 3.52900E-07-2.11527E-08-3.62807E+02
 -1        41 5.72850E+01 1.84758E+02 5.61236E+02 3.25826E-07-1.46255E-08-2.51549E+02
 -1        42 1.03153E+02 1.37295E+02 3.56547E+02 3.01613E-07 1.59666E-08-1.88598E+02
 -1        43 5.72850E+01 1.84758E+02 5.61236E+02 3.25826E-07-1.46255E-08-2.51549E+02
 -1        44 1.03153E+02 1.37295E+02 3.56547E+02 3.01612E-07 1.59666E-08-1.88598E+02
 -1        45 5.08072E+01 1.72474E+02 5.25662E+02 2.80079E-07 3.09758E-08-1.14909E+01
 -1        46-3.70068E+01-4.74915E+01-1.21142E+02 2.71475E-07 6.90846E-08-5.08865E+00
 -1        47 5.08072E+01 1.72474E+02 5.25662E+02 2.80078E-07 3.09759E-08-1.14909E+01
 -1        48-3.70068E+01-4.74915E+01-1.21142E+02 2.71477E-07 6.90847E-08-5.08865E+00
 -1        49 6.43745E+01 1.59181E+02 4.67183E+02 1.81604E-07 4.29335E-08 8.74197E+01
 -1        50 1.67659E+01 1.50548E+01 3.34347E+01 2.11211E-07 7.52550E-08 7.08192E+01
 -1        51 6.43745E+01 1.59181E+02 4.67183E+02 1.81604E-07 4.29335E-08 8.74197E+01
 -1        52 1.67659E+01 1.50548E+01 3.34347E+01 2.11211E-07 7.52549E-08 7.08192E+01
 -1        53 7.07277E+01 1.41767E+02 4.02536E+02 1.74193E-07 2.00136E-08 7.37375E+01
 -1        54 8.97447E+01 1.20371E+02 3.11940E+02 1.79602E-07 2.22955E-08 6.28915E+01
 -1        55 7.07277E+01 1.41767E+02 4.02536E+02 1.74192E-07 2.00136E-08 7.37375E+01
 -1        56 8.97447E+01 1.20371E+02 3.11940E+02 1.79601E-07 2.22954E-08 6.28915E+01
 -1        57 1.03024E+02 1.39771E+02 3.63407E+02 2.01494E-07-2.54812E-08 3.78184E+01
 -1        58 1.97684E+02 2.08574E+02 4.98511E+02 2.14143E-07-1.96325E-08 3.32771E+01
 -1        59 1.03024E+02 1.39771E+02 3.63407E+02 2.01494E-07-2.54812E-08 3.78184E+01
 -1        60 1.97684E+02 2.08574E+02 4.98511E+02 2.14143E-07-1.96325E-08 3.32771E+01
 -1        61 9.71096E+01 1.29709E+02 3.35677E+02 1.90485E-07-3.61100E-08 1.43287E+01
 -1        62 1.89124E+02 2.15805E+02 5.31266E+02 1.88425E-07-1.65741E-08 1.02048E+01
 -1        63 9.71096E+01 1.29709E+02 3.35677E+02 1.90485E-07-3.61100E-08 1.43287E+01
 -1        64 1.89124E+02 2.15805E+02 5.31266E+02 1.88425E-07-1.65740E-08 1.02048E+01
 -1        65 9.88650E+01 1.27712E+02 3.27238E+02 1.59754E-07-1.23288E-08-6.48365E+00
 -1        66 1.90151E+02 2.09073E+02 5.07713E+02 1.69709E-07 2.47532E-08-4.28113E+00
 -1        67 9.88650E+01 1.27712E+02 3.27238E+02 1.59755E-07-1.23288E-08-6.48365E+00
 -1        68 1.90151E+02 2.09073E+02 5.07713E+02 1.69709E-07 2.47532E-08-4.28113E+00
 -1        69 1.14476E+02 1.28433E+02 3.14001E+02 1.09946E-07 3.20088E-09-1.90390E+01
 -1        70 1.89520E+02 1.90110E+02 4.44911E+02 1.05162E-07 4.69869E-08-1.16502E+01
 -1        71 1.14476E+02 1.28433E+02 3.14001E+02 1.09946E-07 3.20080E-09-1.90390E+01
 -1        72 1.89520E+02 1.90110E+02 4.44911E+02 1.05163E-07 4.69869E-08-1.16502E+01
 -1        73 1.74625E+02 1.52936E+02 3.35606E+02 6.75896E-08 1.61760E-08-3.07465E+01
 -1        74 2.43724E+02 1.92275E+02 3.97826E+02 4.58425E-08 1.26862E-08-3.05292E+01
 -1        75 1.74625E+02 1.52936E+02 3.35606E+02 6.75892E-08 1.61760E-08-3.07465E+01
 -1        76 2.43724E+02 1.92275E+02 3.97826E+02 4.58426E-08 1.26863E-08-3.05292E+01
 -1        77 1.63673E+02 1.54623E+02 3.52214E+02 9.95803E-08-3.82497E-09-3.29783E+01
 -1        78 1.67208E+02 1.28885E+02 2.62720E+02 1.16206E-07-5.59764E-08-4.79891E+01
 -1        79 1.63673E+02 1.54623E+02 3.52214E+02 9.95801E-08-3.82487E-09-3.29783E+01
 -1        80 1.67208E+02 1.28885E+02 2.62720E+02 1.16206E-07-5.59765E-08-4.79891E+01
 -1        81 1.96764E+02 1.71933E+02 3.76918E+02 1.59127E-07-3.08932E-08-3.44051E+01
 -1        82 1.36700E+02 9.49315E+01 1.79946E+02 1.85737E-07-9.30168E-08-9.04667E+01
 -1        83 1.96764E+02 1.71933E+02 3.76918E+02 1.59127E-07-3.08932E-08-3.44051E+01
 -1        84 1.36700E+02 9.49315E+01 1.79946E+02 1.85734E-07-9.30166E-08-9.04667E+01
 -1        85 3.04355E+03 2.98783E+03 7.11916E+03 1.38416E-10 1.12029E-10 2.26574E+03
 -1        86 8.44839E+02 1.79561E+03 5.23673E+03 5.00231E-08 3.51935E-08 8.31134E+02
 -1        87 3.04355E+03 2.98783E+03 7.11916E+03 1.38409E-10 1.12029E-10 2.26574E+03
 -1        88 8.44839E+02 1.79561E+03 5.23673E+03 5.00230E-08 3.51935E-08 8.31134E+02
 -1        89 7.54603E+02 1.17733E+03 3.21145E+03 4.20785E-08 3.60577E-08 5.46989E+02
 -1        90 7.54603E+02 1.17733E+03 3.21145E+03 4.20787E-08 3.60578E-08 5.46989E+02
 -1        91 2.03893E+02 3.81384E+02 1.07694E+03 1.31150E-07 2.15633E-08 4.57640E+02
 -1        92 2.03893E+02 3.81384E+02 1.07694E+03 1.31150E-07 2.15633E-08 4.57640E+02
 -1        93-1.73610E+02-2.23815E+02-5.68469E+02 4.87071E-08-4.04003E-08 3.13565E+02
 -1        94-1.73610E+02-2.23815E+02-5.68469E+02 4.87068E-08-4.04002E-08 3.13565E+02
 -1        95-5.34303E+02-7.48643E+02-1.94761E+03-1.58197E-07-4.30828E-08 2.62567E+02
 -1        96-5.34303E+02-7.48643E+02-1.94761E+03-1.58195E-07-4.30827E-08 2.62567E+02
 -1        97-8.18586E+02-1.17770E+03-3.07491E+03-1.07609E-07 8.77359E-08 1.72953E+02
 -1        98-8.18586E+02-1.17770E+03-3.07491E+03-1.07608E-07 8.77359E-08 1.72953E+02
 -1        99-8.71449E+02-1.27841E+03-3.35072E+03 9.42803E-08 1.66672E-07-7.46832E+01
 -1       100-8.71449E+02-1.27841E+03-3.35072E+03 9.42804E-08 1.66672E-07-7.46832E+01
 -1       101-6.56972E+02-9.01595E+02-2.32719E+03 3.29237E-07 1.03694E-07-3.16605E+02
 -1       102-6.56972E+02-9.01595E+02-2.32719E+03 3.29237E-07 1.03694E-07-3.16605E+02
 -1       103-2.87172E+02-2.64271E+02-5.89036E+02 3.21479E-07 1.82690E-08-3.50470E+02
 -1       104-2.87172E+02-2.64271E+02-5.89036E+02 3.21480E-07 1.82690E-08-3.50470E+02
 -1       105-1.43675E-01 2.22999E+02 7.47539E+02 3.47984E-07-2.97798E-08-1.93272E+02
 -1       106-1.43676E-01 2.22999E+02 7.47539E+02 3.47983E-07-2.97798E-08-1.93272E+02
 -1       107 1.29983E+02 3.84188E+02 1.15626E+03 2.60574E-07-3.51848E-08-1.69225E+01
 -1       108 1.29983E+02 3.84188E+02 1.15626E+03 2.60574E-07-3.51848E-08-1.69225E+01
 -1       109 1.07934E+02 2.99275E+02 8.93057E+02 1.71362E-07 7.37084E-09 5.78154E+01
 -1       110 1.07934E+02 2.99275E+02 8.93057E+02 1.71362E-07 7.37088E-09 5.78154E+01
 -1       111 5.42695E+01 1.65691E+02 4.99203E+02 1.80600E-07 1.38357E-08 4.91002E+01
 -1       112 5.42695E+01 1.65691E+02 4.99203E+02 1.80601E-07 1.38357E-08 4.91002E+01
 -1       113 1.71903E+01 7.97469E+01 2.48931E+02 1.88968E-07-3.24650E-08 2.50559E+01
 -1       114 1.71903E+01 7.97469E+01 2.48931E+02 1.88970E-07-3.24650E-08 2.50559E+01
 -1       115 7.08830E+00 4.55884E+01 1.44958E+02 1.81608E-07-5.66741E-08 1.04886E+01
 -1       116 7.08830E+00 4.55884E+01 1.44958E+02 1.81606E-07-5.66741E-08 1.04886E+01
 -1       117-4.64843E+00 3.41360E+01 1.18490E+02 1.35901E-07-4.22171E-08-4.88181E+00
 -1       118-4.64843E+00 3.41360E+01 1.18490E+02 1.35901E-07-4.22173E-08-4.88181E+00
 -1       119 3.13263E+01 5.87033E+01 1.64456E+02 1.16238E-07-1.48319E-08-1.64751E+01
 -1       120 3.13263E+01 5.87033E+01 1.64456E+02 1.16237E-07-1.48319E-08-1.64751E+01
 -1       121 1.01412E+02 1.09523E+02 2.63939E+02 9.21676E-08-5.30125E-09-2.30386E+01
 -1       122 1.01412E+02 1.09523E+02 2.63939E+02 9.21689E-08-5.30133E-09-2.30386E+01
 -1       123 8.74144E+01 1.07602E+02 2.71541E+02 9.15230E-08-6.94592E-09-2.42528E+01
 -1       124 8.74144E+01 1.07602E+02 2.71541E+02 9.15230E-08-6.94600E-09-2.42528E+01
 -1       125 1.21189E+02 1.13240E+02 2.56512E+02 1.37102E-07-1.32628E-08 9.64840E+00
 -1       126 1.21189E+02 1.13240E+02 2.56512E+02 1.37103E-07-1.32627E-08 9.64840E+00
 -3
    1PSTEP                        31           8           1          
  100CL  108 8.00000E-02         126                     1    8           1
 -4  TOSTRAIN    6    1
 -5  EXX         1    4    1    1
 -5  EYY         1    4    2    2
 -5  EZZ         1    4    3    3
 -5  EXY         1    4    1    2
 -5  EYZ         1    4    2    3
 -5  EZX         1    4    3    1
 -1         1-1.42989E-05-2.86633E-27-1.23853E-02-1.95155E-16 5.85853E-19 6.89444E-03
 -1         2-1.43263E-05 8.67442E-28 2.41711E-04 1.36753E-17-1.20842E-19 5.42665E-03
 -1         3-9.41131E-05-8.33739E-27 3.66632E-04 3.15560E-14 6.78300E-15 2.12736E-03
 -1         4 3.01072E-03 6.72395E-27-1.01820E-02-3.41223E-14-9.97152E-14 2.42929E-03
 -1         5-1.42989E-05-2.86633E-27-1.23853E-02-1.95155E-16 5.85853E-19 6.89444E-03
 -1         6-1.43263E-05 8.67442E-28 2.41711E-04 1.36783E-17-1.20756E-19 5.42665E-03
 -1         7-9.41131E-05-8.33741E-27 3.66632E-04 3.15559E-14 6.78304E-15 2.12736E-03
 -1         8 3.01072E-03 6.72397E-27-1.01820E-02-3.41225E-14-9.97153E-14 2.42929E-03
 -1         9-2.02957E-04 5.56504E-26 5.46096E-04 1.82019E-13-3.74581E-14 2.23480E-03
 -1        10 1.05837E-03 1.07429E-25-5.54380E-03 1.97849E-13-1.44976E-13 1.56980E-03
 -1        11-2.02957E-04 5.56509E-26 5.46096E-04 1.82019E-13-3.74582E-14 2.23480E-03
 -1        12 1.05837E-03 1.07428E-25-5.54380E-03 1.97849E-13-1.44976E-13 1.56980E-03
 -1        13-1.90075E-04 2.20694E-25 5.81657E-04 3.35893E-13-4.29261E-14 1.79083E-03
 -1        14 2.76781E-04 1.74718E-25-1.16390E-03 2.62578E-13-1.53584E-13 1.40491E-03
 -1        15-1.90075E-04 2.20693E-25 5.81657E-04 3.35893E-13-4.29262E-14 1.79083E-03
 -1        16 2.76781E-04 1.74718E-25-1.16390E-03 2.62579E-13-1.53584E-13 1.40491E-03
 -1        17-1.75420E-04 6.02253E-26 6.03047E-04 2.81496E-13-4.95896E-14 1.38185E-03
 -1        18-4.57475E-04 1.68345E-25 2.33578E-03 3.65725E-13 3.61111E-15 1.02763E-03
 -1        19-1.75420E-04 6.02250E-26 6.03047E-04 2.81494E-13-4.95897E-14 1.38185E-03
 -1        20-4.57475E-04 1.68343E-25 2.33578E-03 3.65724E-13 3.61054E-15 1.02763E-03
 -1        21-2.53760E-04 4.14027E-25 7.29164E-04-4.87838E-13-1.44898E-13 1.23088E-03
 -1        22-1.15710E-03 1.62109E-25 5.38581E-03-3.76439E-13 2.31430E-14 9.17526E-04
 -1        23-2.53760E-04 4.14028E-25 7.29164E-04-4.87836E-13-1.44898E-13 1.23088E-03
 -1        24-1.15710E-03 1.62114E-25 5.38581E-03-3.76442E-13 2.31423E-14 9.17526E-04
 -1        25-3.23897E-04 3.96311E-25 8.90163E-04-5.41785E-13-4.22543E-14 8.60971E-04
 -1        26-1.77541E-03 4.76533E-25 8.00110E-03-4.68606E-13-3.47526E-13 6.44550E-04
 -1        27-3.23897E-04 3.96307E-25 8.90163E-04-5.41783E-13-4.22543E-14 8.60971E-04
 -1        28-1.77541E-03 4.76535E-25 8.00110E-03-4.68608E-13-3.47526E-13 6.44550E-04
 -1        29-3.97639E-04 6.42594E-26 1.01280E-03 4.35356E-13 4.67935E-14-2.62432E-04
 -1        30-2.09099E-03 6.21350E-25 8.83669E-03 4.73558E-13-4.94759E-13-2.07009E-04
 -1        31-3.97639E-04 6.42594E-26 1.01280E-03 4.35356E-13 4.67936E-14-2.62432E-04
 -1        32-2.09099E-03 6.21353E-25 8.83669E-03 4.73559E-13-4.94759E-13-2.07009E-04
 -1        33-4.08551E-04 2.24167E-24 1.11104E-03 1.08044E-12 3.76810E-14-1.37652E-03
 -1        34-1.59462E-03 2.22036E-24 6.89744E-03 1.04378E-12-2.60258E-13-1.04671E-03
 -1        35-4.08551E-04 2.24168E-24 1.11104E-03 1.08044E-12 3.76810E-14-1.37652E-03
 -1        36-1.59462E-03 2.22034E-24 6.89744E-03 1.04378E-12-2.60258E-13-1.04671E-03
 -1        37-4.43900E-04 2.69867E-24 1.20254E-03 1.16150E-12-4.33498E-14-1.52129E-03
 -1        38-7.98173E-04 2.62775E-24 3.44308E-03 1.14582E-12-7.33323E-14-1.14910E-03
 -1        39-4.43900E-04 2.69866E-24 1.20254E-03 1.16150E-12-4.33500E-14-1.52129E-03
 -1        40-7.98173E-04 2.62776E-24 3.44308E-03 1.14582E-12-7.33319E-14-1.14910E-03
 -1        41-4.27230E-04 2.23729E-24 1.22836E-03 1.05864E-12-5.24471E-14-8.06773E-04
 -1        42-1.19656E-04 1.90912E-24 7.15588E-04 9.80348E-13 4.72202E-14-6.05549E-04
 -1        43-4.27230E-04 2.23729E-24 1.22836E-03 1.05864E-12-5.24471E-14-8.06773E-04
 -1        44-1.19656E-04 1.90911E-24 7.15588E-04 9.80347E-13 4.72201E-14-6.05549E-04
 -1        45-3.98292E-04 1.64413E-24 1.14611E-03 9.10606E-13 9.74952E-14-3.19642E-05
 -1        46 3.21993E-05 1.64009E-24-2.38274E-04 8.83100E-13 2.21691E-13-1.74433E-05
 -1        47-3.98292E-04 1.64412E-24 1.14611E-03 9.10604E-13 9.74954E-14-3.19642E-05
 -1        48 3.21993E-05 1.64011E-24-2.38274E-04 8.83104E-13 2.21691E-13-1.74433E-05
 -1        49-3.07921E-04 7.12069E-25 9.98111E-04 5.90379E-13 1.38184E-13 2.85908E-04
 -1        50 5.99271E-06 1.04226E-24 5.91783E-05 6.86766E-13 2.43223E-13 2.29957E-04
 -1        51-3.07921E-04 7.12070E-25 9.98111E-04 5.90380E-13 1.38184E-13 2.85908E-04
 -1        52 5.99271E-06 1.04226E-24 5.91783E-05 6.86766E-13 2.43223E-13 2.29957E-04
 -1        53-2.30481E-04 6.43821E-25 8.45177E-04 5.66149E-13 6.41434E-14 2.40581E-04
 -1        54-9.91170E-05 6.80195E-25 6.21030E-04 5.83685E-13 7.15795E-14 2.05027E-04
 -1        55-2.30481E-04 6.43814E-25 8.45177E-04 5.66147E-13 6.41434E-14 2.40581E-04
 -1        56-9.91170E-05 6.80193E-25 6.21030E-04 5.83684E-13 7.15793E-14 2.05027E-04
 -1        57-1.19154E-04 8.65483E-25 7.25193E-04 6.54631E-13-8.37314E-14 1.23905E-04
 -1        58-3.51651E-05 9.69328E-25 9.39799E-04 6.95594E-13-6.47583E-14 1.09293E-04
 -1        59-1.19154E-04 8.65481E-25 7.25193E-04 6.54631E-13-8.37315E-14 1.23905E-04
 -1        60-3.51651E-05 9.69328E-25 9.39799E-04 6.95594E-13-6.47582E-14 1.09293E-04
 -1        61-1.05847E-04 7.89519E-25 6.68213E-04 6.18761E-13-1.18390E-13 4.78973E-05
 -1        62-8.66209E-05 7.49514E-25 1.02263E-03 6.12052E-13-5.49089E-14 3.50881E-05
 -1        63-1.05847E-04 7.89518E-25 6.68213E-04 6.18761E-13-1.18390E-13 4.78973E-05
 -1        64-8.66209E-05 7.49512E-25 1.02263E-03 6.12051E-13-5.49085E-14 3.50881E-05
 -1        65-9.38978E-05 5.29965E-25 6.47603E-04 5.19015E-13-4.11875E-14-1.93714E-05
 -1        66-6.15844E-05 6.04178E-25 9.68375E-04 5.51514E-13 7.91224E-14-1.16142E-05
 -1        67-9.38978E-05 5.29968E-25 6.47603E-04 5.19016E-13-4.11874E-14-1.93714E-05
 -1        68-6.15844E-05 6.04184E-25 9.68375E-04 5.51517E-13 7.91222E-14-1.16142E-05
 -1        69-4.56995E-05 2.43814E-25 6.02543E-04 3.57266E-13 9.48483E-15-6.00964E-05
 -1        70-2.10624E-06 2.57473E-25 8.26592E-04 3.42023E-13 1.51671E-13-3.57017E-05
 -1        71-4.56995E-05 2.43815E-25 6.02543E-04 3.57267E-13 9.48457E-15-6.00964E-05
 -1        72-2.10624E-06 2.57474E-25 8.26592E-04 3.42025E-13 1.51671E-13-3.57017E-05
 -1        73 6.98509E-05 9.44451E-26 5.93318E-04 2.19727E-13 5.19265E-14-9.82698E-05
 -1        74 1.66493E-04 2.26388E-26 6.67392E-04 1.49012E-13 4.07866E-14-9.76545E-05
 -1        75 6.98509E-05 9.44439E-26 5.93318E-04 2.19726E-13 5.19265E-14-9.82698E-05
 -1        76 1.66493E-04 2.26390E-26 6.67392E-04 1.49012E-13 4.07870E-14-9.76545E-05
 -1        77 2.87516E-05 1.95106E-25 6.41731E-04 3.23481E-13-1.32928E-14-1.05263E-04
 -1        78 1.23561E-04 3.13635E-25 4.35264E-04 3.76981E-13-1.82784E-13-1.54852E-04
 -1        79 2.87516E-05 1.95105E-25 6.41731E-04 3.23480E-13-1.32925E-14-1.05263E-04
 -1        80 1.23561E-04 3.13637E-25 4.35264E-04 3.76981E-13-1.82784E-13-1.54852E-04
 -1        81 8.00222E-05 5.30172E-25 6.65562E-04 5.16643E-13-1.01646E-13-1.09973E-04
 -1        82 1.34024E-04 8.72032E-25 2.77490E-04 6.02580E-13-3.03505E-13-2.93357E-04
 -1        83 8.00222E-05 5.30170E-25 6.65562E-04 5.16642E-13-1.01646E-13-1.09973E-04
 -1        84 1.34024E-04 8.72015E-25 2.77490E-04 6.02572E-13-3.03504E-13-2.93357E-04
 -1        85-1.43537E-05-1.13258E-26 1.31005E-02 3.22749E-16-8.68085E-19 7.06424E-03
 -1        86-3.19895E-03 6.31074E-26 1.10237E-02 1.60461E-13 1.14876E-13 2.45567E-03
 -1        87-1.43537E-05-1.13258E-26 1.31005E-02 3.22727E-16-8.68725E-19 7.06424E-03
 -1        88-3.19895E-03 6.31072E-26 1.10237E-02 1.60461E-13 1.14876E-13 2.45567E-03
 -1        89-1.46428E-03 4.18547E-26 6.59021E-03 1.33672E-13 1.19150E-13 1.58097E-03
 -1        90-1.46428E-03 4.18555E-26 6.59021E-03 1.33673E-13 1.19150E-13 1.58097E-03
 -1        91-6.56932E-04 3.34861E-25 2.31478E-03 4.24064E-13 8.03567E-14 1.40510E-03
 -1        92-6.56932E-04 3.34860E-25 2.31478E-03 4.24063E-13 8.03567E-14 1.40510E-03
 -1        93 1.06634E-04-1.29459E-26-1.07432E-03 1.61774E-13-1.27710E-13 1.05089E-03
 -1        94 1.06634E-04-1.29460E-26-1.07432E-03 1.61773E-13-1.27710E-13 1.05089E-03
 -1        95 6.49577E-04 4.61471E-25-3.88530E-03-5.11230E-13-1.51958E-13 9.59524E-04
 -1        96 6.49577E-04 4.61462E-25-3.88530E-03-5.11225E-13-1.51958E-13 9.59524E-04
 -1        97 1.12761E-03 2.54872E-25-6.21255E-03-3.55063E-13 2.82160E-13 6.82498E-04
 -1        98 1.12761E-03 2.54870E-25-6.21255E-03-3.55061E-13 2.82160E-13 6.82498E-04
 -1        99 1.29571E-03 5.20095E-25-6.81489E-03 3.03151E-13 5.49151E-13-1.85175E-04
 -1       100 1.29571E-03 5.20096E-25-6.81489E-03 3.03151E-13 5.49151E-13-1.85175E-04
 -1       101 7.77523E-04 2.38342E-24-4.67221E-03 1.07201E-12 3.39084E-13-1.03684E-03
 -1       102 7.77523E-04 2.38342E-24-4.67221E-03 1.07201E-12 3.39084E-13-1.03684E-03
 -1       103-8.96272E-05 2.17125E-24-1.05226E-03 1.04590E-12 5.49249E-14-1.14665E-03
 -1       104-8.96271E-05 2.17126E-24-1.05226E-03 1.04590E-12 5.49249E-14-1.14665E-03
 -1       105-7.34805E-04 2.56199E-24 1.70265E-03 1.13062E-12-1.01885E-13-6.15615E-04
 -1       106-7.34805E-04 2.56198E-24 1.70265E-03 1.13062E-12-1.01885E-13-6.15615E-04
 -1       107-8.28784E-04 1.41669E-24 2.49607E-03 8.46445E-13-1.16810E-13-4.33011E-05
 -1       108-8.28784E-04 1.41670E-24 2.49607E-03 8.46447E-13-1.16810E-13-4.33011E-05
 -1       109-6.21835E-04 6.00563E-25 1.92042E-03 5.56944E-13 2.27672E-14 1.92299E-04
 -1       110-6.21835E-04 6.00560E-25 1.92042E-03 5.56942E-13 2.27673E-14 1.92299E-04
 -1       111-3.61845E-04 6.89568E-25 1.08046E-03 5.87007E-13 4.40126E-14 1.61166E-04
 -1       112-3.61845E-04 6.89571E-25 1.08046E-03 5.87008E-13 4.40125E-14 1.61166E-04
 -1       113-2.03143E-04 7.71466E-25 5.48849E-04 6.14019E-13-1.06398E-13 8.24415E-05
 -1       114-2.03143E-04 7.71479E-25 5.48849E-04 6.14024E-13-1.06398E-13 8.24415E-05
 -1       115-1.25072E-04 7.57992E-25 3.22644E-04 5.89910E-13-1.85213E-13 3.48730E-05
 -1       116-1.25072E-04 7.57980E-25 3.22644E-04 5.89905E-13-1.85213E-13 3.48730E-05
 -1       117-1.26211E-04 4.17117E-25 2.74132E-04 4.41388E-13-1.38152E-13-1.49418E-05
 -1       118-1.26211E-04 4.17117E-25 2.74132E-04 4.41387E-13-1.38153E-13-1.49418E-05
 -1       119-8.92927E-05 2.86034E-25 3.43729E-04 3.77626E-13-4.91656E-14-5.23339E-05
 -1       120-8.92927E-05 2.86030E-25 3.43729E-04 3.77623E-13-4.91655E-14-5.23339E-05
 -1       121-2.67914E-05 1.75556E-25 5.01625E-04 2.99429E-13-1.80468E-14-7.32716E-05
 -1       122-2.67914E-05 1.75561E-25 5.01625E-04 2.99433E-13-1.80470E-14-7.32716E-05
 -1       123-6.60583E-05 1.74537E-25 5.32549E-04 2.97334E-13-2.33847E-14-7.70049E-05
 -1       124-6.60583E-05 1.74537E-25 5.32549E-04 2.97334E-13-2.33850E-14-7.70049E-05
 -1       125 2.60200E-05 3.90725E-25 4.64919E-04 4.45336E-13-4.44048E-14 3.26302E-05
 -1       126 2.60200E-05 3.90730E-25 4.64919E-04 4.45338E-13-4.44045E-14 3.26302E-05
 -3
    1PSTEP                        32           8           1          
  100CL  108 8.00000E-02         126                     1    8           1
 -4  ERROR       1    1
 -5  STR(%)      1    1    0    0
 -1         1 6.50574E+01
 -1         2 6.50574E+01
 -1         3 6.50574E+01
 -1         4 6.50574E+01
 -1         5 6.50574E+01
 -1         6 6.50574E+01
 -1         7 6.50574E+01
 -1         8 6.50574E+01
 -1         9 6.03327E+01
 -1        10 6.03327E+01
 -1        11 6.03327E+01
 -1        12 6.03327E+01
 -1        13 4.85233E+01
 -1        14 4.85233E+01
 -1        15 4.85233E+01
 -1        16 4.85233E+01
 -1        17 5.91420E+01
 -1        18 4.10444E+01
 -1        19 5.91420E+01
 -1        20 4.10444E+01
 -1        21 7.02829E+01
 -1        22 5.07657E+01
 -1        23 7.02829E+01
 -1        24 5.07657E+01
 -1        25 7.10605E+01
 -1        26 5.23805E+01
 -1        27 7.10605E+01
 -1        28 5.23805E+01
 -1        29 7.40676E+01
 -1        30 5.23805E+01
 -1        31 7.40676E+01
 -1        32 5.23805E+01
 -1        33 7.40676E+01
 -1        34 5.15309E+01
 -1        35 7.40676E+01
 -1        36 5.15309E+01
 -1        37 5.65539E+01
 -1        38 3.73832E+01
 -1        39 5.65539E+01
 -1        40 3.73832E+01
 -1        41 6.95008E+01
 -1        42 6.95008E+01
 -1        43 6.95008E+01
 -1        44 6.95008E+01
 -1        45 6.95008E+01
 -1        46 6.95008E+01
 -1        47 6.95008E+01
 -1        48 6.95008E+01
 -1        49 6.87293E+01
 -1        50 6.87293E+01
 -1        51 6.87293E+01
 -1        52 6.87293E+01
 -1        53 2.78176E+01
 -1        54 2.78176E+01
 -1        55 2.78176E+01
 -1        56 2.78176E+01
 -1        57 2.22781E+01
 -1        58 9.83859E+00
 -1        59 2.22781E+01
 -1        60 9.83859E+00
 -1        61 2.89929E+01
 -1        62 1.17971E+01
 -1        63 2.89929E+01
 -1        64 1.17971E+01
 -1        65 2.89929E+01
 -1        66 1.17971E+01
 -1        67 2.89929E+01
 -1        68 1.17971E+01
 -1        69 2.49349E+01
 -1        70 8.04209E+00
 -1        71 2.49349E+01
 -1        72 8.04209E+00
 -1        73 8.08475E+00
 -1        74 5.71494E+00
 -1        75 8.08475E+00
 -1        76 5.71494E+00
 -1        77 2.24031E+01
 -1        78 2.24031E+01
 -1        79 2.24031E+01
 -1        80 2.24031E+01
 -1        81 2.24031E+01
 -1        82 2.24031E+01
 -1        83 2.24031E+01
 -1        84 2.24031E+01
 -1        85 6.25387E+01
 -1        86 6.25387E+01
 -1        87 6.25387E+01
 -1        88 6.25387E+01
 -1        89 5.34935E+01
 -1        90 5.34935E+01
 -1        91 3.78281E+01
 -1        92 3.78281E+01
 -1        93 5.91420E+01
 -1        94 5.91420E+01
 -1        95 7.02829E+01
 -1        96 7.02829E+01
 -1        97 7.10605E+01
 -1        98 7.10605E+01
 -1        99 7.40676E+01
 -1       100 7.40676E+01
 -1       101 7.40676E+01
 -1       102 7.40676E+01
 -1       103 5.65539E+01
 -1       104 5.65539E+01
 -1       105 2.64719E+01
 -1       106 2.64719E+01
 -1       107 2.67988E+01
 -1       108 2.67988E+01
 -1       109 2.67988E+01
 -1       110 2.67988E+01
 -1       111 1.40822E+01
 -1       112 1.40822E+01
 -1       113 2.22781E+01
 -1       114 2.22781E+01
 -1       115 2.89929E+01
 -1       116 2.89929E+01
 -1       117 2.89929E+01
 -1       118 2.89929E+01
 -1       119 2.49349E+01
 -1       120 2.49349E+01
 -1       121 8.08475E+00
 -1       122 8.08475E+00
 -1       123 1.05371E+01
 -1       124 1.05371E+01
 -1       125 1.05371E+01
 -1       126 1.05371E+01
 -3
    1PSTEP                        33           9           1          
  100CL  109 9.00000E-02         126                     1    9           1
 -4  DISP        4    1
 -5  D1          1    2    1    0
 -5  D2          1    2    2    0
 -5  D3          1    2    3    0
 -5  ALL         1    2    0    0    1ALL
 -1         1 0.00000E+00 0.00000E+00 0.00000E+00
 -1         2 0.00000E+00 0.00000E+00 0.00000E+00
 -1         3 5.55080E-04 0.00000E+00 2.94889E-05
 -1         4 7.04648E-04 0.00000E+00-6.50396E-04
 -1         5 0.00000E+00 0.00000E+00 0.00000E+00
 -1         6 0.00000E+00 0.00000E+00 0.00000E+00
 -1         7 5.55080E-04 0.00000E+00 2.94889E-05
 -1         8 7.04648E-04 0.00000E+00-6.50396E-04
 -1         9 1.79165E-03 0.00000E+00 5.15224E-05
 -1        10 1.84316E-03 0.00000E+00-1.09833E-03
 -1        11 1.79165E-03 0.00000E+00 5.15224E-05
 -1        12 1.84316E-03 0.00000E+00-1.09833E-03
 -1        13 3.30621E-03 0.00000E+00 7.02477E-05
 -1        14 3.30605E-03 0.00000E+00-1.29633E-03
 -1        15 3.30621E-03 0.00000E+00 7.02477E-05
 -1        16 3.30605E-03 0.00000E+00-1.29633E-03
 -1        17 4.91024E-03 0.00000E+00 9.71348E-05
 -1        18 4.86730E-03 0.00000E+00-1.29403E-03
 -1        19 4.91024E-03 0.00000E+00 9.71348E-05
 -1        20 4.86730E-03 0.00000E+00-1.29403E-03
 -1        21 6.39617E-03 0.00000E+00 1.30836E-04
 -1        22 6.32836E-03 0.00000E+00-1.12760E-03
 -1        23 6.39617E-03 0.00000E+00 1.30836E-04
 -1        24 6.32836E-03 0.00000E+00-1.12760E-03
 -1        25 7.65240E-03 0.00000E+00 1.71672E-04
 -1        26 7.56636E-03 0.00000E+00-8.36255E-04
 -1        27 7.65240E-03 0.00000E+00 1.71672E-04
 -1        28 7.56636E-03 0.00000E+00-8.36255E-04
 -1        29 8.59995E-03 0.00000E+00 2.23471E-04
 -1        30 8.49514E-03 0.00000E+00-4.29561E-04
 -1        31 8.59995E-03 0.00000E+00 2.23471E-04
 -1        32 8.49514E-03 0.00000E+00-4.29561E-04
 -1        33 9.05562E-03 0.00000E+00 2.87329E-04
 -1        34 8.95136E-03 0.00000E+00 4.77773E-05
 -1        35 9.05562E-03 0.00000E+00 2.87329E-04
 -1        36 8.95136E-03 0.00000E+00 4.77773E-05
 -1        37 8.95876E-03 0.00000E+00 3.51849E-04
 -1        38 8.88767E-03 0.00000E+00 4.60117E-04
 -1        39 8.95876E-03 0.00000E+00 3.51849E-04
 -1        40 8.88767E-03 0.00000E+00 4.60117E-04
 -1        41 8.53017E-03 0.00000E+00 4.07194E-04
 -1        42 8.50619E-03 0.00000E+00 6.86093E-04
 -1        43 8.53017E-03 0.00000E+00 4.07194E-04
 -1        44 8.50619E-03 0.00000E+00 6.86093E-04
 -1        45 8.09275E-03 0.00000E+00 4.54706E-04
 -1        46 8.10023E-03 0.00000E+00 7.27916E-04
 -1        47 8.09275E-03 0.00000E+00 4.54706E-04
 -1        48 8.10023E-03 0.00000E+00 7.27916E-04
 -1        49 7.82641E-03 0.00000E+00 4.97238E-04
 -1        50 7.84251E-03 0.00000E+00 6.83577E-04
 -1        51 7.82641E-03 0.00000E+00 4.97238E-04
 -1        52 7.84251E-03 0.00000E+00 6.83577E-04
 -1        53 7.71490E-03 0.00000E+00 5.34614E-04
 -1        54 7.72579E-03 0.00000E+00 6.47433E-04
 -1        55 7.71490E-03 0.00000E+00 5.34614E-04
 -1        56 7.72579E-03 0.00000E+00 6.47433E-04
 -1        57 7.65638E-03 0.00000E+00 5.68189E-04
 -1        58 7.66046E-03 0.00000E+00 6.53891E-04
 -1        59 7.65638E-03 0.00000E+00 5.68189E-04
 -1        60 7.66046E-03 0.00000E+00 6.53891E-04
 -1        61 7.58612E-03 0.00000E+00 6.02125E-04
 -1        62 7.58358E-03 0.00000E+00 6.91214E-04
 -1        63 7.58612E-03 0.00000E+00 6.02125E-04
 -1        64 7.58358E-03 0.00000E+00 6.91214E-04
 -1        65 7.49222E-03 0.00000E+00 6.36031E-04
 -1        66 7.48877E-03 0.00000E+00 7.40905E-04
 -1        67 7.49222E-03 0.00000E+00 6.36031E-04
 -1        68 7.48877E-03 0.00000E+00 7.40905E-04
 -1        69 7.37105E-03 0.00000E+00 6.66302E-04
 -1        70 7.36912E-03 0.00000E+00 7.94626E-04
 -1        71 7.37105E-03 0.00000E+00 6.66302E-04
 -1        72 7.36912E-03 0.00000E+00 7.94626E-04
 -1        73 7.20795E-03 0.00000E+00 6.94623E-04
 -1        74 7.20786E-03 0.00000E+00 8.42149E-04
 -1        75 7.20795E-03 0.00000E+00 6.94623E-04
 -1        76 7.20786E-03 0.00000E+00 8.42149E-04
 -1        77 7.03151E-03 0.00000E+00 7.18418E-04
 -1        78 7.03472E-03 0.00000E+00 8.67736E-04
 -1        79 7.03151E-03 0.00000E+00 7.18418E-04
 -1        80 7.03472E-03 0.00000E+00 8.67736E-04
 -1        81 6.88058E-03 0.00000E+00 7.43253E-04
 -1        82 6.88538E-03 0.00000E+00 8.72402E-04
 -1        83 6.88058E-03 0.00000E+00 7.43253E-04
 -1        84 6.88538E-03 0.00000E+00 8.72402E-04
 -1        85 0.00000E+00 0.00000E+00 0.00000E+00
 -1        86 7.46049E-04 0.00000E+00 7.02549E-04
 -1        87 0.00000E+00 0.00000E+00 0.00000E+00
 -1        88 7.46049E-04 0.00000E+00 7.02549E-04
 -1        89 1.89346E-03 0.00000E+00 1.19551E-03
 -1        90 1.89346E-03 0.00000E+00 1.19551E-03
 -1        91 3.37603E-03 0.00000E+00 1.43940E-03
 -1        92 3.37603E-03 0.00000E+00 1.43940E-03
 -1        93 4.94529E-03 0.00000E+00 1.49097E-03
 -1        94 4.94529E-03 0.00000E+00 1.49097E-03
 -1        95 6.39822E-03 0.00000E+00 1.39263E-03
 -1        96 6.39822E-03 0.00000E+00 1.39263E-03
 -1        97 7.62896E-03 0.00000E+00 1.18574E-03
 -1        98 7.62896E-03 0.00000E+00 1.18574E-03
 -1        99 8.55074E-03 0.00000E+00 8.82719E-04
 -1       100 8.55074E-03 0.00000E+00 8.82719E-04
 -1       101 9.00356E-03 0.00000E+00 5.26468E-04
 -1       102 9.00356E-03 0.00000E+00 5.26468E-04
 -1       103 8.93125E-03 0.00000E+00 2.38021E-04
 -1       104 8.93125E-03 0.00000E+00 2.38021E-04
 -1       105 8.54372E-03 0.00000E+00 1.23909E-04
 -1       106 8.54372E-03 0.00000E+00 1.23909E-04
 -1       107 8.12952E-03 0.00000E+00 1.78935E-04
 -1       108 8.12952E-03 0.00000E+00 1.78935E-04
 -1       109 7.86653E-03 0.00000E+00 3.08109E-04
 -1       110 7.86653E-03 0.00000E+00 3.08109E-04
 -1       111 7.74278E-03 0.00000E+00 4.19530E-04
 -1       112 7.74278E-03 0.00000E+00 4.19530E-04
 -1       113 7.67630E-03 0.00000E+00 4.82761E-04
 -1       114 7.67630E-03 0.00000E+00 4.82761E-04
 -1       115 7.59994E-03 0.00000E+00 5.13465E-04
 -1       116 7.59994E-03 0.00000E+00 5.13465E-04
 -1       117 7.50353E-03 0.00000E+00 5.29615E-04
 -1       118 7.50353E-03 0.00000E+00 5.29615E-04
 -1       119 7.37891E-03 0.00000E+00 5.38181E-04
 -1       120 7.37891E-03 0.00000E+00 5.38181E-04
 -1       121 7.22049E-03 0.00000E+00 5.49108E-04
 -1       122 7.22049E-03 0.00000E+00 5.49108E-04
 -1       123 7.04348E-03 0.00000E+00 5.70299E-04
 -1       124 7.04348E-03 0.00000E+00 5.70299E-04
 -1       125 6.88578E-03 0.00000E+00 5.90717E-04
 -1       126 6.88578E-03 0.00000E+00 5.90717E-04
 -3
    1PSTEP                        34           9           1          
  100CL  109 9.00000E-02         126                     1    9           1
 -4  STRESS      6    1
 -5  SXX         1    4    1    1
 -5  SYY         1    4    2    2
 -5  SZZ         1    4    3    3
 -5  SXY         1    4    1    2
 -5  SYZ         1    4    2    3
 -5  SZX         1    4    3    1
 -1         1-2.94439E+03-2.99827E+03-6.85289E+03-4.48990E-10 6.29345E-10 2.07793E+03
 -1         2 1.81101E+02 1.50267E+02 3.13157E+02 4.11157E-11 6.13197E-10 1.71067E+03
 -1         3 3.05298E+01 8.55552E+01 2.54605E+02 2.72107E-07 3.18236E-10 6.77088E+02
 -1         4-8.00133E+02-1.78097E+03-5.04603E+03 2.67454E-07-4.40531E-08 6.99458E+02
 -1         5-2.94439E+03-2.99827E+03-6.85289E+03-4.48990E-10 6.29345E-10 2.07793E+03
 -1         6 1.81101E+02 1.50267E+02 3.13157E+02 4.11166E-11 6.13197E-10 1.71067E+03
 -1         7 3.05298E+01 8.55552E+01 2.54605E+02 2.72107E-07 3.18246E-10 6.77088E+02
 -1         8-8.00133E+02-1.78097E+03-5.04603E+03 2.67454E-07-4.40531E-08 6.99458E+02
 -1         9 9.42927E+01 1.26613E+02 3.26618E+02 3.83890E-07 2.31288E-08 7.07775E+02
 -1        10-6.89761E+02-1.11382E+03-2.98769E+03 3.47784E-07-1.64150E-08 4.31827E+02
 -1        11 9.42927E+01 1.26613E+02 3.26618E+02 3.83890E-07 2.31289E-08 7.07775E+02
 -1        12-6.89761E+02-1.11382E+03-2.98769E+03 3.47784E-07-1.64149E-08 4.31827E+02
 -1        13 7.93413E+01 1.42362E+02 3.98752E+02 3.70115E-07-1.35248E-09 5.95015E+02
 -1        14-1.19975E+02-2.60871E+02-7.42531E+02 4.01746E-07 3.14817E-08 4.37988E+02
 -1        15 7.93413E+01 1.42362E+02 3.98752E+02 3.70115E-07-1.35251E-09 5.95015E+02
 -1        16-1.19975E+02-2.60871E+02-7.42531E+02 4.01745E-07 3.14817E-08 4.37988E+02
 -1        17 6.84353E+01 1.59671E+02 4.67113E+02 2.62521E-07-3.40307E-08 4.76139E+02
 -1        18 2.62981E+02 3.85518E+02 1.03018E+03 2.56572E-07 6.81500E-08 3.81542E+02
 -1        19 6.84353E+01 1.59671E+02 4.67113E+02 2.62521E-07-3.40306E-08 4.76139E+02
 -1        20 2.62981E+02 3.85518E+02 1.03018E+03 2.56572E-07 6.81500E-08 3.81542E+02
 -1        21 7.45418E+01 1.71379E+02 4.97655E+02 1.06456E-07-1.67303E-08 3.47822E+02
 -1        22 5.96859E+02 9.00114E+02 2.42646E+03 1.21754E-07 8.90991E-08 3.06329E+02
 -1        23 7.45418E+01 1.71379E+02 4.97655E+02 1.06455E-07-1.67302E-08 3.47822E+02
 -1        24 5.96859E+02 9.00114E+02 2.42646E+03 1.21753E-07 8.90988E-08 3.06329E+02
 -1        25 5.92809E+01 1.73499E+02 5.16742E+02-1.53600E-07-1.79415E-08 2.85058E+02
 -1        26 8.59838E+02 1.31424E+03 3.56554E+03-1.06886E-07 8.70104E-08 2.63055E+02
 -1        27 5.92809E+01 1.73499E+02 5.16742E+02-1.53600E-07-1.79416E-08 2.85058E+02
 -1        28 8.59838E+02 1.31424E+03 3.56554E+03-1.06886E-07 8.70104E-08 2.63055E+02
 -1        29 5.12798E+01 1.83733E+02 5.58948E+02-2.62018E-07-2.16946E-08 1.43471E+02
 -1        30 9.90030E+02 1.59909E+03 4.40800E+03-2.40446E-07-2.70069E-08 1.45525E+02
 -1        31 5.12798E+01 1.83733E+02 5.58948E+02-2.62018E-07-2.16946E-08 1.43471E+02
 -1        32 9.90030E+02 1.59909E+03 4.40800E+03-2.40446E-07-2.70069E-08 1.45525E+02
 -1        33 3.50304E+01 1.83223E+02 5.75927E+02-8.33035E-08-3.44634E-08-1.83756E+02
 -1        34 9.47063E+02 1.57825E+03 4.38252E+03-7.47024E-08-1.37157E-07-1.26977E+02
 -1        35 3.50304E+01 1.83223E+02 5.75927E+02-8.33036E-08-3.44634E-08-1.83756E+02
 -1        36 9.47063E+02 1.57825E+03 4.38252E+03-7.47014E-08-1.37157E-07-1.26977E+02
 -1        37 5.60480E+01 1.80992E+02 5.48688E+02 9.58119E-08-1.25884E-08-4.68601E+02
 -1        38 7.16747E+02 1.14772E+03 3.14819E+03 6.05443E-08-1.18125E-07-3.58521E+02
 -1        39 5.60480E+01 1.80992E+02 5.48688E+02 9.58126E-08-1.25885E-08-4.68601E+02
 -1        40 7.16747E+02 1.14772E+03 3.14819E+03 6.05447E-08-1.18125E-07-3.58521E+02
 -1        41 6.03774E+01 1.63073E+02 4.85588E+02 1.24102E-07 1.47767E-08-4.69936E+02
 -1        42 3.79879E+02 5.17353E+02 1.35537E+03 1.47076E-07-6.22607E-08-3.58970E+02
 -1        43 6.03774E+01 1.63073E+02 4.85588E+02 1.24102E-07 1.47768E-08-4.69936E+02
 -1        44 3.79879E+02 5.17353E+02 1.35537E+03 1.47077E-07-6.22608E-08-3.58970E+02
 -1        45 6.86143E+01 1.49706E+02 4.32633E+02 1.97201E-07 5.61636E-09-2.39780E+02
 -1        46 9.10418E+01 3.74004E+01 3.51688E+01 1.70207E-07-2.73326E-08-1.80978E+02
 -1        47 6.86143E+01 1.49706E+02 4.32633E+02 1.97201E-07 5.61631E-09-2.39780E+02
 -1        48 9.10418E+01 3.74004E+01 3.51688E+01 1.70208E-07-2.73326E-08-1.80978E+02
 -1        49 6.17158E+01 1.32468E+02 3.80906E+02 2.41477E-07 4.34203E-09-4.31635E+00
 -1        50-6.12849E+00-1.07949E+02-3.53125E+02 2.43536E-07 4.59100E-08-1.99062E+00
 -1        51 6.17158E+01 1.32468E+02 3.80906E+02 2.41478E-07 4.34206E-09-4.31635E+00
 -1        52-6.12849E+00-1.07949E+02-3.53125E+02 2.43536E-07 4.59099E-08-1.99062E+00
 -1        53 7.38587E+01 1.25454E+02 3.44844E+02 1.28938E-07 1.66844E-08 8.88994E+01
 -1        54 5.03966E+01-1.72461E+01-1.07750E+02 1.45713E-07 1.15387E-07 6.72992E+01
 -1        55 7.38587E+01 1.25454E+02 3.44844E+02 1.28938E-07 1.66844E-08 8.88994E+01
 -1        56 5.03966E+01-1.72461E+01-1.07750E+02 1.45713E-07 1.15387E-07 6.72992E+01
 -1        57 7.13246E+01 1.19740E+02 3.28309E+02 1.13109E-08 4.43943E-08 6.50651E+01
 -1        58 1.45831E+02 1.20387E+02 2.55801E+02 1.47955E-08 1.32026E-07 4.48645E+01
 -1        59 7.13246E+01 1.19740E+02 3.28309E+02 1.13106E-08 4.43942E-08 6.50651E+01
 -1        60 1.45831E+02 1.20387E+02 2.55801E+02 1.47953E-08 1.32026E-07 4.48645E+01
 -1        61 6.95777E+01 1.19469E+02 3.29099E+02-1.27002E-07 2.42266E-08 2.07150E+01
 -1        62 1.74491E+02 1.89691E+02 4.58608E+02-1.04364E-07 8.24248E-08 9.74971E+00
 -1        63 6.95777E+01 1.19469E+02 3.29099E+02-1.27001E-07 2.42266E-08 2.07150E+01
 -1        64 1.74491E+02 1.89691E+02 4.58608E+02-1.04364E-07 8.24248E-08 9.74971E+00
 -1        65 7.04206E+01 1.15088E+02 3.13582E+02-1.45193E-07-1.46582E-08-6.08611E+00
 -1        66 2.03180E+02 2.23677E+02 5.43492E+02-1.55696E-07-1.07648E-08-7.63455E+00
 -1        67 7.04206E+01 1.15088E+02 3.13582E+02-1.45193E-07-1.46582E-08-6.08611E+00
 -1        68 2.03180E+02 2.23677E+02 5.43492E+02-1.55697E-07-1.07650E-08-7.63454E+00
 -1        69 8.55011E+01 1.14314E+02 2.95920E+02-6.13366E-08-1.48259E-08-4.31490E+01
 -1        70 2.15705E+02 2.26313E+02 5.39786E+02-6.33904E-08-7.33171E-08-3.78642E+01
 -1        71 8.55011E+01 1.14314E+02 2.95920E+02-6.13359E-08-1.48259E-08-4.31490E+01
 -1        72 2.15705E+02 2.26313E+02 5.39786E+02-6.33898E-08-7.33170E-08-3.78642E+01
 -1        73 5.63988E+01 9.34331E+01 2.55374E+02 3.52400E-08-1.44759E-08-7.19298E+01
 -1        74 1.71683E+02 1.70507E+02 3.97345E+02 5.91239E-08-9.09821E-08-6.10140E+01
 -1        75 5.63988E+01 9.34331E+01 2.55374E+02 3.52405E-08-1.44759E-08-7.19298E+01
 -1        76 1.71683E+02 1.70507E+02 3.97345E+02 5.91226E-08-9.09821E-08-6.10140E+01
 -1        77 6.89637E+01 9.42383E+01 2.45455E+02 1.57288E-07-1.45662E-08-4.63777E+01
 -1        78 1.08191E+02 8.68222E+01 1.81405E+02 1.38785E-07-6.24040E-08-3.68644E+01
 -1        79 6.89637E+01 9.42383E+01 2.45455E+02 1.57288E-07-1.45662E-08-4.63777E+01
 -1        80 1.08191E+02 8.68222E+01 1.81405E+02 1.38785E-07-6.24040E-08-3.68644E+01
 -1        81 1.15827E+02 1.15638E+02 2.69922E+02 2.10080E-07 2.10257E-09-3.13174E+01
 -1        82 7.63722E+01 4.54585E+01 7.51983E+01 1.65920E-07-2.44506E-08-6.21612E+01
 -1        83 1.15827E+02 1.15638E+02 2.69922E+02 2.10078E-07 2.10246E-09-3.13174E+01
 -1        84 7.63722E+01 4.54585E+01 7.51983E+01 1.65921E-07-2.44507E-08-6.21612E+01
 -1        85 3.30693E+03 3.24527E+03 7.74858E+03 5.69351E-10 6.80301E-10 2.40065E+03
 -1        86 8.33231E+02 1.94306E+03 5.76043E+03 3.03030E-07 4.76231E-08 8.95876E+02
 -1        87 3.30693E+03 3.24527E+03 7.74858E+03 5.69344E-10 6.80301E-10 2.40065E+03
 -1        88 8.33231E+02 1.94306E+03 5.76043E+03 3.03030E-07 4.76231E-08 8.95876E+02
 -1        89 8.54399E+02 1.37001E+03 3.76717E+03 4.10179E-07 3.81899E-10 5.68894E+02
 -1        90 8.54399E+02 1.37001E+03 3.76717E+03 4.10180E-07 3.81836E-10 5.68894E+02
 -1        91 2.68785E+02 5.53172E+02 1.59007E+03 2.91328E-07-7.95183E-08 5.04534E+02
 -1        92 2.68785E+02 5.53172E+02 1.59007E+03 2.91327E-07-7.95182E-08 5.04534E+02
 -1        93-1.48669E+02-7.47155E+01-9.66136E+01 2.73668E-07-1.42708E-07 3.62169E+02
 -1        94-1.48669E+02-7.47155E+01-9.66136E+01 2.73668E-07-1.42708E-07 3.62169E+02
 -1        95-4.57640E+02-5.57150E+02-1.39230E+03 9.24150E-08-1.68819E-07 2.33389E+02
 -1        96-4.57640E+02-5.57150E+02-1.39230E+03 9.24160E-08-1.68819E-07 2.33389E+02
 -1        97-7.50034E+02-9.67624E+02-2.45654E+03-1.85062E-07-1.20105E-07 1.72286E+02
 -1        98-7.50034E+02-9.67624E+02-2.45654E+03-1.85062E-07-1.20105E-07 1.72286E+02
 -1        99-9.14439E+02-1.25155E+03-3.22394E+03-2.33458E-07 3.82251E-09 7.05094E+01
 -1       100-9.14439E+02-1.25155E+03-3.22394E+03-2.33458E-07 3.82241E-09 7.05094E+01
 -1       101-9.12278E+02-1.24183E+03-3.19238E+03-9.58135E-08 9.26025E-08-1.54456E+02
 -1       102-9.12278E+02-1.24183E+03-3.19238E+03-9.58147E-08 9.26025E-08-1.54456E+02
 -1       103-6.23529E+02-7.99028E+02-2.02341E+03 1.07406E-07 7.17465E-08-3.53494E+02
 -1       104-6.23529E+02-7.99028E+02-2.02341E+03 1.07404E-07 7.17465E-08-3.53494E+02
 -1       105-2.60947E+02-1.88183E+02-3.62409E+02 1.00172E-07 5.18269E-08-3.60531E+02
 -1       106-2.60947E+02-1.88183E+02-3.62409E+02 1.00173E-07 5.18268E-08-3.60531E+02
 -1       107 4.64460E+01 2.64512E+02 8.39713E+02 1.91478E-07 4.28512E-08-1.95810E+02
 -1       108 4.64460E+01 2.64512E+02 8.39713E+02 1.91480E-07 4.28512E-08-1.95810E+02
 -1       109 1.29945E+02 3.73750E+02 1.12110E+03 2.15653E-07-2.27764E-08-1.51221E+01
 -1       110 1.29945E+02 3.73750E+02 1.12110E+03 2.15654E-07-2.27764E-08-1.51221E+01
 -1       111 1.04615E+02 2.75434E+02 8.16326E+02 1.08326E-07-5.64353E-08 6.08029E+01
 -1       112 1.04615E+02 2.75434E+02 8.16326E+02 1.08326E-07-5.64352E-08 6.08029E+01
 -1       113 3.20253E+00 1.25414E+02 4.15717E+02 1.47706E-08-5.72609E-08 4.28637E+01
 -1       114 3.20253E+00 1.25414E+02 4.15717E+02 1.47730E-08-5.72609E-08 4.28637E+01
 -1       115-3.94242E+01 4.50846E+01 1.89925E+02-1.43343E-07-4.55107E-08 6.80540E+00
 -1       116-3.94242E+01 4.50846E+01 1.89925E+02-1.43343E-07-4.55108E-08 6.80540E+00
 -1       117-6.28549E+01 5.93789E+00 8.27129E+01-1.14937E-07-3.88746E-09-1.27669E+01
 -1       118-6.28549E+01 5.93789E+00 8.27129E+01-1.14938E-07-3.88744E-09-1.27669E+01
 -1       119-3.66652E+01 1.04081E+01 7.14191E+01-4.72395E-08 3.76648E-08-4.13848E+01
 -1       120-3.66652E+01 1.04081E+01 7.14191E+01-4.72393E-08 3.76647E-08-4.13848E+01
 -1       121-5.67965E+01 1.85449E+01 1.18786E+02 3.00560E-08 8.57285E-08-6.85930E+01
 -1       122-5.67965E+01 1.85449E+01 1.18786E+02 3.00523E-08 8.57286E-08-6.85930E+01
 -1       123-2.88225E+01 4.30769E+01 1.72625E+02 1.58149E-07 1.03996E-07-5.95397E+01
 -1       124-2.88225E+01 4.30769E+01 1.72625E+02 1.58149E-07 1.03996E-07-5.95397E+01
 -1       125 4.20244E+01 7.24691E+01 1.99693E+02 2.60723E-07 1.07674E-07-1.61721E+01
 -1       126 4.20244E+01 7.24691E+01 1.99693E+02 2.60721E-07 1.07674E-07-1.61721E+01
 -3
    1PSTEP                        35           9           1          
  100CL  109 9.00000E-02         126                     1    9           1
 -4  TOSTRAIN    6    1
 -5  EXX         1    4    1    1
 -5  EYY         1    4    2    2
 -5  EZZ         1    4    3    3
 -5  EXY         1    4    1    2
 -5  EYZ         1    4    2    3
 -5  EZX         1    4    3    1
 -1         1-1.62053E-05-2.57707E-25-1.28399E-02-7.91309E-16 8.34337E-19 7.04634E-03
 -1         2-1.62289E-05-2.59327E-25 6.35314E-04 3.80504E-17-1.60998E-19 5.55066E-03
 -1         3-3.28539E-04 1.40416E-24 6.87102E-04 8.84299E-13 1.21402E-14 2.18623E-03
 -1         4 3.07629E-03 1.40465E-24-1.07533E-02 8.72571E-13-1.34210E-13 2.51908E-03
 -1         5-1.62053E-05-2.57707E-25-1.28399E-02-7.91309E-16 8.34337E-19 7.04634E-03
 -1         6-1.62289E-05-2.59327E-25 6.35314E-04 3.80533E-17-1.60771E-19 5.55066E-03
 -1         7-3.28539E-04 1.40416E-24 6.87102E-04 8.84299E-13 1.21403E-14 2.18623E-03
 -1         8 3.07629E-03 1.40465E-24-1.07533E-02 8.72571E-13-1.34210E-13 2.51908E-03
 -1         9-2.43309E-04 3.09439E-24 7.85258E-04 1.24515E-12 1.03452E-13 2.27479E-03
 -1        10 1.29041E-03 2.53100E-24-6.09629E-03 1.13253E-12-2.76984E-14 1.59608E-03
 -1        11-2.43309E-04 3.09439E-24 7.85258E-04 1.24515E-12 1.03452E-13 2.27479E-03
 -1        12 1.29041E-03 2.53100E-24-6.09629E-03 1.13253E-12-2.76982E-14 1.59608E-03
 -1        13-3.25979E-04 2.85223E-24 9.41992E-04 1.20242E-12 2.84103E-14 1.89706E-03
 -1        14 3.69399E-04 3.37379E-24-1.49617E-03 1.30222E-12 1.38109E-13 1.48153E-03
 -1        15-3.25979E-04 2.85224E-24 9.41992E-04 1.20242E-12 2.84103E-14 1.89706E-03
 -1        16 3.69399E-04 3.37378E-24-1.49617E-03 1.30222E-12 1.38109E-13 1.48153E-03
 -1        17-3.92072E-04 1.38108E-24 1.08378E-03 8.56235E-13-8.66652E-14 1.50423E-03
 -1        18-4.71585E-04 1.37754E-24 2.14686E-03 8.26533E-13 2.43899E-13 1.16343E-03
 -1        19-3.92072E-04 1.38108E-24 1.08378E-03 8.56235E-13-8.66651E-14 1.50423E-03
 -1        20-4.71585E-04 1.37754E-24 2.14686E-03 8.26534E-13 2.43900E-13 1.16343E-03
 -1        21-3.81948E-04 2.27754E-26 1.12287E-03 3.47361E-13-4.56268E-14 1.09065E-03
 -1        22-1.03982E-03 3.11742E-25 4.95422E-03 3.87474E-13 2.97333E-13 8.34924E-04
 -1        23-3.81948E-04 2.27741E-26 1.12287E-03 3.47360E-13-4.56267E-14 1.09065E-03
 -1        24-1.03982E-03 3.11740E-25 4.95422E-03 3.87472E-13 2.97333E-13 8.34924E-04
 -1        25-4.23887E-04 3.27114E-25 1.17118E-03-4.97753E-13-6.83394E-14 8.92636E-04
 -1        26-1.51933E-03 2.10762E-25 7.24163E-03-3.52770E-13 2.72937E-13 6.65571E-04
 -1        27-4.23887E-04 3.27113E-25 1.17118E-03-4.97751E-13-6.83394E-14 8.92636E-04
 -1        28-1.51933E-03 2.10759E-25 7.24163E-03-3.52769E-13 2.72937E-13 6.65571E-04
 -1        29-4.73553E-04 1.38855E-24 1.26273E-03-8.50538E-13-8.14477E-14 4.43150E-04
 -1        30-2.01375E-03 1.11993E-24 8.98154E-03-7.78877E-13-9.67086E-14 3.22409E-04
 -1        31-4.73553E-04 1.38855E-24 1.26273E-03-8.50537E-13-8.14477E-14 4.43150E-04
 -1        32-2.01375E-03 1.11993E-24 8.98154E-03-7.78877E-13-9.67086E-14 3.22409E-04
 -1        33-5.14173E-04 1.50136E-26 1.30130E-03-2.70329E-13-1.13077E-13-6.03396E-04
 -1        34-2.07630E-03 3.66708E-25 8.95268E-03-2.40653E-13-4.41503E-13-4.58235E-04
 -1        35-5.14173E-04 1.50124E-26 1.30130E-03-2.70329E-13-1.13077E-13-6.03396E-04
 -1        36-2.07630E-03 3.66707E-25 8.95268E-03-2.40650E-13-4.41503E-13-4.58235E-04
 -1        37-4.35321E-04 1.04625E-25 1.21606E-03 3.11142E-13-4.15714E-14-1.51419E-03
 -1        38-1.42104E-03 2.70797E-25 6.41750E-03 1.94826E-13-3.81064E-13-1.13302E-03
 -1        39-4.35321E-04 1.04627E-25 1.21606E-03 3.11145E-13-4.15715E-14-1.51419E-03
 -1        40-1.42104E-03 2.70801E-25 6.41750E-03 1.94827E-13-3.81064E-13-1.13302E-03
 -1        41-3.59927E-04 3.05550E-25 1.06603E-03 4.03738E-13 4.56373E-14-1.51453E-03
 -1        42-4.64501E-04 4.94558E-25 2.71369E-03 4.76094E-13-2.04249E-13-1.13875E-03
 -1        43-3.59927E-04 3.05546E-25 1.06603E-03 4.03736E-13 4.56376E-14-1.51453E-03
 -1        44-4.64501E-04 4.94561E-25 2.71369E-03 4.76096E-13-2.04250E-13-1.13875E-03
 -1        45-2.77831E-04 8.06329E-25 9.26896E-04 6.40986E-13 1.47171E-14-7.70376E-04
 -1        46 1.64394E-04 6.01608E-25-1.82978E-06 5.52443E-13-9.18509E-14-5.86845E-04
 -1        47-2.77831E-04 8.06334E-25 9.26896E-04 6.40988E-13 1.47169E-14-7.70376E-04
 -1        48 1.64394E-04 6.01621E-25-1.82978E-06 5.52448E-13-9.18510E-14-5.86845E-04
 -1        49-2.33248E-04 1.20355E-24 8.07488E-04 7.84796E-13 1.11316E-14-9.97376E-06
 -1        50 3.28734E-04 1.24900E-24-7.96721E-04 7.91978E-13 1.46359E-13-1.09220E-05
 -1        51-2.33248E-04 1.20356E-24 8.07488E-04 7.84798E-13 1.11317E-14-9.97376E-06
 -1        52 3.28734E-04 1.24899E-24-7.96721E-04 7.91976E-13 1.46359E-13-1.09220E-05
 -1        53-1.67350E-04 2.81987E-25 7.11218E-04 4.19087E-13 5.32090E-14 2.90298E-04
 -1        54 2.20289E-04 6.38843E-25-2.95043E-04 4.74162E-13 3.74039E-13 2.17398E-04
 -1        55-1.67350E-04 2.81989E-25 7.11218E-04 4.19087E-13 5.32090E-14 2.90298E-04
 -1        56 2.20289E-04 6.38842E-25-2.95043E-04 4.74162E-13 3.74038E-13 2.17398E-04
 -1        57-1.56960E-04-4.69611E-26 6.76130E-04 3.69426E-14 1.44080E-13 2.12434E-04
 -1        58 8.30720E-05 2.85451E-25 4.38944E-04 4.86857E-14 4.28702E-13 1.46260E-04
 -1        59-1.56960E-04-4.69589E-26 6.76130E-04 3.69419E-14 1.44080E-13 2.12434E-04
 -1        60 8.30720E-05 2.85450E-25 4.38944E-04 4.86851E-14 4.28702E-13 1.46260E-04
 -1        61-1.62018E-04 3.01957E-25 6.79987E-04-4.12583E-13 7.94019E-14 6.86770E-05
 -1        62-4.93008E-05 3.11625E-25 8.71977E-04-3.38596E-13 2.68144E-13 3.32672E-05
 -1        63-1.62018E-04 3.01953E-25 6.79987E-04-4.12580E-13 7.94017E-14 6.86770E-05
 -1        64-4.93008E-05 3.11624E-25 8.71977E-04-3.38596E-13 2.68145E-13 3.32672E-05
 -1        65-1.45344E-04 4.35006E-25 6.44286E-04-4.71930E-13-4.65930E-14-1.80794E-05
 -1        66-6.67549E-05 4.74425E-25 1.03694E-03-5.05875E-13-3.38642E-14-2.23926E-05
 -1        67-1.45344E-04 4.35008E-25 6.44286E-04-4.71932E-13-4.65927E-14-1.80794E-05
 -1        68-6.67549E-05 4.74428E-25 1.03694E-03-5.05877E-13-3.38647E-14-2.23926E-05
 -1        69-9.46095E-05 4.55338E-26 5.90190E-04-1.99450E-13-4.76314E-14-1.38222E-04
 -1        70-3.53184E-05 1.38582E-25 1.01694E-03-2.06591E-13-2.37390E-13-1.19969E-04
 -1        71-9.46095E-05 4.55316E-26 5.90190E-04-1.99448E-13-4.76314E-14-1.38222E-04
 -1        72-3.53184E-05 1.38582E-25 1.01694E-03-2.06589E-13-2.37390E-13-1.19969E-04
 -1        73-1.22000E-04-3.99941E-26 5.27046E-04 1.14362E-13-4.73513E-14-2.31505E-04
 -1        74 2.49130E-06 1.86843E-25 7.36953E-04 1.91096E-13-2.95930E-13-1.95663E-04
 -1        75-1.22000E-04-3.99928E-26 5.27046E-04 1.14364E-13-4.73513E-14-2.31505E-04
 -1        76 2.49130E-06 1.86841E-25 7.36953E-04 1.91091E-13-2.95930E-13-1.95663E-04
 -1        77-8.32390E-05 4.67061E-25 4.91787E-04 5.10968E-13-4.88272E-14-1.48788E-04
 -1        78 6.86031E-05 4.63995E-25 3.07798E-04 4.50281E-13-2.04053E-13-1.18872E-04
 -1        79-8.32390E-05 4.67062E-25 4.91787E-04 5.10968E-13-4.88271E-14-1.48788E-04
 -1        80 6.86031E-05 4.63998E-25 3.07798E-04 4.50282E-13-2.04053E-13-1.18872E-04
 -1        81-1.54783E-08 8.93544E-25 5.01360E-04 6.82607E-13 4.90273E-15-1.00153E-04
 -1        82 9.92340E-05 5.77357E-25 9.77643E-05 5.38899E-13-8.08382E-14-2.01939E-04
 -1        83-1.54801E-08 8.93533E-25 5.01360E-04 6.82602E-13 4.90240E-15-1.00153E-04
 -1        84 9.92340E-05 5.77366E-25 9.77643E-05 5.38903E-13-8.08385E-14-2.01939E-04
 -1        85-1.62525E-05-3.29448E-25 1.42444E-02 9.36205E-16-1.11589E-18 7.46034E-03
 -1        86-3.73337E-03 1.78936E-24 1.22037E-02 9.80876E-13 1.64490E-13 2.61997E-03
 -1        87-1.62525E-05-3.29448E-25 1.42444E-02 9.36183E-16-1.11759E-18 7.46034E-03
 -1        88-3.73337E-03 1.78936E-24 1.22037E-02 9.80876E-13 1.64490E-13 2.61997E-03
 -1        89-1.77703E-03 3.50038E-24 7.74528E-03 1.33102E-12 3.12330E-14 1.59890E-03
 -1        90-1.77703E-03 3.50038E-24 7.74528E-03 1.33102E-12 3.12329E-14 1.59890E-03
 -1        91-1.02136E-03 1.85425E-24 3.42598E-03 9.53990E-13-2.31338E-13 1.50580E-03
 -1        92-1.02136E-03 1.85424E-24 3.42598E-03 9.53988E-13-2.31338E-13 1.50580E-03
 -1        93-3.12559E-04 1.91685E-24-9.43249E-06 9.03445E-13-4.38937E-13 1.16844E-03
 -1        94-3.12559E-04 1.91684E-24-9.43249E-06 9.03443E-13-4.38937E-13 1.16844E-03
 -1        95 2.75928E-04 5.11323E-25-2.68579E-03 3.15258E-13-5.43065E-13 8.38331E-04
 -1        96 2.75928E-04 5.11329E-25-2.68579E-03 3.15262E-13-5.43065E-13 8.38331E-04
 -1        97 6.71559E-04 8.26894E-25-4.85224E-03-5.93673E-13-4.05234E-13 6.78566E-04
 -1        98 6.71559E-04 8.26895E-25-4.85224E-03-5.93675E-13-4.05233E-13 6.78566E-04
 -1        99 1.06665E-03 1.07684E-24-6.47033E-03-7.60105E-13 2.51634E-15 3.30767E-04
 -1       100 1.06665E-03 1.07684E-24-6.47033E-03-7.60104E-13 2.51600E-15 3.30767E-04
 -1       101 1.04796E-03 2.03936E-25-6.40985E-03-3.13031E-13 3.02134E-13-4.71414E-04
 -1       102 1.04796E-03 2.03944E-25-6.40985E-03-3.13034E-13 3.02134E-13-4.71414E-04
 -1       103 5.50395E-04 2.57507E-25-4.00295E-03 3.50520E-13 2.33761E-13-1.16672E-03
 -1       104 5.50395E-04 2.57500E-25-4.00295E-03 3.50514E-13 2.33761E-13-1.16672E-03
 -1       105-2.55353E-04 2.48886E-25-5.57607E-04 3.27126E-13 1.66696E-13-1.17629E-03
 -1       106-2.55352E-04 2.48890E-25-5.57607E-04 3.27130E-13 1.66696E-13-1.17629E-03
 -1       107-7.20056E-04 7.88299E-25 1.86785E-03 6.23302E-13 1.35513E-13-6.20608E-04
 -1       108-7.20056E-04 7.88314E-25 1.86785E-03 6.23309E-13 1.35513E-13-6.20608E-04
 -1       109-7.95231E-04 9.61011E-25 2.41703E-03 7.00543E-13-7.64336E-14-3.63063E-05
 -1       110-7.95231E-04 9.61014E-25 2.41703E-03 7.00545E-13-7.64337E-14-3.63063E-05
 -1       111-5.54989E-04 2.58251E-25 1.74997E-03 3.51681E-13-1.83798E-13 2.02215E-04
 -1       112-5.54989E-04 2.58245E-25 1.74997E-03 3.51679E-13-1.83798E-13 2.02215E-04
 -1       113-3.96991E-04-2.15817E-26 9.40819E-04 4.77388E-14-1.85964E-13 1.41135E-04
 -1       114-3.96991E-04-2.15832E-26 9.40819E-04 4.77465E-14-1.85964E-13 1.41135E-04
 -1       115-2.74734E-04 4.14253E-25 4.70148E-04-4.66203E-13-1.46988E-13 2.33671E-05
 -1       116-2.74734E-04 4.14256E-25 4.70148E-04-4.66206E-13-1.46988E-13 2.33671E-05
 -1       117-2.23933E-04 2.63555E-25 2.49643E-04-3.73652E-13-1.18280E-14-4.04862E-05
 -1       118-2.23933E-04 2.63559E-25 2.49643E-04-3.73654E-13-1.18279E-14-4.04862E-05
 -1       119-1.53901E-04 4.23234E-26 1.98978E-04-1.53204E-13 1.22775E-13-1.33522E-04
 -1       120-1.53901E-04 4.23232E-26 1.98978E-04-1.53203E-13 1.22775E-13-1.33522E-04
 -1       121-2.46492E-04 9.56253E-26 3.26859E-04 9.86361E-14 2.78222E-13-2.21067E-04
 -1       122-2.46492E-04 9.56175E-26 3.26859E-04 9.86241E-14 2.78223E-13-2.21067E-04
 -1       123-2.35081E-04 6.60828E-25 4.21780E-04 5.15187E-13 3.36288E-13-1.91339E-04
 -1       124-2.35081E-04 6.60825E-25 4.21780E-04 5.15188E-13 3.36288E-13-1.91339E-04
 -1       125-9.92650E-05 1.59718E-24 4.13392E-04 8.48400E-13 3.47153E-13-5.09220E-05
 -1       126-9.92650E-05 1.59717E-24 4.13392E-04 8.48396E-13 3.47153E-13-5.09220E-05
 -3
    1PSTEP                        36           9           1          
  100CL  109 9.00000E-02         126                     1    9           1
 -4  ERROR       1    1
 -5  STR(%)      1    1    0    0
 -1         1 6.74263E+01
 -1         2 6.74263E+01
 -1         3 6.74263E+01
 -1         4 6.74263E+01
 -1         5 6.74263E+01
 -1         6 6.74263E+01
 -1         7 6.74263E+01
 -1         8 6.74263E+01
 -1         9 6.36557E+01
 -1        10 6.36557E+01
 -1        11 6.36557E+01
 -1        12 6.36557E+01
 -1        13 5.62188E+01
 -1        14 5.62188E+01
 -1        15 5.62188E+01
 -1        16 5.62188E+01
 -1        17 5.52007E+01
 -1        18 3.14839E+01
 -1        19 5.52007E+01
 -1        20 3.14839E+01
 -1        21 7.87950E+01
 -1        22 4.57912E+01
 -1        23 7.87950E+01
 -1        24 4.57912E+01
 -1        25 7.87950E+01
 -1        26 4.95005E+01
 -1        27 7.87950E+01
 -1        28 4.95005E+01
 -1        29 7.76495E+01
 -1        30 4.95005E+01
 -1        31 7.76495E+01
 -1        32 4.95005E+01
 -1        33 7.57220E+01
 -1        34 4.88760E+01
 -1        35 7.57220E+01
 -1        36 4.88760E+01
 -1        37 7.57220E+01
 -1        38 4.82265E+01
 -1        39 7.57220E+01
 -1        40 4.82265E+01
 -1        41 4.94214E+01
 -1        42 3.11564E+01
 -1        43 4.94214E+01
 -1        44 3.11564E+01
 -1        45 7.84163E+01
 -1        46 7.84163E+01
 -1        47 7.84163E+01
 -1        48 7.84163E+01
 -1        49 7.84163E+01
 -1        50 7.84163E+01
 -1        51 7.84163E+01
 -1        52 7.84163E+01
 -1        53 6.89384E+01
 -1        54 6.89384E+01
 -1        55 6.89384E+01
 -1        56 6.89384E+01
 -1        57 3.38095E+01
 -1        58 3.38095E+01
 -1        59 3.38095E+01
 -1        60 3.38095E+01
 -1        61 2.87027E+01
 -1        62 8.83757E+00
 -1        63 2.87027E+01
 -1        64 8.83757E+00
 -1        65 3.97432E+01
 -1        66 1.56847E+01
 -1        67 3.97432E+01
 -1        68 1.56847E+01
 -1        69 3.97432E+01
 -1        70 1.56847E+01
 -1        71 3.97432E+01
 -1        72 1.56847E+01
 -1        73 3.68679E+01
 -1        74 1.33300E+01
 -1        75 3.68679E+01
 -1        76 1.33300E+01
 -1        77 3.84087E+01
 -1        78 3.84087E+01
 -1        79 3.84087E+01
 -1        80 3.84087E+01
 -1        81 3.84087E+01
 -1        82 3.84087E+01
 -1        83 3.84087E+01
 -1        84 3.84087E+01
 -1        85 6.12449E+01
 -1        86 6.12449E+01
 -1        87 6.12449E+01
 -1        88 6.12449E+01
 -1        89 5.30999E+01
 -1        90 5.30999E+01
 -1        91 4.23755E+01
 -1        92 4.23755E+01
 -1        93 5.52007E+01
 -1        94 5.52007E+01
 -1        95 7.87950E+01
 -1        96 7.87950E+01
 -1        97 7.87950E+01
 -1        98 7.87950E+01
 -1        99 7.76495E+01
 -1       100 7.76495E+01
 -1       101 7.57220E+01
 -1       102 7.57220E+01
 -1       103 7.57220E+01
 -1       104 7.57220E+01
 -1       105 4.94214E+01
 -1       106 4.94214E+01
 -1       107 3.69432E+01
 -1       108 3.69432E+01
 -1       109 3.69432E+01
 -1       110 3.69432E+01
 -1       111 3.52136E+01
 -1       112 3.52136E+01
 -1       113 1.98545E+01
 -1       114 1.98545E+01
 -1       115 2.87027E+01
 -1       116 2.87027E+01
 -1       117 3.97432E+01
 -1       118 3.97432E+01
 -1       119 3.97432E+01
 -1       120 3.97432E+01
 -1       121 3.68679E+01
 -1       122 3.68679E+01
 -1       123 7.53961E+00
 -1       124 7.53961E+00
 -1       125 7.53961E+00
 -1       126 7.53961E+00
 -3
    1PSTEP                        37          10           1          
  100CL  110 1.00000E-01         126                     1   10           1
 -4  DISP        4    1
 -5  D1          1    2    1    0
 -5  D2          1    2    2    0
 -5  D3          1    2    3    0
 -5  ALL         1    2    0    0    1ALL
 -1         1 0.00000E+00 0.00000E+00 0.00000E+00
 -1         2 0.00000E+00 0.00000E+00 0.00000E+00
 -1         3 5.97265E-04 0.00000E+00 4.43926E-05
 -1         4 7.21091E-04 0.00000E+00-6.67234E-04
 -1         5 0.00000E+00 0.00000E+00 0.00000E+00
 -1         6 0.00000E+00 0.00000E+00 0.00000E+00
 -1         7 5.97265E-04 0.00000E+00 4.43926E-05
 -1         8 7.21091E-04 0.00000E+00-6.67234E-04
 -1         9 1.89308E-03 0.00000E+00 9.90578E-05
 -1        10 1.90964E-03 0.00000E+00-1.12587E-03
 -1        11 1.89308E-03 0.00000E+00 9.90578E-05
 -1        12 1.90964E-03 0.00000E+00-1.12587E-03
 -1        13 3.50503E-03 0.00000E+00 1.41061E-04
 -1        14 3.47816E-03 0.00000E+00-1.34963E-03
 -1        15 3.50503E-03 0.00000E+00 1.41061E-04
 -1        16 3.47816E-03 0.00000E+00-1.34963E-03
 -1        17 5.25328E-03 0.00000E+00 1.79440E-04
 -1        18 5.17998E-03 0.00000E+00-1.37150E-03
 -1        19 5.25328E-03 0.00000E+00 1.79440E-04
 -1        20 5.17998E-03 0.00000E+00-1.37150E-03
 -1        21 6.94938E-03 0.00000E+00 2.24717E-04
 -1        22 6.84432E-03 0.00000E+00-1.21500E-03
 -1        23 6.94938E-03 0.00000E+00 2.24717E-04
 -1        24 6.84432E-03 0.00000E+00-1.21500E-03
 -1        25 8.39782E-03 0.00000E+00 2.77664E-04
 -1        26 8.28073E-03 0.00000E+00-9.24958E-04
 -1        27 8.39782E-03 0.00000E+00 2.77664E-04
 -1        28 8.28073E-03 0.00000E+00-9.24958E-04
 -1        29 9.51122E-03 0.00000E+00 3.33084E-04
 -1        30 9.39072E-03 0.00000E+00-5.58936E-04
 -1        31 9.51122E-03 0.00000E+00 3.33084E-04
 -1        32 9.39072E-03 0.00000E+00-5.58936E-04
 -1        33 1.02889E-02 0.00000E+00 3.86446E-04
 -1        34 1.01656E-02 0.00000E+00-1.33741E-04
 -1        35 1.02889E-02 0.00000E+00 3.86446E-04
 -1        36 1.01656E-02 0.00000E+00-1.33741E-04
 -1        37 1.05979E-02 0.00000E+00 4.37757E-04
 -1        38 1.04814E-02 0.00000E+00 3.22831E-04
 -1        39 1.05979E-02 0.00000E+00 4.37757E-04
 -1        40 1.04814E-02 0.00000E+00 3.22831E-04
 -1        41 1.03873E-02 0.00000E+00 4.83270E-04
 -1        42 1.03054E-02 0.00000E+00 6.99771E-04
 -1        43 1.03873E-02 0.00000E+00 4.83270E-04
 -1        44 1.03054E-02 0.00000E+00 6.99771E-04
 -1        45 9.85606E-03 0.00000E+00 5.21034E-04
 -1        46 9.81858E-03 0.00000E+00 8.87614E-04
 -1        47 9.85606E-03 0.00000E+00 5.21034E-04
 -1        48 9.81858E-03 0.00000E+00 8.87614E-04
 -1        49 9.34566E-03 0.00000E+00 5.56040E-04
 -1        50 9.33987E-03 0.00000E+00 8.92309E-04
 -1        51 9.34566E-03 0.00000E+00 5.56040E-04
 -1        52 9.33987E-03 0.00000E+00 8.92309E-04
 -1        53 9.04133E-03 0.00000E+00 5.93237E-04
 -1        54 9.03939E-03 0.00000E+00 8.18267E-04
 -1        55 9.04133E-03 0.00000E+00 5.93237E-04
 -1        56 9.03939E-03 0.00000E+00 8.18267E-04
 -1        57 8.92315E-03 0.00000E+00 6.31739E-04
 -1        58 8.91390E-03 0.00000E+00 7.66283E-04
 -1        59 8.92315E-03 0.00000E+00 6.31739E-04
 -1        60 8.91390E-03 0.00000E+00 7.66283E-04
 -1        61 8.86111E-03 0.00000E+00 6.66675E-04
 -1        62 8.84236E-03 0.00000E+00 7.70718E-04
 -1        63 8.86111E-03 0.00000E+00 6.66675E-04
 -1        64 8.84236E-03 0.00000E+00 7.70718E-04
 -1        65 8.78165E-03 0.00000E+00 6.97127E-04
 -1        66 8.75956E-03 0.00000E+00 8.15583E-04
 -1        67 8.78165E-03 0.00000E+00 6.97127E-04
 -1        68 8.75956E-03 0.00000E+00 8.15583E-04
 -1        69 8.65420E-03 0.00000E+00 7.26926E-04
 -1        70 8.63071E-03 0.00000E+00 8.72530E-04
 -1        71 8.65420E-03 0.00000E+00 7.26926E-04
 -1        72 8.63071E-03 0.00000E+00 8.72530E-04
 -1        73 8.49326E-03 0.00000E+00 7.52711E-04
 -1        74 8.47907E-03 0.00000E+00 9.17913E-04
 -1        75 8.49326E-03 0.00000E+00 7.52711E-04
 -1        76 8.47907E-03 0.00000E+00 9.17913E-04
 -1        77 8.31203E-03 0.00000E+00 7.75025E-04
 -1        78 8.30354E-03 0.00000E+00 9.48277E-04
 -1        79 8.31203E-03 0.00000E+00 7.75025E-04
 -1        80 8.30354E-03 0.00000E+00 9.48277E-04
 -1        81 8.12612E-03 0.00000E+00 8.05413E-04
 -1        82 8.11921E-03 0.00000E+00 9.65121E-04
 -1        83 8.12612E-03 0.00000E+00 8.05413E-04
 -1        84 8.11921E-03 0.00000E+00 9.65121E-04
 -1        85 0.00000E+00 0.00000E+00 0.00000E+00
 -1        86 8.08398E-04 0.00000E+00 7.69547E-04
 -1        87 0.00000E+00 0.00000E+00 0.00000E+00
 -1        88 8.08398E-04 0.00000E+00 7.69547E-04
 -1        89 2.02278E-03 0.00000E+00 1.32020E-03
 -1        90 2.02278E-03 0.00000E+00 1.32020E-03
 -1        91 3.60017E-03 0.00000E+00 1.62747E-03
 -1        92 3.60017E-03 0.00000E+00 1.62747E-03
 -1        93 5.31049E-03 0.00000E+00 1.73248E-03
 -1        94 5.31049E-03 0.00000E+00 1.73248E-03
 -1        95 6.97257E-03 0.00000E+00 1.66721E-03
 -1        96 6.97257E-03 0.00000E+00 1.66721E-03
 -1        97 8.39233E-03 0.00000E+00 1.48019E-03
 -1        98 8.39233E-03 0.00000E+00 1.48019E-03
 -1        99 9.48235E-03 0.00000E+00 1.22354E-03
 -1       100 9.48235E-03 0.00000E+00 1.22354E-03
 -1       101 1.02392E-02 0.00000E+00 9.05659E-04
 -1       102 1.02392E-02 0.00000E+00 9.05659E-04
 -1       103 1.05451E-02 0.00000E+00 5.50111E-04
 -1       104 1.05451E-02 0.00000E+00 5.50111E-04
 -1       105 1.03612E-02 0.00000E+00 2.62569E-04
 -1       106 1.03612E-02 0.00000E+00 2.62569E-04
 -1       107 9.87163E-03 0.00000E+00 1.52145E-04
 -1       108 9.87163E-03 0.00000E+00 1.52145E-04
 -1       109 9.38996E-03 0.00000E+00 2.20792E-04
 -1       110 9.38996E-03 0.00000E+00 2.20792E-04
 -1       111 9.09079E-03 0.00000E+00 3.69331E-04
 -1       112 9.09079E-03 0.00000E+00 3.69331E-04
 -1       113 8.96028E-03 0.00000E+00 4.95264E-04
 -1       114 8.96028E-03 0.00000E+00 4.95264E-04
 -1       115 8.88326E-03 0.00000E+00 5.59963E-04
 -1       116 8.88326E-03 0.00000E+00 5.59963E-04
 -1       117 8.79575E-03 0.00000E+00 5.79252E-04
 -1       118 8.79575E-03 0.00000E+00 5.79252E-04
 -1       119 8.66855E-03 0.00000E+00 5.80907E-04
 -1       120 8.66855E-03 0.00000E+00 5.80907E-04
 -1       121 8.50442E-03 0.00000E+00 5.82877E-04
 -1       122 8.50442E-03 0.00000E+00 5.82877E-04
 -1       123 8.32203E-03 0.00000E+00 5.94589E-04
 -1       124 8.32203E-03 0.00000E+00 5.94589E-04
 -1       125 8.13472E-03 0.00000E+00 6.12933E-04
 -1       126 8.13472E-03 0.00000E+00 6.12933E-04
 -3
    1PSTEP                        38          10           1          
  100CL  110 1.00000E-01         126                     1   10           1
 -4  STRESS      6    1
 -5  SXX         1    4    1    1
 -5  SYY         1    4    2    2
 -5  SZZ         1    4    3    3
 -5  SXY         1    4    1    2
 -5  SYZ         1    4    2    3
 -5  SZX         1    4    3    1
 -1         1-3.01908E+03-3.07592E+03-7.02813E+03-4.71962E-10 5.23054E-10 2.12271E+03
 -1         2 2.57417E+02 2.21231E+02 4.74414E+02 4.80491E-11 4.25004E-10 1.84134E+03
 -1         3-9.32872E+01 9.67811E+01 4.13193E+02 1.77742E-07-5.55192E-09 7.06982E+02
 -1         4-1.13562E+03-1.96063E+03-5.30426E+03 2.05439E-07-1.01940E-07 7.01247E+02
 -1         5-3.01908E+03-3.07592E+03-7.02813E+03-4.71962E-10 5.23054E-10 2.12271E+03
 -1         6 2.57417E+02 2.21231E+02 4.74414E+02 4.80500E-11 4.25004E-10 1.84134E+03
 -1         7-9.32872E+01 9.67811E+01 4.13193E+02 1.77742E-07-5.55192E-09 7.06982E+02
 -1         8-1.13562E+03-1.96063E+03-5.30426E+03 2.05439E-07-1.01940E-07 7.01247E+02
 -1         9-8.16328E+01 1.29667E+02 5.11875E+02 3.89029E-07-3.15513E-08 7.19382E+02
 -1        10-1.12077E+03-1.34285E+03-3.31608E+03 3.95890E-07-4.76562E-08 4.38562E+02
 -1        11-8.16328E+01 1.29667E+02 5.11875E+02 3.89029E-07-3.15513E-08 7.19382E+02
 -1        12-1.12077E+03-1.34285E+03-3.31608E+03 3.95890E-07-4.76562E-08 4.38562E+02
 -1        13-6.16492E+01 1.36804E+02 5.21187E+02 3.79719E-07-2.50422E-08 5.99926E+02
 -1        14-4.64859E+02-4.65382E+02-1.07814E+03 3.49662E-07 7.38643E-08 4.33447E+02
 -1        15-6.16492E+01 1.36804E+02 5.21187E+02 3.79719E-07-2.50422E-08 5.99926E+02
 -1        16-4.64859E+02-4.65382E+02-1.07814E+03 3.49661E-07 7.38643E-08 4.33447E+02
 -1        17-7.66626E+01 1.40135E+02 5.48266E+02 2.87813E-07 3.09093E-09 5.35078E+02
 -1        18-6.11335E+01 2.13995E+02 7.82249E+02 2.52358E-07 1.50012E-07 4.21202E+02
 -1        19-7.66626E+01 1.40135E+02 5.48266E+02 2.87813E-07 3.09089E-09 5.35078E+02
 -1        20-6.11335E+01 2.13995E+02 7.82249E+02 2.52359E-07 1.50012E-07 4.21202E+02
 -1        21-9.72303E+01 1.41494E+02 5.72202E+02 2.20710E-07 6.39788E-09 4.14514E+02
 -1        22 2.57869E+02 7.52964E+02 2.27516E+03 2.03115E-07 1.79967E-07 3.72775E+02
 -1        23-9.72303E+01 1.41494E+02 5.72202E+02 2.20711E-07 6.39781E-09 4.14514E+02
 -1        24 2.57869E+02 7.52964E+02 2.27516E+03 2.03114E-07 1.79967E-07 3.72775E+02
 -1        25-1.01125E+02 1.36340E+02 5.56032E+02 2.89786E-08-2.58168E-08 2.49692E+02
 -1        26 5.00425E+02 1.11653E+03 3.26114E+03 2.89015E-08 1.84261E-07 2.53473E+02
 -1        27-1.01125E+02 1.36340E+02 5.56032E+02 2.89787E-08-2.58167E-08 2.49692E+02
 -1        28 5.00425E+02 1.11653E+03 3.26114E+03 2.89022E-08 1.84261E-07 2.53473E+02
 -1        29-1.03312E+02 1.18708E+02 4.95800E+02-3.23877E-07-4.36661E-08 1.72919E+02
 -1        30 6.66176E+02 1.34870E+03 3.88190E+03-3.09994E-07 1.28544E-07 1.86443E+02
 -1        31-1.03312E+02 1.18708E+02 4.95800E+02-3.23878E-07-4.36662E-08 1.72919E+02
 -1        32 6.66176E+02 1.34870E+03 3.88190E+03-3.09994E-07 1.28544E-07 1.86443E+02
 -1        33-9.96250E+01 1.00219E+02 4.30863E+02-5.02949E-07-9.44878E-09 7.56121E+01
 -1        34 7.60508E+02 1.49420E+03 4.28439E+03-5.02003E-07 1.04054E-08 9.68995E+01
 -1        35-9.96250E+01 1.00219E+02 4.30863E+02-5.02949E-07-9.44871E-09 7.56121E+01
 -1        36 7.60508E+02 1.49420E+03 4.28439E+03-5.02004E-07 1.04054E-08 9.68995E+01
 -1        37-1.05732E+02 8.00694E+01 3.72652E+02-3.68309E-07 1.65489E-09-1.98034E+02
 -1        38 6.81355E+02 1.38973E+03 4.00975E+03-3.38222E-07-9.83725E-08-1.36388E+02
 -1        39-1.05732E+02 8.00694E+01 3.72652E+02-3.68307E-07 1.65476E-09-1.98034E+02
 -1        40 6.81355E+02 1.38973E+03 4.00975E+03-3.38220E-07-9.83725E-08-1.36388E+02
 -1        41-8.53423E+01 7.29763E+01 3.30294E+02-1.05452E-07-1.76294E-08-4.70207E+02
 -1        42 4.39641E+02 9.33234E+02 2.70224E+03-1.31223E-07-1.15829E-07-3.61503E+02
 -1        43-8.53423E+01 7.29763E+01 3.30294E+02-1.05452E-07-1.76294E-08-4.70207E+02
 -1        44 4.39641E+02 9.33234E+02 2.70224E+03-1.31226E-07-1.15829E-07-3.61503E+02
 -1        45-8.07166E+01 6.43563E+01 2.97533E+02-9.26438E-10-1.45080E-08-4.73144E+02
 -1        46 7.26343E+01 2.88048E+02 8.94991E+02-2.28412E-08-7.90786E-08-3.62545E+02
 -1        47-8.07166E+01 6.43563E+01 2.97533E+02-9.23929E-10-1.45079E-08-4.73144E+02
 -1        48 7.26343E+01 2.88048E+02 8.94991E+02-2.28404E-08-7.90785E-08-3.62545E+02
 -1        49-7.77022E+01 6.44173E+01 2.94382E+02 7.33015E-08 1.26004E-09-2.21889E+02
 -1        50-1.99585E+02-1.74332E+02-3.79629E+02 4.09308E-08-2.38514E-08-1.63764E+02
 -1        51-7.77022E+01 6.44173E+01 2.94382E+02 7.33006E-08 1.25999E-09-2.21889E+02
 -1        52-1.99585E+02-1.74332E+02-3.79629E+02 4.09299E-08-2.38514E-08-1.63764E+02
 -1        53-9.30975E+01 6.09288E+01 2.97132E+02 3.67501E-08 5.34857E-09 3.98535E+01
 -1        54-3.03416E+02-2.95160E+02-6.78678E+02 1.68756E-08 7.60728E-08 3.79394E+01
 -1        55-9.30975E+01 6.09288E+01 2.97132E+02 3.67500E-08 5.34867E-09 3.98535E+01
 -1        56-3.03416E+02-2.95160E+02-6.78678E+02 1.68773E-08 7.60728E-08 3.79394E+01
 -1        57-7.80351E+01 6.37690E+01 2.91115E+02-1.90878E-07 3.29510E-09 1.39390E+02
 -1        58-2.07393E+02-1.51218E+02-2.96146E+02-1.81419E-07 1.23352E-07 1.10873E+02
 -1        59-7.80351E+01 6.37690E+01 2.91115E+02-1.90878E-07 3.29515E-09 1.39390E+02
 -1        60-2.07393E+02-1.51218E+02-2.96146E+02-1.81420E-07 1.23352E-07 1.10873E+02
 -1        61-6.80366E+01 5.73125E+01 2.59575E+02-3.18310E-07 2.83839E-08 1.06337E+02
 -1        62-8.68165E+01 2.80400E+01 1.80738E+02-3.34008E-07 7.27299E-08 8.24416E+01
 -1        63-6.80366E+01 5.73125E+01 2.59575E+02-3.18310E-07 2.83838E-08 1.06337E+02
 -1        64-8.68165E+01 2.80400E+01 1.80738E+02-3.34009E-07 7.27300E-08 8.24416E+01
 -1        65-5.37749E+01 5.67368E+01 2.43290E+02-3.28219E-07 3.81087E-08 4.49637E+01
 -1        66-7.92397E-01 1.34257E+02 4.49289E+02-2.73691E-07-2.55514E-08 3.83817E+01
 -1        67-5.37749E+01 5.67368E+01 2.43290E+02-3.28218E-07 3.81089E-08 4.49637E+01
 -1        68-7.92397E-01 1.34257E+02 4.49289E+02-2.73693E-07-2.55514E-08 3.83817E+01
 -1        69-7.21138E+01 4.29242E+01 2.15476E+02-2.14580E-07 1.10129E-08 4.56487E+00
 -1        70-1.35705E+01 1.29666E+02 4.46697E+02-1.95758E-07-1.13386E-07 1.58651E+01
 -1        71-7.21138E+01 4.29242E+01 2.15476E+02-2.14580E-07 1.10127E-08 4.56487E+00
 -1        72-1.35705E+01 1.29666E+02 4.46697E+02-1.95758E-07-1.13385E-07 1.58651E+01
 -1        73-2.09658E+01 5.51738E+01 2.05077E+02-1.83750E-08-4.23310E-09-1.13690E+01
 -1        74 2.61860E+01 1.11817E+02 3.47068E+02-1.26529E-08-1.12406E-07 4.47904E+00
 -1        75-2.09658E+01 5.51738E+01 2.05077E+02-1.83741E-08-4.23291E-09-1.13690E+01
 -1        76 2.61860E+01 1.11817E+02 3.47068E+02-1.26544E-08-1.12405E-07 4.47904E+00
 -1        77 2.71649E+01 8.19589E+01 2.46287E+02 4.89601E-08 2.17307E-08-2.11132E+01
 -1        78 2.24383E+01 7.26538E+01 2.19958E+02 1.62905E-08-6.85042E-08-2.09114E+01
 -1        79 2.71649E+01 8.19589E+01 2.46287E+02 4.89606E-08 2.17308E-08-2.11132E+01
 -1        80 2.24383E+01 7.26538E+01 2.19958E+02 1.62904E-08-6.85045E-08-2.09114E+01
 -1        81 6.19322E+01 1.07496E+02 2.96763E+02 1.10577E-07 4.73137E-08-3.06544E+01
 -1        82 8.16269E+00 4.85765E+01 1.53920E+02 1.20958E-07-5.65154E-08-7.60636E+01
 -1        83 6.19322E+01 1.07496E+02 2.96763E+02 1.10579E-07 4.73135E-08-3.06544E+01
 -1        84 8.16269E+00 4.85765E+01 1.53920E+02 1.20958E-07-5.65153E-08-7.60636E+01
 -1        85 3.62679E+03 3.55438E+03 8.50662E+03 4.04516E-10 3.01227E-10 2.61225E+03
 -1        86 9.22301E+02 2.14737E+03 6.37799E+03 1.17150E-07 8.96062E-08 9.44173E+02
 -1        87 3.62679E+03 3.55438E+03 8.50662E+03 4.04510E-10 3.01226E-10 2.61225E+03
 -1        88 9.22301E+02 2.14737E+03 6.37799E+03 1.17150E-07 8.96062E-08 9.44173E+02
 -1        89 8.67615E+02 1.53990E+03 4.33710E+03 3.18105E-07 3.03839E-08 5.91181E+02
 -1        90 8.67615E+02 1.53990E+03 4.33710E+03 3.18105E-07 3.03841E-08 5.91181E+02
 -1        91 3.22317E+02 7.38765E+02 2.16361E+03 3.80256E-07-6.79807E-08 5.17132E+02
 -1        92 3.22317E+02 7.38765E+02 2.16361E+03 3.80256E-07-6.79808E-08 5.17132E+02
 -1        93-1.05621E+02 7.00465E+01 3.44443E+02 2.86922E-07-1.13010E-07 4.17982E+02
 -1        94-1.05621E+02 7.00465E+01 3.44443E+02 2.86924E-07-1.13010E-07 4.17982E+02
 -1        95-4.77944E+02-4.83373E+02-1.12720E+03 2.21163E-07-1.52574E-07 2.92683E+02
 -1        96-4.77944E+02-4.83373E+02-1.12720E+03 2.21163E-07-1.52573E-07 2.92683E+02
 -1        97-7.25552E+02-8.58805E+02-2.12306E+03 2.63621E-08-2.28664E-07 1.43066E+02
 -1        98-7.25552E+02-8.58805E+02-2.12306E+03 2.63608E-08-2.28664E-07 1.43066E+02
 -1        99-8.84748E+02-1.11696E+03-2.81505E+03-2.71203E-07-2.15877E-07 8.31247E+01
 -1       100-8.84748E+02-1.11696E+03-2.81505E+03-2.71201E-07-2.15877E-07 8.31247E+01
 -1       101-9.70056E+02-1.29841E+03-3.32289E+03-4.43113E-07-6.60537E-08 2.50876E+01
 -1       102-9.70056E+02-1.29841E+03-3.32289E+03-4.43113E-07-6.60539E-08 2.50876E+01
 -1       103-9.07579E+02-1.23870E+03-3.18666E+03-3.58499E-07 1.00442E-07-1.58838E+02
 -1       104-9.07579E+02-1.23870E+03-3.18666E+03-3.58498E-07 1.00442E-07-1.58838E+02
 -1       105-6.20116E+02-7.90567E+02-1.99815E+03-1.04778E-07 1.28089E-07-3.51866E+02
 -1       106-6.20116E+02-7.90567E+02-1.99815E+03-1.04777E-07 1.28089E-07-3.51866E+02
 -1       107-2.32108E+02-1.51526E+02-2.68697E+02 9.04920E-09 5.54784E-08-3.58059E+02
 -1       108-2.32108E+02-1.51526E+02-2.68697E+02 9.04687E-09 5.54784E-08-3.58059E+02
 -1       109 4.77326E+01 3.09474E+02 9.89514E+02 7.14219E-08-1.69918E-08-1.73136E+02
 -1       110 4.77326E+01 3.09474E+02 9.89514E+02 7.14234E-08-1.69918E-08-1.73136E+02
 -1       111 1.09860E+02 4.10134E+02 1.26398E+03 2.52580E-08-9.50259E-08 2.53090E+01
 -1       112 1.09860E+02 4.10134E+02 1.26398E+03 2.52589E-08-9.50260E-08 2.53090E+01
 -1       113 4.26944E+01 2.70091E+02 8.61038E+02-1.69396E-07-8.43974E-08 9.99014E+01
 -1       114 4.26944E+01 2.70091E+02 8.61038E+02-1.69396E-07-8.43974E-08 9.99014E+01
 -1       115-4.33014E+01 9.24549E+01 3.52353E+02-2.74734E-07 1.02250E-10 7.49804E+01
 -1       116-4.33014E+01 9.24549E+01 3.52353E+02-2.74734E-07 1.02219E-10 7.49804E+01
 -1       117-1.01485E+02-1.55429E+01 4.98031E+01-3.16180E-07 7.56978E-08 3.22220E+01
 -1       118-1.01485E+02-1.55429E+01 4.98031E+01-3.16180E-07 7.56978E-08 3.22220E+01
 -1       119-1.42801E+02-5.58982E+01-4.34699E+01-2.19757E-07 1.19850E-07 9.35610E-01
 -1       120-1.42801E+02-5.58982E+01-4.34699E+01-2.19758E-07 1.19850E-07 9.35610E-01
 -1       121-8.39438E+01-1.71882E+01 2.66841E+01-2.80008E-08 1.06994E-07-1.07449E+01
 -1       122-8.39438E+01-1.71882E+01 2.66841E+01-2.80019E-08 1.06994E-07-1.07449E+01
 -1       123-3.31314E+01 2.62869E+01 1.20837E+02 5.59038E-08 9.69611E-08-1.38712E+01
 -1       124-3.31314E+01 2.62869E+01 1.20837E+02 5.59043E-08 9.69610E-08-1.38712E+01
 -1       125-2.37977E+00 4.83317E+01 1.63598E+02 1.29260E-07 1.12407E-07 1.55975E+01
 -1       126-2.37977E+00 4.83317E+01 1.63598E+02 1.29256E-07 1.12407E-07 1.55975E+01
 -3
    1PSTEP                        39          10           1          
  100CL  110 1.00000E-01         126                     1   10           1
 -4  TOSTRAIN    6    1
 -5  EXX         1    4    1    1
 -5  EYY         1    4    2    2
 -5  EZZ         1    4    3    3
 -5  EXY         1    4    1    2
 -5  EYZ         1    4    2    3
 -5  EZX         1    4    3    1
 -1         1-1.74344E-05-1.82099E-25-1.31688E-02-1.10080E-15 2.30352E-18 7.21077E-03
 -1         2-1.81892E-05-1.04879E-25 9.41346E-04 2.62042E-17 3.13818E-19 5.97250E-03
 -1         3-7.77319E-04 4.97812E-25 1.18111E-03 5.77996E-13-1.00430E-14 2.26601E-03
 -1         4 2.56753E-03 9.34093E-25-1.10129E-02 6.74950E-13-3.27298E-13 2.53559E-03
 -1         5-1.74344E-05-1.82099E-25-1.31688E-02-1.10080E-15 2.30352E-18 7.21077E-03
 -1         6-1.81892E-05-1.04879E-25 9.41346E-04 2.62071E-17 3.14234E-19 5.97250E-03
 -1         7-7.77319E-04 4.97812E-25 1.18111E-03 5.77996E-13-1.00430E-14 2.26601E-03
 -1         8 2.56753E-03 9.34093E-25-1.10129E-02 6.74950E-13-3.27298E-13 2.53559E-03
 -1         9-8.36115E-04 3.13925E-24 1.38926E-03 1.26737E-12-7.17622E-14 2.28010E-03
 -1        10 6.25502E-04 3.27762E-24-6.41624E-03 1.29319E-12-1.24939E-13 1.62412E-03
 -1        11-8.36115E-04 3.13925E-24 1.38926E-03 1.26737E-12-7.17621E-14 2.28010E-03
 -1        12 6.25502E-04 3.27762E-24-6.41624E-03 1.29319E-12-1.24940E-13 1.62412E-03
 -1        13-7.77233E-04 3.03542E-24 1.36827E-03 1.23672E-12-4.46469E-14 1.88298E-03
 -1        14-9.40511E-05 2.60702E-24-1.91690E-03 1.12920E-12 2.74452E-13 1.47255E-03
 -1        15-7.77233E-04 3.03542E-24 1.36827E-03 1.23672E-12-4.46469E-14 1.88298E-03
 -1        16-9.40511E-05 2.60701E-24-1.91690E-03 1.12920E-12 2.74452E-13 1.47255E-03
 -1        17-8.22847E-04 1.66737E-24 1.42985E-03 9.34965E-13 3.90758E-14 1.66632E-03
 -1        18-9.84291E-04 1.70021E-24 1.91495E-03 8.03717E-13 5.11606E-13 1.27573E-03
 -1        19-8.22847E-04 1.66737E-24 1.42985E-03 9.34965E-13 3.90756E-14 1.66632E-03
 -1        20-9.84291E-04 1.70023E-24 1.91495E-03 8.03721E-13 5.11606E-13 1.27573E-03
 -1        21-8.67136E-04 8.61214E-25 1.47896E-03 7.16676E-13 4.15860E-14 1.27726E-03
 -1        22-1.68561E-03 1.37372E-24 4.95833E-03 6.41743E-13 5.99986E-13 1.00966E-03
 -1        23-8.67136E-04 8.61219E-25 1.47896E-03 7.16678E-13 4.15859E-14 1.27726E-03
 -1        24-1.68561E-03 1.37372E-24 4.95833E-03 6.41741E-13 5.99986E-13 1.00966E-03
 -1        25-8.27886E-04-4.03546E-25 1.41539E-03 9.63312E-14-8.13947E-14 7.56105E-04
 -1        26-2.05232E-03 3.01741E-25 6.90928E-03 7.87374E-14 5.95555E-13 5.97035E-04
 -1        27-8.27886E-04-4.03547E-25 1.41539E-03 9.63315E-14-8.13944E-14 7.56105E-04
 -1        28-2.05232E-03 3.01740E-25 6.90928E-03 7.87396E-14 5.95555E-13 5.97035E-04
 -1        29-7.59834E-04 1.87705E-24 1.26889E-03-1.05030E-12-1.60425E-13 5.24837E-04
 -1        30-2.25192E-03 1.98646E-24 8.12277E-03-1.01429E-12 3.95346E-13 4.10788E-04
 -1        31-7.59834E-04 1.87706E-24 1.26889E-03-1.05030E-12-1.60425E-13 5.24837E-04
 -1        32-2.25192E-03 1.98645E-24 8.12277E-03-1.01429E-12 3.95346E-13 4.10788E-04
 -1        33-6.84834E-04 5.26516E-24 1.11220E-03-1.63494E-12-4.74679E-14 2.26696E-04
 -1        34-2.41476E-03 5.19793E-24 8.92135E-03-1.63022E-12 1.66960E-14 1.92080E-04
 -1        35-6.84834E-04 5.26516E-24 1.11220E-03-1.63494E-12-4.74676E-14 2.26696E-04
 -1        36-2.41476E-03 5.19794E-24 8.92135E-03-1.63022E-12 1.66960E-14 1.92080E-04
 -1        37-6.37291E-04 2.68768E-24 9.78037E-04-1.19750E-12 2.82776E-15-6.45904E-04
 -1        38-2.32872E-03 2.44838E-24 8.37845E-03-1.09779E-12-3.18496E-13-4.61603E-04
 -1        39-6.37291E-04 2.68765E-24 9.78037E-04-1.19749E-12 2.82734E-15-6.45904E-04
 -1        40-2.32872E-03 2.44836E-24 8.37845E-03-1.09778E-12-3.18496E-13-4.61603E-04
 -1        41-5.50503E-04 4.68173E-26 8.63488E-04-3.43268E-13-5.56572E-14-1.51901E-03
 -1        42-1.63065E-03 5.10440E-25 5.68995E-03-4.28732E-13-3.71653E-13-1.13123E-03
 -1        43-5.50503E-04 4.68154E-26 8.63488E-04-3.43267E-13-5.56572E-14-1.51901E-03
 -1        44-1.63065E-03 5.10455E-25 5.68995E-03-4.28740E-13-3.71653E-13-1.13123E-03
 -1        45-5.03639E-04-3.95226E-26 7.81774E-04-3.50586E-15-4.70763E-14-1.52544E-03
 -1        46-7.22787E-04 9.13053E-26 1.97502E-03-7.66909E-14-2.55767E-13-1.15092E-03
 -1        47-5.03639E-04-3.95231E-26 7.81774E-04-3.49770E-15-4.70761E-14-1.52544E-03
 -1        48-7.22787E-04 9.13019E-26 1.97502E-03-7.66885E-14-2.55766E-13-1.15092E-03
 -1        49-4.78446E-04 1.01393E-25 7.57335E-04 2.38338E-13 2.50504E-15-7.11579E-04
 -1        50-9.34969E-05 1.34886E-26-6.61207E-04 1.32502E-13-7.84536E-14-5.35098E-04
 -1        51-4.78446E-04 1.01391E-25 7.57335E-04 2.38334E-13 2.50490E-15-7.11579E-04
 -1        52-9.34969E-05 1.34868E-26-6.61207E-04 1.32499E-13-7.84534E-14-5.35098E-04
 -1        53-5.03924E-04-8.88867E-26 7.67563E-04 1.19554E-13 1.68240E-14 1.34925E-04
 -1        54-2.88726E-05 2.15439E-26-1.24916E-03 5.59575E-14 2.47450E-13 1.17714E-04
 -1        55-5.03924E-04-8.88848E-26 7.67563E-04 1.19553E-13 1.68244E-14 1.34925E-04
 -1        56-2.88726E-05 2.15425E-26-1.24916E-03 5.59630E-14 2.47450E-13 1.17714E-04
 -1        57-4.60066E-04 6.12452E-25 7.36251E-04-6.20537E-13 1.24100E-14 4.55418E-04
 -1        58-1.81551E-04 8.52579E-25-4.73289E-04-5.89110E-13 4.02809E-13 3.59830E-04
 -1        59-4.60066E-04 6.12450E-25 7.36251E-04-6.20535E-13 1.24101E-14 4.55418E-04
 -1        60-1.81551E-04 8.52588E-25-4.73289E-04-5.89115E-13 4.02809E-13 3.59830E-04
 -1        61-4.06695E-04 2.12700E-24 6.55072E-04-1.03467E-12 9.43702E-14 3.47232E-04
 -1        62-3.72710E-04 2.40262E-24 4.94354E-04-1.08549E-12 2.38525E-13 2.69535E-04
 -1        63-4.06695E-04 2.12701E-24 6.55072E-04-1.03467E-12 9.43697E-14 3.47232E-04
 -1        64-3.72710E-04 2.40263E-24 4.94354E-04-1.08549E-12 2.38526E-13 2.69535E-04
 -1        65-3.59009E-04 2.27469E-24 6.04903E-04-1.06670E-12 1.26283E-13 1.48175E-04
 -1        66-4.38844E-04 1.53190E-24 1.02095E-03-8.89794E-13-8.08322E-14 1.27921E-04
 -1        67-3.59009E-04 2.27469E-24 6.04903E-04-1.06670E-12 1.26283E-13 1.48175E-04
 -1        68-4.38844E-04 1.53192E-24 1.02095E-03-8.89802E-13-8.08321E-14 1.27921E-04
 -1        69-3.74152E-04 8.37128E-25 5.60159E-04-6.97467E-13 3.77948E-14 1.75270E-05
 -1        70-4.65561E-04 9.43551E-25 1.02773E-03-6.37350E-13-3.66185E-13 5.57284E-05
 -1        71-3.74152E-04 8.37128E-25 5.60159E-04-6.97467E-13 3.77944E-14 1.75270E-05
 -1        72-4.65561E-04 9.43550E-25 1.02773E-03-6.37350E-13-3.66185E-13 5.57284E-05
 -1        73-2.47827E-04-1.11893E-25 4.86952E-04-5.97661E-14-1.35504E-14-3.44366E-05
 -1        74-2.78326E-04 1.64914E-25 7.63105E-04-4.23107E-14-3.64816E-13 1.79269E-05
 -1        75-2.47827E-04-1.11894E-25 4.86952E-04-5.97635E-14-1.35498E-14-3.44366E-05
 -1        76-2.78326E-04 1.64914E-25 7.63105E-04-4.23155E-14-3.64816E-13 1.79269E-05
 -1        77-1.78607E-04 1.82197E-26 5.33886E-04 1.59379E-13 7.00102E-14-6.59796E-05
 -1        78-1.63712E-04 4.88797E-26 4.78653E-04 5.21427E-14-2.22681E-13-6.56598E-05
 -1        79-1.78607E-04 1.82207E-26 5.33886E-04 1.59380E-13 7.00106E-14-6.59796E-05
 -1        80-1.63712E-04 4.88794E-26 4.78653E-04 5.21426E-14-2.22682E-13-6.56598E-05
 -1        81-1.48821E-04 2.63417E-25 6.14843E-04 3.59913E-13 1.52378E-13-9.67407E-05
 -1        82-1.33182E-04 3.00143E-25 3.43712E-04 3.92444E-13-1.84839E-13-2.45447E-04
 -1        83-1.48821E-04 2.63424E-25 6.14843E-04 3.59918E-13 1.52378E-13-9.67407E-05
 -1        84-1.33182E-04 3.00142E-25 3.43712E-04 3.92444E-13-1.84839E-13-2.45447E-04
 -1        85-1.89441E-05-6.71235E-26 1.56207E-02 9.37142E-16-1.75298E-18 8.08381E-03
 -1        86-4.12217E-03 2.92039E-25 1.34903E-02 3.74376E-13 2.91405E-13 2.72382E-03
 -1        87-1.89441E-05-6.71235E-26 1.56207E-02 9.37121E-16-1.75608E-18 8.08381E-03
 -1        88-4.12217E-03 2.92039E-25 1.34903E-02 3.74376E-13 2.91405E-13 2.72382E-03
 -1        89-2.29773E-03 2.03192E-24 9.00965E-03 1.02950E-12 1.22283E-13 1.60640E-03
 -1        90-2.29773E-03 2.03192E-24 9.00965E-03 1.02950E-12 1.22284E-13 1.60640E-03
 -1        91-1.46041E-03 3.12278E-24 4.67327E-03 1.24220E-12-1.83073E-13 1.48180E-03
 -1        92-1.46041E-03 3.12277E-24 4.67327E-03 1.24219E-12-1.83073E-13 1.48180E-03
 -1        93-6.61403E-04 1.94428E-24 9.67336E-04 9.44819E-13-3.37714E-13 1.30605E-03
 -1        94-6.61403E-04 1.94429E-24 9.67336E-04 9.44823E-13-3.37714E-13 1.30605E-03
 -1        95-4.86578E-05 1.36006E-24-2.04230E-03 7.34539E-13-4.76245E-13 1.01344E-03
 -1        96-4.86578E-05 1.36005E-24-2.04230E-03 7.34537E-13-4.76245E-13 1.01344E-03
 -1        97 3.96553E-04 7.59704E-25-4.10880E-03 1.04495E-13-7.45199E-13 5.78333E-04
 -1        98 3.96553E-04 7.59713E-25-4.10880E-03 1.04490E-13-7.45201E-13 5.78333E-04
 -1        99 7.32250E-04 2.20101E-24-5.55639E-03-8.69791E-13-7.22862E-13 3.86071E-04
 -1       100 7.32250E-04 2.20099E-24-5.55639E-03-8.69786E-13-7.22860E-13 3.86071E-04
 -1       101 1.04509E-03 4.07734E-24-6.64981E-03-1.44033E-12-2.31606E-13 1.61700E-04
 -1       102 1.04509E-03 4.07734E-24-6.64981E-03-1.44033E-12-2.31606E-13 1.61700E-04
 -1       103 1.05414E-03 2.72796E-24-6.40174E-03-1.16740E-12 3.26844E-13-5.05335E-04
 -1       104 1.05414E-03 2.72795E-24-6.40174E-03-1.16739E-12 3.26844E-13-5.05335E-04
 -1       105 5.29648E-04 3.61718E-25-3.94500E-03-3.38136E-13 4.20156E-13-1.17068E-03
 -1       106 5.29648E-04 3.61713E-25-3.94500E-03-3.38130E-13 4.20156E-13-1.17068E-03
 -1       107-2.84492E-04 5.09355E-27-3.69337E-04 3.11503E-14 1.80238E-13-1.16734E-03
 -1       108-2.84492E-04 5.09500E-27-3.69337E-04 3.11428E-14 1.80238E-13-1.16734E-03
 -1       109-8.63396E-04 8.66406E-26 2.20638E-03 2.31709E-13-5.66154E-14-5.40951E-04
 -1       110-8.63396E-04 8.66439E-26 2.20638E-03 2.31714E-13-5.66155E-14-5.40951E-04
 -1       111-9.78975E-04 8.75133E-26 2.75875E-03 8.07505E-14-3.08117E-13 9.88952E-05
 -1       112-9.78975E-04 8.75123E-26 2.75875E-03 8.07536E-14-3.08118E-13 9.88952E-05
 -1       113-7.38581E-04 6.29775E-25 1.91042E-03-5.51198E-13-2.72080E-13 3.30492E-04
 -1       114-7.38581E-04 6.29770E-25 1.91042E-03-5.51196E-13-2.72080E-13 3.30492E-04
 -1       115-4.40680E-04 1.54495E-24 8.41641E-04-8.93108E-13 2.25135E-15 2.45742E-04
 -1       116-4.40680E-04 1.54494E-24 8.41641E-04-8.93105E-13 2.25124E-15 2.45742E-04
 -1       117-2.79175E-04 2.20060E-24 2.11825E-04-1.02738E-12 2.48398E-13 1.05734E-04
 -1       118-2.79175E-04 2.20060E-24 2.11825E-04-1.02738E-12 2.48398E-13 1.05734E-04
 -1       119-2.82744E-04 1.19986E-24 4.05316E-05-7.13357E-13 3.91622E-13 3.99610E-06
 -1       120-2.82744E-04 1.19987E-24 4.05316E-05-7.13361E-13 3.91622E-13 3.99610E-06
 -1       121-2.17328E-04 1.37149E-25 1.42838E-04-8.98160E-14 3.48000E-13-3.36509E-05
 -1       122-2.17328E-04 1.37149E-25 1.42838E-04-8.98197E-14 3.48000E-13-3.36509E-05
 -1       123-1.93502E-04 2.22423E-25 3.07420E-04 1.82876E-13 3.14347E-13-4.32309E-05
 -1       124-1.93502E-04 2.22426E-25 3.07420E-04 1.82877E-13 3.14347E-13-4.32309E-05
 -1       125-1.64461E-04 5.83715E-25 3.73933E-04 4.21485E-13 3.63524E-13 5.27152E-05
 -1       126-1.64461E-04 5.83696E-25 3.73933E-04 4.21471E-13 3.63524E-13 5.27152E-05
 -3
    1PSTEP                        40          10           1          
  100CL  110 1.00000E-01         126                     1   10           1
 -4  ERROR       1    1
 -5  STR(%)      1    1    0    0
 -1         1 6.74952E+01
 -1         2 6.74952E+01
 -1         3 6.74952E+01
 -1         4 6.74952E+01
 -1         5 6.74952E+01
 -1         6 6.74952E+01
 -1         7 6.74952E+01
 -1         8 6.74952E+01
 -1         9 6.60458E+01
 -1        10 6.60458E+01
 -1        11 6.60458E+01
 -1        12 6.60458E+01
 -1        13 5.92500E+01
 -1        14 5.92500E+01
 -1        15 5.92500E+01
 -1        16 5.92500E+01
 -1        17 6.71565E+01
 -1        18 4.44340E+01
 -1        19 6.71565E+01
 -1        20 4.44340E+01
 -1        21 7.85702E+01
 -1        22 4.45115E+01
 -1        23 7.85702E+01
 -1        24 4.45115E+01
 -1        25 8.07683E+01
 -1        26 4.91714E+01
 -1        27 8.07683E+01
 -1        28 4.91714E+01
 -1        29 8.07683E+01
 -1        30 5.23675E+01
 -1        31 8.07683E+01
 -1        32 5.23675E+01
 -1        33 7.49605E+01
 -1        34 5.24497E+01
 -1        35 7.49605E+01
 -1        36 5.24497E+01
 -1        37 7.02951E+01
 -1        38 5.24726E+01
 -1        39 7.02951E+01
 -1        40 5.24726E+01
 -1        41 7.02951E+01
 -1        42 5.24726E+01
 -1        43 7.02951E+01
 -1        44 5.24726E+01
 -1        45 4.05808E+01
 -1        46 4.05808E+01
 -1        47 4.05808E+01
 -1        48 4.05808E+01
 -1        49 7.93558E+01
 -1        50 7.93558E+01
 -1        51 7.93558E+01
 -1        52 7.93558E+01
 -1        53 7.93558E+01
 -1        54 7.93558E+01
 -1        55 7.93558E+01
 -1        56 7.93558E+01
 -1        57 7.04961E+01
 -1        58 7.04961E+01
 -1        59 7.04961E+01
 -1        60 7.04961E+01
 -1        61 5.17156E+01
 -1        62 5.17156E+01
 -1        63 5.17156E+01
 -1        64 5.17156E+01
 -1        65 6.84766E+01
 -1        66 2.35747E+01
 -1        67 6.84766E+01
 -1        68 2.35747E+01
 -1        69 6.84766E+01
 -1        70 2.47843E+01
 -1        71 6.84766E+01
 -1        72 2.47843E+01
 -1        73 6.45815E+01
 -1        74 2.47843E+01
 -1        75 6.45815E+01
 -1        76 2.47843E+01
 -1        77 2.37933E+01
 -1        78 2.08285E+01
 -1        79 2.37933E+01
 -1        80 2.08285E+01
 -1        81 2.08285E+01
 -1        82 2.08285E+01
 -1        83 2.08285E+01
 -1        84 2.08285E+01
 -1        85 6.01439E+01
 -1        86 6.01439E+01
 -1        87 6.01439E+01
 -1        88 6.01439E+01
 -1        89 5.05448E+01
 -1        90 5.05448E+01
 -1        91 4.23935E+01
 -1        92 4.23935E+01
 -1        93 6.71565E+01
 -1        94 6.71565E+01
 -1        95 7.85702E+01
 -1        96 7.85702E+01
 -1        97 8.07683E+01
 -1        98 8.07683E+01
 -1        99 8.07683E+01
 -1       100 8.07683E+01
 -1       101 7.49605E+01
 -1       102 7.49605E+01
 -1       103 7.02951E+01
 -1       104 7.02951E+01
 -1       105 7.02951E+01
 -1       106 7.02951E+01
 -1       107 4.02337E+01
 -1       108 4.02337E+01
 -1       109 4.31220E+01
 -1       110 4.31220E+01
 -1       111 4.31220E+01
 -1       112 4.31220E+01
 -1       113 3.85756E+01
 -1       114 3.85756E+01
 -1       115 2.63365E+01
 -1       116 2.63365E+01
 -1       117 6.84766E+01
 -1       118 6.84766E+01
 -1       119 6.84766E+01
 -1       120 6.84766E+01
 -1       121 6.45815E+01
 -1       122 6.45815E+01
 -1       123 2.37933E+01
 -1       124 2.37933E+01
 -1       125 1.69329E+01
 -1       126 1.69329E+01
 -3
    1PSTEP                        41          11           1          
  100CL  111 1.10000E-01         126                     1   11           1
 -4  DISP        4    1
 -5  D1          1    2    1    0
 -5  D2          1    2    2    0
 -5  D3          1    2    3    0
 -5  ALL         1    2    0    0    1ALL
 -1         1 0.00000E+00 0.00000E+00 0.00000E+00
 -1         2 0.00000E+00 0.00000E+00 0.00000E+00
 -1         3 6.16402E-04 0.00000E+00 7.28682E-05
 -1         4 7.73548E-04 0.00000E+00-6.88397E-04
 -1         5 0.00000E+00 0.00000E+00 0.00000E+00
 -1         6 0.00000E+00 0.00000E+00 0.00000E+00
 -1         7 6.16402E-04 0.00000E+00 7.28682E-05
 -1         8 7.73548E-04 0.00000E+00-6.88397E-04
 -1         9 1.98078E-03 0.00000E+00 1.50517E-04
 -1        10 2.02358E-03 0.00000E+00-1.16076E-03
 -1        11 1.98078E-03 0.00000E+00 1.50517E-04
 -1        12 2.02358E-03 0.00000E+00-1.16076E-03
 -1        13 3.70171E-03 0.00000E+00 2.16947E-04
 -1        14 3.69775E-03 0.00000E+00-1.39298E-03
 -1        15 3.70171E-03 0.00000E+00 2.16947E-04
 -1        16 3.69775E-03 0.00000E+00-1.39298E-03
 -1        17 5.58740E-03 0.00000E+00 2.69486E-04
 -1        18 5.54426E-03 0.00000E+00-1.43867E-03
 -1        19 5.58740E-03 0.00000E+00 2.69486E-04
 -1        20 5.54426E-03 0.00000E+00-1.43867E-03
 -1        21 7.44315E-03 0.00000E+00 3.14894E-04
 -1        22 7.36970E-03 0.00000E+00-1.31545E-03
 -1        23 7.44315E-03 0.00000E+00 3.14894E-04
 -1        24 7.36970E-03 0.00000E+00-1.31545E-03
 -1        25 9.11078E-03 0.00000E+00 3.61044E-04
 -1        26 9.02398E-03 0.00000E+00-1.05228E-03
 -1        27 9.11078E-03 0.00000E+00 3.61044E-04
 -1        28 9.02398E-03 0.00000E+00-1.05228E-03
 -1        29 1.04523E-02 0.00000E+00 4.07676E-04
 -1        30 1.03629E-02 0.00000E+00-6.99720E-04
 -1        31 1.04523E-02 0.00000E+00 4.07676E-04
 -1        32 1.03629E-02 0.00000E+00-6.99720E-04
 -1        33 1.14284E-02 0.00000E+00 4.50674E-04
 -1        34 1.13434E-02 0.00000E+00-3.07666E-04
 -1        35 1.14284E-02 0.00000E+00 4.50674E-04
 -1        36 1.13434E-02 0.00000E+00-3.07666E-04
 -1        37 1.20439E-02 0.00000E+00 4.90820E-04
 -1        38 1.19565E-02 0.00000E+00 1.21624E-04
 -1        39 1.20439E-02 0.00000E+00 4.90820E-04
 -1        40 1.19565E-02 0.00000E+00 1.21624E-04
 -1        41 1.21785E-02 0.00000E+00 5.31768E-04
 -1        42 1.21020E-02 0.00000E+00 5.65822E-04
 -1        43 1.21785E-02 0.00000E+00 5.31768E-04
 -1        44 1.21020E-02 0.00000E+00 5.65822E-04
 -1        45 1.18125E-02 0.00000E+00 5.71654E-04
 -1        46 1.17663E-02 0.00000E+00 9.14875E-04
 -1        47 1.18125E-02 0.00000E+00 5.71654E-04
 -1        48 1.17663E-02 0.00000E+00 9.14875E-04
 -1        49 1.11714E-02 0.00000E+00 6.09423E-04
 -1        50 1.11700E-02 0.00000E+00 1.06469E-03
 -1        51 1.11714E-02 0.00000E+00 6.09423E-04
 -1        52 1.11700E-02 0.00000E+00 1.06469E-03
 -1        53 1.06024E-02 0.00000E+00 6.46914E-04
 -1        54 1.06306E-02 0.00000E+00 1.03212E-03
 -1        55 1.06024E-02 0.00000E+00 6.46914E-04
 -1        56 1.06306E-02 0.00000E+00 1.03212E-03
 -1        57 1.02792E-02 0.00000E+00 6.82521E-04
 -1        58 1.03145E-02 0.00000E+00 9.33123E-04
 -1        59 1.02792E-02 0.00000E+00 6.82521E-04
 -1        60 1.03145E-02 0.00000E+00 9.33123E-04
 -1        61 1.01572E-02 0.00000E+00 7.15562E-04
 -1        62 1.01768E-02 0.00000E+00 8.72160E-04
 -1        63 1.01572E-02 0.00000E+00 7.15562E-04
 -1        64 1.01768E-02 0.00000E+00 8.72160E-04
 -1        65 1.00828E-02 0.00000E+00 7.47012E-04
 -1        66 1.00912E-02 0.00000E+00 8.74909E-04
 -1        67 1.00828E-02 0.00000E+00 7.47012E-04
 -1        68 1.00912E-02 0.00000E+00 8.74909E-04
 -1        69 9.97844E-03 0.00000E+00 7.73861E-04
 -1        70 9.98533E-03 0.00000E+00 9.12472E-04
 -1        71 9.97844E-03 0.00000E+00 7.73861E-04
 -1        72 9.98533E-03 0.00000E+00 9.12472E-04
 -1        73 9.83433E-03 0.00000E+00 7.98503E-04
 -1        74 9.84231E-03 0.00000E+00 9.62463E-04
 -1        75 9.83433E-03 0.00000E+00 7.98503E-04
 -1        76 9.84231E-03 0.00000E+00 9.62463E-04
 -1        77 9.65075E-03 0.00000E+00 8.24991E-04
 -1        78 9.65604E-03 0.00000E+00 1.00896E-03
 -1        79 9.65075E-03 0.00000E+00 8.24991E-04
 -1        80 9.65604E-03 0.00000E+00 1.00896E-03
 -1        81 9.45276E-03 0.00000E+00 8.48922E-04
 -1        82 9.46021E-03 0.00000E+00 1.02689E-03
 -1        83 9.45276E-03 0.00000E+00 8.48922E-04
 -1        84 9.46021E-03 0.00000E+00 1.02689E-03
 -1        85 0.00000E+00 0.00000E+00 0.00000E+00
 -1        86 8.53644E-04 0.00000E+00 8.38312E-04
 -1        87 0.00000E+00 0.00000E+00 0.00000E+00
 -1        88 8.53644E-04 0.00000E+00 8.38312E-04
 -1        89 2.12925E-03 0.00000E+00 1.45700E-03
 -1        90 2.12925E-03 0.00000E+00 1.45700E-03
 -1        91 3.81613E-03 0.00000E+00 1.82009E-03
 -1        92 3.81613E-03 0.00000E+00 1.82009E-03
 -1        93 5.65879E-03 0.00000E+00 1.97321E-03
 -1        94 5.65879E-03 0.00000E+00 1.97321E-03
 -1        95 7.47447E-03 0.00000E+00 1.94442E-03
 -1        96 7.47447E-03 0.00000E+00 1.94442E-03
 -1        97 9.11022E-03 0.00000E+00 1.77379E-03
 -1        98 9.11022E-03 0.00000E+00 1.77379E-03
 -1        99 1.04229E-02 0.00000E+00 1.51367E-03
 -1       100 1.04229E-02 0.00000E+00 1.51367E-03
 -1       101 1.13802E-02 0.00000E+00 1.20789E-03
 -1       102 1.13802E-02 0.00000E+00 1.20789E-03
 -1       103 1.19797E-02 0.00000E+00 8.59451E-04
 -1       104 1.19797E-02 0.00000E+00 8.59451E-04
 -1       105 1.21213E-02 0.00000E+00 4.96493E-04
 -1       106 1.21213E-02 0.00000E+00 4.96493E-04
 -1       107 1.17868E-02 0.00000E+00 2.27102E-04
 -1       108 1.17868E-02 0.00000E+00 2.27102E-04
 -1       109 1.11920E-02 0.00000E+00 1.52629E-04
 -1       110 1.11920E-02 0.00000E+00 1.52629E-04
 -1       111 1.06476E-02 0.00000E+00 2.58295E-04
 -1       112 1.06476E-02 0.00000E+00 2.58295E-04
 -1       113 1.03230E-02 0.00000E+00 4.29041E-04
 -1       114 1.03230E-02 0.00000E+00 4.29041E-04
 -1       115 1.01823E-02 0.00000E+00 5.57736E-04
 -1       116 1.01823E-02 0.00000E+00 5.57736E-04
 -1       117 1.00951E-02 0.00000E+00 6.14599E-04
 -1       118 1.00951E-02 0.00000E+00 6.14599E-04
 -1       119 9.98053E-03 0.00000E+00 6.28501E-04
 -1       120 9.98053E-03 0.00000E+00 6.28501E-04
 -1       121 9.83529E-03 0.00000E+00 6.30863E-04
 -1       122 9.83529E-03 0.00000E+00 6.30863E-04
 -1       123 9.65424E-03 0.00000E+00 6.37337E-04
 -1       124 9.65424E-03 0.00000E+00 6.37337E-04
 -1       125 9.45098E-03 0.00000E+00 6.45696E-04
 -1       126 9.45098E-03 0.00000E+00 6.45696E-04
 -3
    1PSTEP                        42          11           1          
  100CL  111 1.10000E-01         126                     1   11           1
 -4  STRESS      6    1
 -5  SXX         1    4    1    1
 -5  SYY         1    4    2    2
 -5  SZZ         1    4    3    3
 -5  SXY         1    4    1    2
 -5  SYZ         1    4    2    3
 -5  SZX         1    4    3    1
 -1         1-3.10641E+03-3.17126E+03-7.24451E+03 1.12802E-10-3.22160E-10 2.27556E+03
 -1         2 3.91079E+02 3.53554E+02 7.79060E+02-3.98595E-11-2.62777E-10 1.90431E+03
 -1         3 8.17412E+01 2.39414E+02 7.16030E+02-1.03638E-07-3.31751E-09 7.06032E+02
 -1         4-8.37242E+02-1.87606E+03-5.32100E+03-1.28202E-07-2.28914E-08 7.20247E+02
 -1         5-3.10641E+03-3.17126E+03-7.24451E+03 1.12802E-10-3.22160E-10 2.27556E+03
 -1         6 3.91079E+02 3.53554E+02 7.79060E+02-3.98586E-11-2.62777E-10 1.90431E+03
 -1         7 8.17412E+01 2.39414E+02 7.16030E+02-1.03638E-07-3.31752E-09 7.06032E+02
 -1         8-8.37242E+02-1.87606E+03-5.32100E+03-1.28202E-07-2.28915E-08 7.20247E+02
 -1         9 1.08489E+02 2.78620E+02 8.19448E+02-3.14363E-08-7.15058E-09 7.32064E+02
 -1        10-8.50940E+02-1.25011E+03-3.27816E+03-1.88012E-08-9.18506E-08 4.26010E+02
 -1        11 1.08489E+02 2.78620E+02 8.19448E+02-3.14364E-08-7.15059E-09 7.32064E+02
 -1        12-8.50940E+02-1.25011E+03-3.27816E+03-1.88011E-08-9.18505E-08 4.26010E+02
 -1        13 1.10699E+02 2.70737E+02 7.96772E+02 1.21656E-07-4.16860E-09 6.19490E+02
 -1        14-2.28981E+02-3.96896E+02-1.08661E+03 9.15827E-08-1.01714E-07 4.47358E+02
 -1        15 1.10699E+02 2.70737E+02 7.96772E+02 1.21657E-07-4.16857E-09 6.19490E+02
 -1        16-2.28981E+02-3.96896E+02-1.08661E+03 9.15821E-08-1.01714E-07 4.47358E+02
 -1        17 1.22369E+02 2.57526E+02 7.41000E+02 1.97206E-07 2.35800E-10 5.20088E+02
 -1        18 2.12490E+02 2.69556E+02 6.92145E+02 2.03102E-07-3.70715E-08 4.03150E+02
 -1        19 1.22369E+02 2.57526E+02 7.41000E+02 1.97206E-07 2.35834E-10 5.20088E+02
 -1        20 2.12490E+02 2.69556E+02 6.92145E+02 2.03101E-07-3.70717E-08 4.03150E+02
 -1        21 1.06593E+02 2.35728E+02 6.82049E+02 1.29420E-07-1.40409E-08 4.16615E+02
 -1        22 5.50294E+02 8.14277E+02 2.18418E+03 1.28143E-07 5.02960E-08 3.67172E+02
 -1        23 1.06593E+02 2.35728E+02 6.82049E+02 1.29422E-07-1.40409E-08 4.16615E+02
 -1        24 5.50294E+02 8.14277E+02 2.18418E+03 1.28143E-07 5.02960E-08 3.67172E+02
 -1        25 9.07067E+01 2.12839E+02 6.18972E+02 5.45195E-08 5.69531E-09 2.90295E+02
 -1        26 8.22192E+02 1.21525E+03 3.26737E+03 4.45130E-08 1.36927E-07 2.94699E+02
 -1        27 9.07067E+01 2.12839E+02 6.18972E+02 5.45180E-08 5.69529E-09 2.90295E+02
 -1        28 8.22192E+02 1.21525E+03 3.26737E+03 4.45133E-08 1.36927E-07 2.94699E+02
 -1        29 9.10477E+01 1.88335E+02 5.33926E+02-9.99718E-08 2.53065E-08 1.65867E+02
 -1        30 9.59707E+02 1.42372E+03 3.83613E+03-9.87638E-08 2.17677E-07 1.95874E+02
 -1        31 9.10477E+01 1.88335E+02 5.33926E+02-9.99718E-08 2.53065E-08 1.65867E+02
 -1        32 9.59707E+02 1.42372E+03 3.83613E+03-9.87640E-08 2.17677E-07 1.95874E+02
 -1        33 9.39515E+01 1.63905E+02 4.46707E+02-4.40345E-07 9.81653E-09 1.19921E+02
 -1        34 1.07643E+03 1.55771E+03 4.17323E+03-4.10459E-07 1.74962E-07 1.44129E+02
 -1        35 9.39515E+01 1.63905E+02 4.46707E+02-4.40343E-07 9.81653E-09 1.19921E+02
 -1        36 1.07643E+03 1.55771E+03 4.17323E+03-4.10461E-07 1.74962E-07 1.44129E+02
 -1        37 9.34399E+01 1.48662E+02 3.97830E+02-5.64706E-07-1.43267E-08 1.99783E+01
 -1        38 1.10196E+03 1.62545E+03 4.38063E+03-5.21748E-07 7.47914E-09 4.36079E+01
 -1        39 9.34399E+01 1.48662E+02 3.97830E+02-5.64704E-07-1.43267E-08 1.99783E+01
 -1        40 1.10196E+03 1.62545E+03 4.38063E+03-5.21751E-07 7.47916E-09 4.36079E+01
 -1        41 9.51112E+01 1.45307E+02 3.88319E+02-4.08866E-07-1.01872E-08-2.50030E+02
 -1        42 1.01432E+03 1.47843E+03 3.96965E+03-3.89532E-07-1.08930E-07-1.91315E+02
 -1        43 9.51112E+01 1.45307E+02 3.88319E+02-4.08868E-07-1.01872E-08-2.50030E+02
 -1        44 1.01432E+03 1.47843E+03 3.96965E+03-3.89533E-07-1.08930E-07-1.91315E+02
 -1        45 1.06191E+02 1.49889E+02 3.94945E+02-2.00894E-07 1.21076E-09-4.93416E+02
 -1        46 6.84605E+02 9.52955E+02 2.51886E+03-1.88286E-07-7.85715E-08-3.87547E+02
 -1        47 1.06191E+02 1.49889E+02 3.94945E+02-2.00894E-07 1.21074E-09-4.93416E+02
 -1        48 6.84605E+02 9.52955E+02 2.51886E+03-1.88287E-07-7.85713E-08-3.87547E+02
 -1        49 1.05898E+02 1.49540E+02 3.95183E+02-1.93517E-07-1.32662E-08-4.60938E+02
 -1        50 2.99798E+02 2.87941E+02 6.65972E+02-1.83277E-07-1.62846E-08-3.50273E+02
 -1        51 1.05898E+02 1.49540E+02 3.95183E+02-1.93516E-07-1.32662E-08-4.60938E+02
 -1        52 2.99798E+02 2.87941E+02 6.65972E+02-1.83278E-07-1.62845E-08-3.50273E+02
 -1        53 1.08661E+02 1.46213E+02 3.81051E+02-2.00615E-07-2.08898E-08-1.83681E+02
 -1        54 2.90006E+01-1.57508E+02-5.51436E+02-2.15787E-07-1.77803E-08-1.28954E+02
 -1        55 1.08661E+02 1.46213E+02 3.81051E+02-2.00615E-07-2.08898E-08-1.83681E+02
 -1        56 2.90006E+01-1.57508E+02-5.51436E+02-2.15787E-07-1.77805E-08-1.28954E+02
 -1        57 1.23228E+02 1.44476E+02 3.59599E+02-1.94998E-07-1.90960E-08 9.00936E+01
 -1        58 2.15805E+01-2.00221E+02-6.86825E+02-2.00052E-07-2.73248E-08 7.47781E+01
 -1        59 1.23228E+02 1.44476E+02 3.59599E+02-1.94998E-07-1.90960E-08 9.00936E+01
 -1        60 2.15805E+01-2.00221E+02-6.86825E+02-2.00053E-07-2.73248E-08 7.47781E+01
 -1        61 1.21749E+02 1.37682E+02 3.37860E+02-2.50514E-07-6.53193E-09 1.81566E+02
 -1        62 8.01454E+01-4.18590E+01-2.19052E+02-2.52769E-07-2.06990E-08 1.38674E+02
 -1        63 1.21749E+02 1.37682E+02 3.37860E+02-2.50514E-07-6.53190E-09 1.81566E+02
 -1        64 8.01454E+01-4.18590E+01-2.19052E+02-2.52768E-07-2.06990E-08 1.38674E+02
 -1        65 1.15267E+02 1.26642E+02 3.07454E+02-2.39010E-07 1.29320E-08 1.25514E+02
 -1        66 1.85606E+02 1.33051E+02 2.58393E+02-2.23120E-07-1.95109E-09 9.89711E+01
 -1        67 1.15267E+02 1.26642E+02 3.07454E+02-2.39010E-07 1.29319E-08 1.25514E+02
 -1        68 1.85606E+02 1.33051E+02 2.58393E+02-2.23122E-07-1.95124E-09 9.89711E+01
 -1        69 1.47342E+02 1.31528E+02 2.91464E+02-2.08390E-07 3.55265E-08 5.45755E+01
 -1        70 2.78803E+02 2.35330E+02 5.06647E+02-2.44790E-07 1.73103E-08 4.33950E+01
 -1        71 1.47342E+02 1.31528E+02 2.91464E+02-2.08389E-07 3.55264E-08 5.45755E+01
 -1        72 2.78803E+02 2.35330E+02 5.06647E+02-2.44791E-07 1.73102E-08 4.33950E+01
 -1        73 1.59982E+02 1.36664E+02 2.95908E+02-1.81468E-07 5.39989E-08 5.80068E+00
 -1        74 3.12603E+02 2.61772E+02 5.61171E+02-1.95415E-07-4.96580E-09-2.52505E+00
 -1        75 1.59982E+02 1.36664E+02 2.95908E+02-1.81470E-07 5.39989E-08 5.80068E+00
 -1        76 3.12603E+02 2.61772E+02 5.61171E+02-1.95415E-07-4.96569E-09-2.52505E+00
 -1        77 1.31519E+02 1.23733E+02 2.81213E+02-1.17162E-07 2.25279E-08-1.56251E+01
 -1        78 2.11039E+02 1.76232E+02 3.77017E+02-9.86213E-08-4.06034E-08-2.21350E+01
 -1        79 1.31519E+02 1.23733E+02 2.81213E+02-1.17162E-07 2.25279E-08-1.56251E+01
 -1        80 2.11039E+02 1.76232E+02 3.77017E+02-9.86195E-08-4.06033E-08-2.21350E+01
 -1        81 1.66046E+02 1.35196E+02 2.84934E+02-6.21646E-08-7.94941E-09-2.30343E+01
 -1        82 1.68641E+02 1.20365E+02 2.32832E+02-8.02968E-08-4.88603E-08-5.51458E+01
 -1        83 1.66046E+02 1.35196E+02 2.84934E+02-6.21641E-08-7.94920E-09-2.30343E+01
 -1        84 1.68641E+02 1.20365E+02 2.32832E+02-8.02975E-08-4.88606E-08-5.51458E+01
 -1        85 3.95043E+03 3.87012E+03 9.28626E+03-2.98892E-11-8.47727E-11 2.76999E+03
 -1        86 9.74487E+02 2.35159E+03 7.03710E+03-3.59629E-08 1.55603E-08 9.94752E+02
 -1        87 3.95043E+03 3.87012E+03 9.28626E+03-2.98960E-11-8.47736E-11 2.76999E+03
 -1        88 9.74487E+02 2.35159E+03 7.03710E+03-3.59629E-08 1.55602E-08 9.94752E+02
 -1        89 9.89277E+02 1.76053E+03 4.97206E+03-8.34733E-09 7.16022E-08 6.02343E+02
 -1        90 9.89277E+02 1.76053E+03 4.97206E+03-8.34762E-09 7.16023E-08 6.02343E+02
 -1        91 4.16327E+02 9.25328E+02 2.70147E+03 1.16973E-07 8.10097E-08 5.40852E+02
 -1        92 4.16327E+02 9.25328E+02 2.70147E+03 1.16972E-07 8.10097E-08 5.40852E+02
 -1        93 1.35321E+01 2.45578E+02 8.12802E+02 1.70411E-07 1.66951E-08 4.01891E+02
 -1        94 1.35321E+01 2.45578E+02 8.12802E+02 1.70411E-07 1.66952E-08 4.01891E+02
 -1        95-3.52835E+02-3.44635E+02-7.91767E+02 1.08874E-07-6.79985E-08 2.88505E+02
 -1        96-3.52835E+02-3.44635E+02-7.91767E+02 1.08873E-07-6.79983E-08 2.88505E+02
 -1        97-6.58866E+02-7.98570E+02-1.99002E+03 3.09238E-08-1.22207E-07 1.69114E+02
 -1        98-6.58866E+02-7.98570E+02-1.99002E+03 3.09257E-08-1.22207E-07 1.69114E+02
 -1        99-7.90331E+02-1.05364E+03-2.69952E+03-1.35054E-07-1.64208E-07 6.70514E+01
 -1       100-7.90331E+02-1.05364E+03-2.69952E+03-1.35056E-07-1.64208E-07 6.70514E+01
 -1       101-8.95856E+02-1.23264E+03-3.18210E+03-4.47901E-07-1.35563E-07 4.71585E+01
 -1       102-8.95856E+02-1.23264E+03-3.18210E+03-4.47900E-07-1.35563E-07 4.71585E+01
 -1       103-9.23861E+02-1.33215E+03-3.47742E+03-5.45989E-07-2.76154E-08-3.30342E+00
 -1       104-9.23861E+02-1.33215E+03-3.47742E+03-5.45992E-07-2.76154E-08-3.30342E+00
 -1       105-8.35003E+02-1.19359E+03-3.10955E+03-3.95098E-07 5.66507E-08-1.85787E+02
 -1       106-8.35003E+02-1.19359E+03-3.10955E+03-3.95096E-07 5.66508E-08-1.85787E+02
 -1       107-4.86007E+02-6.59665E+02-1.69892E+03-2.33045E-07 6.49465E-08-3.63700E+02
 -1       108-4.86007E+02-6.59665E+02-1.69892E+03-2.33047E-07 6.49465E-08-3.63700E+02
 -1       109-1.04201E+02 1.47445E+00 1.13478E+02-2.35417E-07 3.50508E-08-3.47638E+02
 -1       110-1.04201E+02 1.47445E+00 1.13478E+02-2.35414E-07 3.50507E-08-3.47638E+02
 -1       111 1.81082E+02 4.45666E+02 1.31258E+03-1.91137E-07 5.71625E-09-1.45902E+02
 -1       112 1.81082E+02 4.45666E+02 1.31258E+03-1.91139E-07 5.71628E-09-1.45902E+02
 -1       113 2.29789E+02 4.94764E+02 1.42758E+03-1.91924E-07-3.89842E-08 6.12922E+01
 -1       114 2.29789E+02 4.94764E+02 1.42758E+03-1.91922E-07-3.89842E-08 6.12922E+01
 -1       115 1.59984E+02 3.13796E+02 8.89546E+02-2.49376E-07-2.78658E-08 1.34438E+02
 -1       116 1.59984E+02 3.13796E+02 8.89546E+02-2.49378E-07-2.78659E-08 1.34438E+02
 -1       117 3.24264E+01 1.07632E+02 3.27088E+02-2.51376E-07 4.22506E-08 9.68326E+01
 -1       118 3.24264E+01 1.07632E+02 3.27088E+02-2.51377E-07 4.22507E-08 9.68326E+01
 -1       119 1.78695E+01 2.96501E+01 8.10267E+01-2.00621E-07 8.67981E-08 4.74831E+01
 -1       120 1.78695E+01 2.96501E+01 8.10267E+01-2.00621E-07 8.67983E-08 4.74831E+01
 -1       121 1.43562E+01 1.85365E+01 4.74427E+01-1.66063E-07 9.19962E-08 1.37771E+01
 -1       122 1.43562E+01 1.85365E+01 4.74427E+01-1.66065E-07 9.19961E-08 1.37771E+01
 -1       123 2.27534E+00 2.14606E+01 6.92680E+01-1.29882E-07 6.36987E-08-1.39818E+01
 -1       124 2.27534E+00 2.14606E+01 6.92680E+01-1.29880E-07 6.36989E-08-1.39818E+01
 -1       125 6.40840E+01 5.05948E+01 1.04583E+02-9.44402E-08 3.22485E-08-1.97772E-01
 -1       126 6.40840E+01 5.05948E+01 1.04583E+02-9.44396E-08 3.22486E-08-1.97772E-01
 -3
    1PSTEP                        43          11           1          
  100CL  111 1.10000E-01         126                     1   11           1
 -4  TOSTRAIN    6    1
 -5  EXX         1    4    1    1
 -5  EYY         1    4    2    2
 -5  EZZ         1    4    3    3
 -5  EXY         1    4    1    2
 -5  EYZ         1    4    2    3
 -5  EZX         1    4    3    1
 -1         1-2.01949E-05-5.87066E-26-1.35733E-02 3.63024E-17 6.87168E-19 7.73532E-03
 -1         2-2.07612E-05-3.61091E-26 1.51358E-03-6.19421E-17 2.40767E-19 6.16387E-03
 -1         3-6.91822E-04 1.91023E-25 1.71486E-03-3.36395E-13-1.54693E-14 2.25083E-03
 -1         4 3.24834E-03 2.94822E-25-1.13369E-02-4.15499E-13-8.15304E-14 2.62529E-03
 -1         5-2.01949E-05-5.87066E-26-1.35733E-02 3.63024E-17 6.87168E-19 7.73532E-03
 -1         6-2.07612E-05-3.61091E-26 1.51358E-03-6.19392E-17 2.41186E-19 6.16387E-03
 -1         7-6.91822E-04 1.91023E-25 1.71486E-03-3.36395E-13-1.54693E-14 2.25083E-03
 -1         8 3.24834E-03 2.94822E-25-1.13369E-02-4.15499E-13-8.15306E-14 2.62529E-03
 -1         9-7.18248E-04-5.13722E-26 1.91743E-03-1.01408E-13-2.57437E-14 2.30248E-03
 -1        10 1.19333E-03 1.14666E-25-6.58827E-03-5.24582E-14-3.02747E-13 1.61299E-03
 -1        11-7.18248E-04-5.13723E-26 1.91743E-03-1.01409E-13-2.57437E-14 2.30248E-03
 -1        12 1.19333E-03 1.14666E-25-6.58827E-03-5.24581E-14-3.02747E-13 1.61299E-03
 -1        13-6.67979E-04 2.33061E-25 1.84038E-03 3.95659E-13-8.16240E-16 1.92718E-03
 -1        14 4.37275E-04 3.14214E-25-2.15391E-03 3.09253E-13-3.21719E-13 1.54735E-03
 -1        15-6.67979E-04 2.33063E-25 1.84038E-03 3.95660E-13-8.16115E-16 1.92718E-03
 -1        16 4.37275E-04 3.14212E-25-2.15391E-03 3.09251E-13-3.21719E-13 1.54735E-03
 -1        17-5.62890E-04 8.03107E-25 1.67954E-03 6.40449E-13 2.25354E-14 1.60957E-03
 -1        18-2.79173E-04 8.48621E-25 1.45083E-03 6.63851E-13-9.77523E-14 1.24903E-03
 -1        19-5.62890E-04 8.03111E-25 1.67954E-03 6.40450E-13 2.25356E-14 1.60957E-03
 -1        20-2.79173E-04 8.48618E-25 1.45083E-03 6.63850E-13-9.77529E-14 1.24903E-03
 -1        21-5.16620E-04 3.30264E-25 1.53751E-03 4.21964E-13-3.17986E-14 1.28410E-03
 -1        22-9.37201E-04 3.39770E-25 4.47816E-03 4.10215E-13 1.75887E-13 1.00650E-03
 -1        23-5.16620E-04 3.30270E-25 1.53751E-03 4.21967E-13-3.17985E-14 1.28410E-03
 -1        24-9.37201E-04 3.39770E-25 4.47816E-03 4.10215E-13 1.75887E-13 1.00650E-03
 -1        25-4.64710E-04-4.70315E-26 1.38390E-03 1.76550E-13 2.36727E-14 8.89407E-04
 -1        26-1.33741E-03 2.96767E-25 6.62711E-03 1.31180E-13 4.45044E-13 7.19702E-04
 -1        27-4.64710E-04-4.70334E-26 1.38390E-03 1.76545E-13 2.36726E-14 8.89407E-04
 -1        28-1.33741E-03 2.96767E-25 6.62711E-03 1.31180E-13 4.45044E-13 7.19702E-04
 -1        29-3.57304E-04-1.49644E-25 1.16831E-03-3.26689E-13 7.50273E-14 5.04419E-04
 -1        30-1.54524E-03 8.30606E-25 7.74560E-03-3.36631E-13 6.92896E-13 4.19724E-04
 -1        31-3.57304E-04-1.49642E-25 1.16831E-03-3.26689E-13 7.50273E-14 5.04419E-04
 -1        32-1.54524E-03 8.30607E-25 7.74560E-03-3.36632E-13 6.92896E-13 4.19724E-04
 -1        33-2.56916E-04 3.78758E-24 9.60352E-04-1.43127E-12 1.02151E-14 3.70770E-04
 -1        34-1.58962E-03 3.85512E-24 8.37619E-03-1.34024E-12 5.42144E-13 3.08630E-04
 -1        35-2.56916E-04 3.78756E-24 9.60352E-04-1.43126E-12 1.02152E-14 3.70770E-04
 -1        36-1.58962E-03 3.85514E-24 8.37619E-03-1.34024E-12 5.42144E-13 3.08630E-04
 -1        37-2.09253E-04 6.67474E-24 8.45688E-04-1.83461E-12-5.98410E-14 5.73205E-05
 -1        38-1.72460E-03 5.63164E-24 8.80729E-03-1.69247E-12 1.18173E-14 6.22110E-05
 -1        39-2.09253E-04 6.67469E-24 8.45688E-04-1.83461E-12-5.98409E-14 5.73205E-05
 -1        40-1.72460E-03 5.63170E-24 8.80729E-03-1.69248E-12 1.18174E-14 6.22110E-05
 -1        41-1.96319E-04 3.39329E-24 8.19515E-04-1.32869E-12-3.19360E-14-8.09785E-04
 -1        42-1.53353E-03 3.29387E-24 7.97329E-03-1.26433E-12-3.49214E-13-6.06049E-04
 -1        43-1.96319E-04 3.39333E-24 8.19515E-04-1.32869E-12-3.19360E-14-8.09785E-04
 -1        44-1.53353E-03 3.29388E-24 7.97329E-03-1.26433E-12-3.49214E-13-6.06049E-04
 -1        45-1.82703E-04 7.56577E-25 8.29450E-04-6.52711E-13 8.52599E-15-1.59274E-03
 -1        46-9.01257E-04 7.78504E-25 5.04794E-03-6.13500E-13-2.49298E-13-1.20606E-03
 -1        47-1.82703E-04 7.56580E-25 8.29450E-04-6.52712E-13 8.52593E-15-1.59274E-03
 -1        48-9.01257E-04 7.78500E-25 5.04794E-03-6.13500E-13-2.49297E-13-1.20606E-03
 -1        49-1.78208E-04 7.88845E-25 8.25995E-04-6.29302E-13-3.73336E-14-1.48533E-03
 -1        50 1.29024E-05 7.07631E-25 1.23907E-03-5.95837E-13-4.73868E-14-1.12036E-03
 -1        51-1.78208E-04 7.88839E-25 8.25995E-04-6.29299E-13-3.73337E-14-1.48533E-03
 -1        52 1.29024E-05 7.07635E-25 1.23907E-03-5.95838E-13-4.73866E-14-1.12036E-03
 -1        53-1.39912E-04 8.58554E-25 7.73651E-04-6.52448E-13-6.27569E-14-5.88413E-04
 -1        54 5.93472E-04 9.85973E-25-1.27587E-03-7.01591E-13-5.24749E-14-4.32797E-04
 -1        55-1.39912E-04 8.58551E-25 7.73651E-04-6.52447E-13-6.27570E-14-5.88413E-04
 -1        56 5.93472E-04 9.85971E-25-1.27587E-03-7.01590E-13-5.24755E-14-4.32797E-04
 -1        57-7.19966E-05 8.04250E-25 6.98160E-04-6.33853E-13-5.87938E-14 2.96069E-04
 -1        58 7.19138E-04 8.53548E-25-1.58678E-03-6.50363E-13-8.56909E-14 2.31435E-04
 -1        59-7.19966E-05 8.04252E-25 6.98160E-04-6.33854E-13-5.87937E-14 2.96069E-04
 -1        60 7.19138E-04 8.53560E-25-1.58678E-03-6.50368E-13-8.56909E-14 2.31435E-04
 -1        61-5.01284E-05 1.31874E-24 6.46967E-04-8.14004E-13-1.86284E-14 5.91002E-04
 -1        62 3.98014E-04 1.34878E-24-5.79300E-04-8.21387E-13-6.47071E-14 4.47911E-04
 -1        63-5.01284E-05 1.31874E-24 6.46967E-04-8.14005E-13-1.86283E-14 5.91002E-04
 -1        64 3.98014E-04 1.34877E-24-5.79300E-04-8.21385E-13-6.47070E-14 4.47911E-04
 -1        65-3.56748E-05 1.20503E-24 5.84765E-04-7.76523E-13 4.40158E-14 4.08725E-04
 -1        66 1.71901E-04 1.04604E-24 4.05074E-04-7.24820E-13-4.48809E-15 3.21877E-04
 -1        67-3.56748E-05 1.20502E-24 5.84765E-04-7.76521E-13 4.40155E-14 4.08725E-04
 -1        68 1.71901E-04 1.04606E-24 4.05074E-04-7.24826E-13-4.48857E-15 3.21877E-04
 -1        69 5.20887E-05 9.32353E-25 5.18173E-04-6.76754E-13 1.17285E-13 1.78366E-04
 -1        70 1.41743E-04 1.25932E-24 8.79050E-04-7.94908E-13 5.83821E-14 1.42698E-04
 -1        71 5.20887E-05 9.32345E-25 5.18173E-04-6.76751E-13 1.17285E-13 1.78366E-04
 -1        72 1.41743E-04 1.25933E-24 8.79050E-04-7.94913E-13 5.83820E-14 1.42698E-04
 -1        73 7.57012E-05 7.36865E-25 5.16836E-04-5.88977E-13 1.77300E-13 2.02943E-05
 -1        74 1.64822E-04 7.70045E-25 9.70777E-04-6.34686E-13-1.40392E-14-5.56543E-06
 -1        75 7.57012E-05 7.36878E-25 5.16836E-04-5.88982E-13 1.77300E-13 2.02943E-05
 -1        76 1.64822E-04 7.70044E-25 9.70777E-04-6.34686E-13-1.40388E-14-5.56543E-06
 -1        77 2.48773E-05 2.74242E-25 5.11578E-04-3.80382E-13 7.45709E-14-4.88853E-05
 -1        78 1.12503E-04 2.06246E-25 6.51821E-04-3.20863E-13-1.30643E-13-6.98372E-05
 -1        79 2.48773E-05 2.74240E-25 5.11578E-04-3.80382E-13 7.45709E-14-4.88853E-05
 -1        80 1.12503E-04 2.06237E-25 6.51821E-04-3.20857E-13-1.30643E-13-6.98372E-05
 -1        81 9.96234E-05 6.14355E-26 4.86564E-04-2.02053E-13-2.50467E-14-7.32180E-05
 -1        82 1.55412E-04 1.79113E-25 3.66437E-04-2.61475E-13-1.57765E-13-1.78210E-04
 -1        83 9.96234E-05 6.14337E-26 4.86564E-04-2.02051E-13-2.50460E-14-7.32180E-05
 -1        84 1.55412E-04 1.79116E-25 3.66437E-04-2.61477E-13-1.57766E-13-1.78210E-04
 -1        85-2.13275E-05-2.56957E-27 1.70307E-02 3.89935E-17-1.82181E-19 8.53627E-03
 -1        86-4.63198E-03 9.12443E-27 1.48981E-02-1.17475E-13 4.80870E-14 2.82962E-03
 -1        87-2.13275E-05-2.56957E-27 1.70307E-02 3.89716E-17-1.85308E-19 8.53627E-03
 -1        88-4.63198E-03 9.12435E-27 1.48981E-02-1.17474E-13 4.80869E-14 2.82962E-03
 -1        89-2.62982E-03 5.01350E-26 1.03097E-02-3.38389E-14 2.28981E-13 1.57523E-03
 -1        90-2.62982E-03 5.01355E-26 1.03097E-02-3.38399E-14 2.28981E-13 1.57523E-03
 -1        91-1.77323E-03 3.59049E-25 5.79981E-03 3.70603E-13 2.73277E-13 1.49312E-03
 -1        92-1.77323E-03 3.59044E-25 5.79981E-03 3.70600E-13 2.73277E-13 1.49312E-03
 -1        93-8.46608E-04 5.87955E-25 1.91461E-03 5.51650E-13 7.28722E-14 1.20714E-03
 -1        94-8.46608E-04 5.87950E-25 1.91461E-03 5.51648E-13 7.28724E-14 1.20714E-03
 -1        95-9.60395E-05 3.06224E-25-1.39480E-03 3.61570E-13-2.09794E-13 9.83500E-04
 -1        96-9.60395E-05 3.06221E-25-1.39480E-03 3.61567E-13-2.09794E-13 9.83500E-04
 -1        97 4.07986E-04 2.15737E-25-3.86026E-03 1.12377E-13-3.96224E-13 6.75448E-04
 -1        98 4.07986E-04 2.15740E-25-3.86026E-03 1.12383E-13-3.96224E-13 6.75448E-04
 -1        99 8.30632E-04 6.10646E-25-5.38247E-03-4.27202E-13-5.47315E-13 3.59054E-04
 -1       100 8.30632E-04 6.10659E-25-5.38247E-03-4.27208E-13-5.47315E-13 3.59054E-04
 -1       101 1.07578E-03 4.35571E-24-6.39755E-03-1.45084E-12-4.66726E-13 2.69189E-04
 -1       102 1.07578E-03 4.35571E-24-6.39755E-03-1.45084E-12-4.66726E-13 2.69189E-04
 -1       103 1.30609E-03 6.22900E-24-7.05581E-03-1.77647E-12-1.03640E-13 5.02080E-05
 -1       104 1.30609E-03 6.22907E-24-7.05581E-03-1.77648E-12-1.03640E-13 5.02080E-05
 -1       105 1.14089E-03 3.25277E-24-6.29407E-03-1.28554E-12 1.86888E-13-6.15130E-04
 -1       106 1.14089E-03 3.25273E-24-6.29407E-03-1.28553E-12 1.86888E-13-6.15130E-04
 -1       107 5.35851E-04 1.16999E-24-3.38604E-03-7.56029E-13 2.17385E-13-1.21523E-03
 -1       108 5.35851E-04 1.17002E-24-3.38604E-03-7.56037E-13 2.17385E-13-1.21523E-03
 -1       109-3.69318E-04 1.17679E-24 3.78266E-04-7.64020E-13 1.20827E-13-1.12434E-03
 -1       110-3.69318E-04 1.17676E-24 3.78266E-04-7.64013E-13 1.20827E-13-1.12434E-03
 -1       111-8.73295E-04 7.63856E-25 2.80785E-03-6.20941E-13 2.33534E-14-4.43980E-04
 -1       112-8.73295E-04 7.63875E-25 2.80785E-03-6.20948E-13 2.33536E-14-4.43980E-04
 -1       113-8.63131E-04 8.00340E-25 3.01096E-03-6.24198E-13-1.23038E-13 2.18093E-04
 -1       114-8.63131E-04 8.00327E-25 3.01096E-03-6.24193E-13-1.23038E-13 2.18093E-04
 -1       115-4.98271E-04 1.31504E-24 1.86008E-03-8.10531E-13-8.77710E-14 4.42280E-04
 -1       116-4.98271E-04 1.31506E-24 1.86008E-03-8.10537E-13-8.77713E-14 4.42280E-04
 -1       117-2.43250E-04 1.35467E-24 7.10020E-04-8.16700E-13 1.39357E-13 3.16338E-04
 -1       118-2.43250E-04 1.35468E-24 7.10020E-04-8.16705E-13 1.39357E-13 3.16338E-04
 -1       119-3.75660E-05 9.90445E-25 1.66054E-04-6.51265E-13 2.83917E-13 1.54790E-04
 -1       120-3.75660E-05 9.90446E-25 1.66054E-04-6.51265E-13 2.83918E-13 1.54790E-04
 -1       121-1.34197E-05 7.49903E-25 9.37227E-05-5.38715E-13 3.00750E-13 4.51452E-05
 -1       122-1.34197E-05 7.49910E-25 9.37227E-05-5.38719E-13 3.00750E-13 4.51452E-05
 -1       123-6.27482E-05 4.28158E-25 1.55731E-04-4.21325E-13 2.08556E-13-4.45908E-05
 -1       124-6.27482E-05 4.28147E-25 1.55731E-04-4.21318E-13 2.08557E-13-4.45908E-05
 -1       125 4.38349E-05 1.93254E-25 1.75439E-04-3.06452E-13 1.06019E-13-8.83894E-08
 -1       126 4.38349E-05 1.93252E-25 1.75439E-04-3.06450E-13 1.06019E-13-8.83895E-08
 -3
    1PSTEP                        44          11           1          
  100CL  111 1.10000E-01         126                     1   11           1
 -4  ERROR       1    1
 -5  STR(%)      1    1    0    0
 -1         1 7.23168E+01
 -1         2 7.23168E+01
 -1         3 7.47898E+01
 -1         4 7.47898E+01
 -1         5 7.23168E+01
 -1         6 7.23168E+01
 -1         7 7.47898E+01
 -1         8 7.47898E+01
 -1         9 7.57297E+01
 -1        10 7.57297E+01
 -1        11 7.57297E+01
 -1        12 7.57297E+01
 -1        13 7.57297E+01
 -1        14 7.57297E+01
 -1        15 7.57297E+01
 -1        16 7.57297E+01
 -1        17 4.96561E+01
 -1        18 4.40303E+01
 -1        19 4.96561E+01
 -1        20 4.40303E+01
 -1        21 7.49050E+01
 -1        22 3.96634E+01
 -1        23 7.49050E+01
 -1        24 3.96634E+01
 -1        25 8.15832E+01
 -1        26 4.69917E+01
 -1        27 8.15832E+01
 -1        28 4.69917E+01
 -1        29 8.15832E+01
 -1        30 4.99984E+01
 -1        31 8.15832E+01
 -1        32 4.99984E+01
 -1        33 7.33253E+01
 -1        34 5.21648E+01
 -1        35 7.33253E+01
 -1        36 5.21648E+01
 -1        37 7.01458E+01
 -1        38 5.21648E+01
 -1        39 7.01458E+01
 -1        40 5.21648E+01
 -1        41 6.79404E+01
 -1        42 5.18650E+01
 -1        43 6.79404E+01
 -1        44 5.18650E+01
 -1        45 6.81734E+01
 -1        46 4.93474E+01
 -1        47 6.81734E+01
 -1        48 4.93474E+01
 -1        49 6.81734E+01
 -1        50 5.08525E+01
 -1        51 6.81734E+01
 -1        52 5.08525E+01
 -1        53 1.00696E+02
 -1        54 1.00696E+02
 -1        55 1.00696E+02
 -1        56 1.00696E+02
 -1        57 1.00696E+02
 -1        58 1.00696E+02
 -1        59 1.00696E+02
 -1        60 1.00696E+02
 -1        61 6.43956E+01
 -1        62 6.43956E+01
 -1        63 6.43956E+01
 -1        64 6.43956E+01
 -1        65 3.08205E+01
 -1        66 2.97765E+01
 -1        67 3.08205E+01
 -1        68 2.97765E+01
 -1        69 4.96123E+01
 -1        70 1.90711E+01
 -1        71 4.96123E+01
 -1        72 1.90711E+01
 -1        73 4.96123E+01
 -1        74 1.90711E+01
 -1        75 4.96123E+01
 -1        76 1.90711E+01
 -1        77 3.96843E+01
 -1        78 1.56730E+01
 -1        79 3.96843E+01
 -1        80 1.56730E+01
 -1        81 2.80971E+01
 -1        82 5.88435E+00
 -1        83 2.80971E+01
 -1        84 5.88435E+00
 -1        85 5.82752E+01
 -1        86 5.82752E+01
 -1        87 5.82752E+01
 -1        88 5.82752E+01
 -1        89 4.89772E+01
 -1        90 4.89772E+01
 -1        91 4.05927E+01
 -1        92 4.05927E+01
 -1        93 4.96561E+01
 -1        94 4.96561E+01
 -1        95 7.49050E+01
 -1        96 7.49050E+01
 -1        97 8.15832E+01
 -1        98 8.15832E+01
 -1        99 8.15832E+01
 -1       100 8.15832E+01
 -1       101 7.33253E+01
 -1       102 7.33253E+01
 -1       103 7.01458E+01
 -1       104 7.01458E+01
 -1       105 6.79404E+01
 -1       106 6.79404E+01
 -1       107 6.81734E+01
 -1       108 6.81734E+01
 -1       109 6.81734E+01
 -1       110 6.81734E+01
 -1       111 4.42773E+01
 -1       112 4.42773E+01
 -1       113 4.42773E+01
 -1       114 4.42773E+01
 -1       115 3.82888E+01
 -1       116 3.82888E+01
 -1       117 3.08205E+01
 -1       118 3.08205E+01
 -1       119 4.96123E+01
 -1       120 4.96123E+01
 -1       121 4.96123E+01
 -1       122 4.96123E+01
 -1       123 3.96843E+01
 -1       124 3.96843E+01
 -1       125 2.80971E+01
 -1       126 2.80971E+01
 -3
    1PSTEP                        45          12           1          
  100CL  112 1.20000E-01         126                     1   12           1
 -4  DISP        4    1
 -5  D1          1    2    1    0
 -5  D2          1    2    2    0
 -5  D3          1    2    3    0
 -5  ALL         1    2    0    0    1ALL
 -1         1 0.00000E+00 0.00000E+00 0.00000E+00
 -1         2 0.00000E+00 0.00000E+00 0.00000E+00
 -1         3 6.36351E-04 0.00000E+00 9.48151E-05
 -1         4 7.61635E-04 0.00000E+00-7.06115E-04
 -1         5 0.00000E+00 0.00000E+00 0.00000E+00
 -1         6 0.00000E+00 0.00000E+00 0.00000E+00
 -1         7 6.36351E-04 0.00000E+00 9.48151E-05
 -1         8 7.61635E-04 0.00000E+00-7.06115E-04
 -1         9 2.08551E-03 0.00000E+00 1.91337E-04
 -1        10 2.10455E-03 0.00000E+00-1.21003E-03
 -1        11 2.08551E-03 0.00000E+00 1.91337E-04
 -1        12 2.10455E-03 0.00000E+00-1.21003E-03
 -1        13 3.91492E-03 0.00000E+00 2.61985E-04
 -1        14 3.88571E-03 0.00000E+00-1.46659E-03
 -1        15 3.91492E-03 0.00000E+00 2.61985E-04
 -1        16 3.88571E-03 0.00000E+00-1.46659E-03
 -1        17 5.93050E-03 0.00000E+00 3.20336E-04
 -1        18 5.85969E-03 0.00000E+00-1.53012E-03
 -1        19 5.93050E-03 0.00000E+00 3.20336E-04
 -1        20 5.85969E-03 0.00000E+00-1.53012E-03
 -1        21 7.93586E-03 0.00000E+00 3.65264E-04
 -1        22 7.84443E-03 0.00000E+00-1.44350E-03
 -1        23 7.93586E-03 0.00000E+00 3.65264E-04
 -1        24 7.84443E-03 0.00000E+00-1.44350E-03
 -1        25 9.80385E-03 0.00000E+00 3.99072E-04
 -1        26 9.69666E-03 0.00000E+00-1.23391E-03
 -1        27 9.80385E-03 0.00000E+00 3.99072E-04
 -1        28 9.69666E-03 0.00000E+00-1.23391E-03
 -1        29 1.14129E-02 0.00000E+00 4.32841E-04
 -1        30 1.12949E-02 0.00000E+00-9.09529E-04
 -1        31 1.14129E-02 0.00000E+00 4.32841E-04
 -1        32 1.12949E-02 0.00000E+00-9.09529E-04
 -1        33 1.26285E-02 0.00000E+00 4.74514E-04
 -1        34 1.25098E-02 0.00000E+00-5.02086E-04
 -1        35 1.26285E-02 0.00000E+00 4.74514E-04
 -1        36 1.25098E-02 0.00000E+00-5.02086E-04
 -1        37 1.34186E-02 0.00000E+00 5.21144E-04
 -1        38 1.33063E-02 0.00000E+00-6.65102E-05
 -1        39 1.34186E-02 0.00000E+00 5.21144E-04
 -1        40 1.33063E-02 0.00000E+00-6.65102E-05
 -1        41 1.38151E-02 0.00000E+00 5.68124E-04
 -1        42 1.37071E-02 0.00000E+00 3.75894E-04
 -1        43 1.38151E-02 0.00000E+00 5.68124E-04
 -1        44 1.37071E-02 0.00000E+00 3.75894E-04
 -1        45 1.37503E-02 0.00000E+00 6.13940E-04
 -1        46 1.36561E-02 0.00000E+00 7.97783E-04
 -1        47 1.37503E-02 0.00000E+00 6.13940E-04
 -1        48 1.36561E-02 0.00000E+00 7.97783E-04
 -1        49 1.32391E-02 0.00000E+00 6.54123E-04
 -1        50 1.31808E-02 0.00000E+00 1.10582E-03
 -1        51 1.32391E-02 0.00000E+00 6.54123E-04
 -1        52 1.31808E-02 0.00000E+00 1.10582E-03
 -1        53 1.25106E-02 0.00000E+00 6.87154E-04
 -1        54 1.24977E-02 0.00000E+00 1.21400E-03
 -1        55 1.25106E-02 0.00000E+00 6.87154E-04
 -1        56 1.24977E-02 0.00000E+00 1.21400E-03
 -1        57 1.18911E-02 0.00000E+00 7.17855E-04
 -1        58 1.19070E-02 0.00000E+00 1.14655E-03
 -1        59 1.18911E-02 0.00000E+00 7.17855E-04
 -1        60 1.19070E-02 0.00000E+00 1.14655E-03
 -1        61 1.15364E-02 0.00000E+00 7.49146E-04
 -1        62 1.15541E-02 0.00000E+00 1.01939E-03
 -1        63 1.15364E-02 0.00000E+00 7.49146E-04
 -1        64 1.15541E-02 0.00000E+00 1.01939E-03
 -1        65 1.13998E-02 0.00000E+00 7.78949E-04
 -1        66 1.14045E-02 0.00000E+00 9.37601E-04
 -1        67 1.13998E-02 0.00000E+00 7.78949E-04
 -1        68 1.14045E-02 0.00000E+00 9.37601E-04
 -1        69 1.13303E-02 0.00000E+00 8.07618E-04
 -1        70 1.13197E-02 0.00000E+00 9.34787E-04
 -1        71 1.13303E-02 0.00000E+00 8.07618E-04
 -1        72 1.13197E-02 0.00000E+00 9.34787E-04
 -1        73 1.12156E-02 0.00000E+00 8.34638E-04
 -1        74 1.12007E-02 0.00000E+00 9.75787E-04
 -1        75 1.12156E-02 0.00000E+00 8.34638E-04
 -1        76 1.12007E-02 0.00000E+00 9.75787E-04
 -1        77 1.10470E-02 0.00000E+00 8.54764E-04
 -1        78 1.10399E-02 0.00000E+00 1.00965E-03
 -1        79 1.10470E-02 0.00000E+00 8.54764E-04
 -1        80 1.10399E-02 0.00000E+00 1.00965E-03
 -1        81 1.08783E-02 0.00000E+00 8.79000E-04
 -1        82 1.08753E-02 0.00000E+00 1.02219E-03
 -1        83 1.08783E-02 0.00000E+00 8.79000E-04
 -1        84 1.08753E-02 0.00000E+00 1.02219E-03
 -1        85 0.00000E+00 0.00000E+00 0.00000E+00
 -1        86 8.89468E-04 0.00000E+00 9.04036E-04
 -1        87 0.00000E+00 0.00000E+00 0.00000E+00
 -1        88 8.89468E-04 0.00000E+00 9.04036E-04
 -1        89 2.24272E-03 0.00000E+00 1.57900E-03
 -1        90 2.24272E-03 0.00000E+00 1.57900E-03
 -1        91 4.03662E-03 0.00000E+00 1.98181E-03
 -1        92 4.03662E-03 0.00000E+00 1.98181E-03
 -1        93 6.01184E-03 0.00000E+00 2.16400E-03
 -1        94 6.01184E-03 0.00000E+00 2.16400E-03
 -1        95 7.97656E-03 0.00000E+00 2.16966E-03
 -1        96 7.97656E-03 0.00000E+00 2.16966E-03
 -1        97 9.80639E-03 0.00000E+00 2.03272E-03
 -1        98 9.80639E-03 0.00000E+00 2.03272E-03
 -1        99 1.13836E-02 0.00000E+00 1.77835E-03
 -1       100 1.13836E-02 0.00000E+00 1.77835E-03
 -1       101 1.25797E-02 0.00000E+00 1.45307E-03
 -1       102 1.25797E-02 0.00000E+00 1.45307E-03
 -1       103 1.33596E-02 0.00000E+00 1.10940E-03
 -1       104 1.33596E-02 0.00000E+00 1.10940E-03
 -1       105 1.37517E-02 0.00000E+00 7.59733E-04
 -1       106 1.37517E-02 0.00000E+00 7.59733E-04
 -1       107 1.36977E-02 0.00000E+00 4.26722E-04
 -1       108 1.36977E-02 0.00000E+00 4.26722E-04
 -1       109 1.32207E-02 0.00000E+00 1.98751E-04
 -1       110 1.32207E-02 0.00000E+00 1.98751E-04
 -1       111 1.25340E-02 0.00000E+00 1.59665E-04
 -1       112 1.25340E-02 0.00000E+00 1.59665E-04
 -1       113 1.19394E-02 0.00000E+00 2.89716E-04
 -1       114 1.19394E-02 0.00000E+00 2.89716E-04
 -1       115 1.15827E-02 0.00000E+00 4.77900E-04
 -1       116 1.15827E-02 0.00000E+00 4.77900E-04
 -1       117 1.14279E-02 0.00000E+00 6.20746E-04
 -1       118 1.14279E-02 0.00000E+00 6.20746E-04
 -1       119 1.13440E-02 0.00000E+00 6.84460E-04
 -1       120 1.13440E-02 0.00000E+00 6.84460E-04
 -1       121 1.12248E-02 0.00000E+00 6.96201E-04
 -1       122 1.12248E-02 0.00000E+00 6.96201E-04
 -1       123 1.10539E-02 0.00000E+00 6.99638E-04
 -1       124 1.10539E-02 0.00000E+00 6.99638E-04
 -1       125 1.08835E-02 0.00000E+00 7.12430E-04
 -1       126 1.08835E-02 0.00000E+00 7.12430E-04
 -3
    1PSTEP                        46          12           1          
  100CL  112 1.20000E-01         126                     1   12           1
 -4  STRESS      6    1
 -5  SXX         1    4    1    1
 -5  SYY         1    4    2    2
 -5  SZZ         1    4    3    3
 -5  SXY         1    4    1    2
 -5  SYZ         1    4    2    3
 -5  SZX         1    4    3    1
 -1         1-3.19234E+03-3.25504E+03-7.43428E+03 4.42787E-10-5.98659E-10 2.23635E+03
 -1         2 4.95811E+02 4.55811E+02 1.01389E+03-6.32871E-11-4.95304E-10 1.96751E+03
 -1         3-6.27220E+01 2.32990E+02 8.37588E+02-1.84978E-07 1.14903E-08 7.41080E+02
 -1         4-1.28371E+03-2.13224E+03-5.71722E+03-2.12425E-07 7.59111E-08 7.19027E+02
 -1         5-3.19234E+03-3.25504E+03-7.43428E+03 4.42787E-10-5.98659E-10 2.23635E+03
 -1         6 4.95811E+02 4.55811E+02 1.01389E+03-6.32853E-11-4.95303E-10 1.96751E+03
 -1         7-6.27220E+01 2.32990E+02 8.37588E+02-1.84978E-07 1.14903E-08 7.41080E+02
 -1         8-1.28371E+03-2.13224E+03-5.71722E+03-2.12425E-07 7.59110E-08 7.19027E+02
 -1         9 3.13267E+01 2.82208E+02 9.06947E+02-3.53781E-07 4.22075E-08 7.69064E+02
 -1        10-1.19370E+03-1.46507E+03-3.64538E+03-3.34264E-07 8.63372E-09 4.52139E+02
 -1        11 3.13267E+01 2.82208E+02 9.06947E+02-3.53781E-07 4.22075E-08 7.69064E+02
 -1        12-1.19370E+03-1.46507E+03-3.64538E+03-3.34264E-07 8.63380E-09 4.52139E+02
 -1        13 2.49931E+01 2.57685E+02 8.38282E+02-2.66911E-07 1.41236E-08 6.27290E+02
 -1        14-5.34314E+02-5.73170E+02-1.36712E+03-2.11442E-07-1.01344E-07 4.41619E+02
 -1        15 2.49931E+01 2.57685E+02 8.38282E+02-2.66911E-07 1.41237E-08 6.27290E+02
 -1        16-5.34314E+02-5.73170E+02-1.36712E+03-2.11442E-07-1.01344E-07 4.41619E+02
 -1        17 1.40484E+01 2.31364E+02 7.62373E+02-9.52749E-08-3.04836E-08 5.19111E+02
 -1        18-1.28022E+02 6.52470E+01 3.50029E+02-9.75652E-08-1.30721E-07 4.06340E+02
 -1        19 1.40484E+01 2.31364E+02 7.62373E+02-9.52751E-08-3.04836E-08 5.19111E+02
 -1        20-1.28022E+02 6.52470E+01 3.50029E+02-9.75648E-08-1.30721E-07 4.06340E+02
 -1        21 2.71722E+01 2.00812E+02 6.45567E+02 4.72073E-09 4.01850E-09 4.13229E+02
 -1        22 2.48252E+02 5.82403E+02 1.70708E+03-4.38763E-08-8.86283E-08 3.66842E+02
 -1        23 2.71722E+01 2.00812E+02 6.45567E+02 4.72053E-09 4.01849E-09 4.13229E+02
 -1        24 2.48252E+02 5.82403E+02 1.70708E+03-4.38759E-08-8.86283E-08 3.66842E+02
 -1        25 1.78522E+01 1.66053E+02 5.36310E+02 6.03977E-09 2.53491E-08 3.33334E+02
 -1        26 5.24801E+02 9.98104E+02 2.83284E+03 1.44821E-08-1.12029E-08 3.25140E+02
 -1        27 1.78522E+01 1.66053E+02 5.36310E+02 6.03979E-09 2.53491E-08 3.33334E+02
 -1        28 5.24801E+02 9.98104E+02 2.83284E+03 1.44816E-08-1.12028E-08 3.25140E+02
 -1        29 2.35485E+00 1.46403E+02 4.84369E+02 4.56841E-09 2.07912E-08 2.17432E+02
 -1        30 7.20007E+02 1.31943E+03 3.72774E+03-1.00899E-08 4.70328E-08 2.40986E+02
 -1        31 2.35485E+00 1.46403E+02 4.84369E+02 4.56796E-09 2.07913E-08 2.17432E+02
 -1        32 7.20007E+02 1.31943E+03 3.72774E+03-1.00896E-08 4.70328E-08 2.40986E+02
 -1        33-1.14092E+01 1.34839E+02 4.57348E+02-8.29527E-09 1.78990E-08 8.24294E+01
 -1        34 8.27258E+02 1.48967E+03 4.19881E+03-4.30899E-09 1.09579E-07 1.24184E+02
 -1        35-1.14092E+01 1.34839E+02 4.57348E+02-8.29511E-09 1.78989E-08 8.24294E+01
 -1        36 8.27258E+02 1.48967E+03 4.19881E+03-4.30965E-09 1.09579E-07 1.24184E+02
 -1        37-9.78793E+00 1.26641E+02 4.26486E+02-2.39084E-07 1.66837E-08 1.90426E+01
 -1        38 8.76814E+02 1.54121E+03 4.32304E+03-2.23820E-07 1.49738E-07 5.46225E+01
 -1        39-9.78793E+00 1.26641E+02 4.26486E+02-2.39081E-07 1.66837E-08 1.90426E+01
 -1        40 8.76814E+02 1.54121E+03 4.32304E+03-2.23822E-07 1.49738E-07 5.46225E+01
 -1        41-1.16744E+01 1.16203E+02 3.95758E+02-4.56557E-07 1.13054E-08-7.96264E+01
 -1        42 8.43659E+02 1.50062E+03 4.21960E+03-4.45650E-07 9.33251E-08-4.78351E+01
 -1        43-1.16744E+01 1.16203E+02 3.95758E+02-4.56558E-07 1.13053E-08-7.96264E+01
 -1        44 8.43659E+02 1.50062E+03 4.21960E+03-4.45648E-07 9.33253E-08-4.78351E+01
 -1        45-5.28107E+00 1.09945E+02 3.72221E+02-4.68082E-07-1.59570E-09-3.16660E+02
 -1        46 6.86961E+02 1.25625E+03 3.54714E+03-4.71812E-07-1.69278E-08-2.52260E+02
 -1        47-5.28107E+00 1.09945E+02 3.72221E+02-4.68081E-07-1.59569E-09-3.16660E+02
 -1        48 6.86961E+02 1.25625E+03 3.54714E+03-4.71814E-07-1.69279E-08-2.52260E+02
 -1        49 8.93666E+00 1.04696E+02 3.42381E+02-3.82188E-07-5.79762E-09-5.14156E+02
 -1        50 3.81056E+02 7.16569E+02 2.02751E+03-3.66905E-07-8.31251E-08-4.02779E+02
 -1        51 8.93666E+00 1.04696E+02 3.42381E+02-3.82188E-07-5.79757E-09-5.14156E+02
 -1        52 3.81056E+02 7.16569E+02 2.02751E+03-3.66905E-07-8.31252E-08-4.02779E+02
 -1        53 1.50339E+01 9.72260E+01 3.11706E+02-3.07019E-07-1.01025E-08-4.54152E+02
 -1        54 1.18028E+01 6.55784E+01 2.11261E+02-2.91166E-07-1.05457E-07-3.41002E+02
 -1        55 1.50339E+01 9.72260E+01 3.11706E+02-3.07021E-07-1.01026E-08-4.54152E+02
 -1        56 1.18028E+01 6.55784E+01 2.11261E+02-2.91163E-07-1.05457E-07-3.41002E+02
 -1        57 6.21827E+00 8.85869E+01 2.90853E+02-1.22440E-07-6.22198E-09-1.82026E+02
 -1        58-2.42974E+02-3.56330E+02-9.40652E+02-1.09656E-07-9.47583E-08-1.29559E+02
 -1        59 6.21827E+00 8.85869E+01 2.90853E+02-1.22440E-07-6.22200E-09-1.82026E+02
 -1        60-2.42974E+02-3.56330E+02-9.40652E+02-1.09656E-07-9.47583E-08-1.29559E+02
 -1        61-1.28956E+00 8.15040E+01 2.73550E+02 8.26174E-09-2.03315E-08 7.65288E+01
 -1        62-2.80859E+02-3.94279E+02-1.02954E+03-1.38425E-09-3.80835E-08 6.04938E+01
 -1        63-1.28956E+00 8.15040E+01 2.73550E+02 8.26309E-09-2.03315E-08 7.65288E+01
 -1        64-2.80859E+02-3.94279E+02-1.02954E+03-1.38495E-09-3.80836E-08 6.04938E+01
 -1        65 1.17179E+01 8.26610E+01 2.64101E+02-1.56565E-08-2.38045E-08 1.70193E+02
 -1        66-1.41582E+02-1.71675E+02-4.29600E+02-5.72997E-08 2.53571E-08 1.27830E+02
 -1        67 1.17179E+01 8.26610E+01 2.64101E+02-1.56548E-08-2.38046E-08 1.70193E+02
 -1        68-1.41582E+02-1.71675E+02-4.29600E+02-5.73020E-08 2.53570E-08 1.27830E+02
 -1        69-6.59998E-01 7.35246E+01 2.46144E+02-1.25071E-07 2.34237E-09 1.01657E+02
 -1        70-2.47328E+01 4.01468E+01 1.58943E+02-1.32339E-07 6.29216E-08 7.74834E+01
 -1        71-6.59998E-01 7.35246E+01 2.46144E+02-1.25071E-07 2.34241E-09 1.01657E+02
 -1        72-2.47328E+01 4.01468E+01 1.58943E+02-1.32340E-07 6.29216E-08 7.74834E+01
 -1        73-1.79994E+01 5.49462E+01 2.01429E+02-2.27664E-07 7.91417E-09-6.01501E+00
 -1        74 1.51376E+01 1.05720E+02 3.37799E+02-2.05456E-07 6.96052E-08 3.42449E+00
 -1        75-1.79994E+01 5.49462E+01 2.01429E+02-2.27663E-07 7.91403E-09-6.01501E+00
 -1        76 1.51376E+01 1.05720E+02 3.37799E+02-2.05457E-07 6.96052E-08 3.42449E+00
 -1        77 3.11065E+01 7.24565E+01 2.10602E+02-2.43995E-07 6.60941E-09-4.23463E+01
 -1        78 3.40491E+01 7.64021E+01 2.20860E+02-2.29481E-07 6.45222E-08-2.42516E+01
 -1        79 3.11065E+01 7.24565E+01 2.10602E+02-2.43995E-07 6.60935E-09-4.23463E+01
 -1        80 3.40491E+01 7.64021E+01 2.20860E+02-2.29480E-07 6.45221E-08-2.42516E+01
 -1        81 7.20954E+01 9.54377E+01 2.46288E+02-2.57122E-07 1.86966E-08-4.29347E+01
 -1        82 3.00251E+01 4.64461E+01 1.24898E+02-3.17396E-07 8.17493E-08-6.58173E+01
 -1        83 7.20954E+01 9.54377E+01 2.46288E+02-2.57124E-07 1.86968E-08-4.29347E+01
 -1        84 3.00251E+01 4.64461E+01 1.24898E+02-3.17392E-07 8.17492E-08-6.58173E+01
 -1        85 4.25794E+03 4.17106E+03 1.00324E+04-5.47759E-10-5.45509E-10 2.89801E+03
 -1        86 1.10376E+03 2.56919E+03 7.66479E+03-2.00141E-07-5.49715E-08 1.04521E+03
 -1        87 4.25794E+03 4.17106E+03 1.00324E+04-5.47773E-10-5.45511E-10 2.89801E+03
 -1        88 1.10376E+03 2.56919E+03 7.66479E+03-2.00141E-07-5.49714E-08 1.04521E+03
 -1        89 1.15718E+03 1.96416E+03 5.50240E+03-3.15680E-07 1.95885E-08 6.47403E+02
 -1        90 1.15718E+03 1.96416E+03 5.50240E+03-3.15680E-07 1.95884E-08 6.47403E+02
 -1        91 5.61431E+02 1.08813E+03 3.10738E+03-2.91314E-07 9.33092E-08 5.58745E+02
 -1        92 5.61431E+02 1.08813E+03 3.10738E+03-2.91312E-07 9.33092E-08 5.58745E+02
 -1        93 1.33534E+02 3.93757E+02 1.18942E+03-1.15467E-07 9.04217E-08 4.11251E+02
 -1        94 1.33534E+02 3.93757E+02 1.18942E+03-1.15468E-07 9.04217E-08 4.11251E+02
 -1        95-2.02206E+02-1.74260E+02-3.75784E+02 1.82560E-08 7.02923E-08 2.82877E+02
 -1        96-2.02206E+02-1.74260E+02-3.75784E+02 1.82557E-08 7.02923E-08 2.82877E+02
 -1        97-4.92775E+02-6.57227E+02-1.68824E+03-1.58261E-08 4.99972E-08 1.94446E+02
 -1        98-4.92775E+02-6.57227E+02-1.68824E+03-1.58269E-08 4.99971E-08 1.94446E+02
 -1        99-7.26852E+02-1.02904E+03-2.68025E+03 3.35881E-09 9.19988E-09 9.93941E+01
 -1       100-7.26852E+02-1.02904E+03-2.68025E+03 3.35739E-09 9.19993E-09 9.93941E+01
 -1       101-8.64504E+02-1.22861E+03-3.19891E+03-2.16388E-08-7.75236E-08 5.91465E+00
 -1       102-8.64504E+02-1.22861E+03-3.19891E+03-2.16373E-08-7.75233E-08 5.91465E+00
 -1       103-9.08693E+02-1.29584E+03-3.37600E+03-2.41865E-07-1.20683E-07-2.12791E+01
 -1       104-9.08693E+02-1.29584E+03-3.37600E+03-2.41871E-07-1.20683E-07-2.12791E+01
 -1       105-8.82398E+02-1.27902E+03-3.34497E+03-4.49312E-07-5.56431E-08-7.29681E+01
 -1       106-8.82398E+02-1.27902E+03-3.34497E+03-4.49308E-07-5.56432E-08-7.29681E+01
 -1       107-7.13658E+02-1.04621E+03-2.74681E+03-4.42955E-07 1.78909E-08-2.35009E+02
 -1       108-7.13658E+02-1.04621E+03-2.74681E+03-4.42958E-07 1.78908E-08-2.35009E+02
 -1       109-3.70713E+02-5.06452E+02-1.30738E+03-3.72518E-07 4.33536E-08-3.83541E+02
 -1       110-3.70713E+02-5.06452E+02-1.30738E+03-3.72517E-07 4.33536E-08-3.83541E+02
 -1       111 1.59952E+01 1.33627E+02 4.34352E+02-3.25902E-07 8.10160E-08-3.50409E+02
 -1       112 1.59952E+01 1.33627E+02 4.34352E+02-3.25904E-07 8.10160E-08-3.50409E+02
 -1       113 2.49910E+02 5.31098E+02 1.53054E+03-1.42493E-07 1.03355E-07-1.52256E+02
 -1       114 2.49910E+02 5.31098E+02 1.53054E+03-1.42492E-07 1.03355E-07-1.52256E+02
 -1       115 2.77611E+02 5.57108E+02 1.58920E+03-7.80403E-09 3.29565E-08 4.41603E+01
 -1       116 2.77611E+02 5.57108E+02 1.58920E+03-7.80590E-09 3.29566E-08 4.41603E+01
 -1       117 1.76807E+02 3.48694E+02 9.89737E+02 3.28317E-09-6.40824E-08 1.18648E+02
 -1       118 1.76807E+02 3.48694E+02 9.89737E+02 3.28519E-09-6.40823E-08 1.18648E+02
 -1       119 2.88406E+01 1.12222E+02 3.46049E+02-1.00317E-07-9.22079E-08 6.64291E+01
 -1       120 2.88406E+01 1.12222E+02 3.46049E+02-1.00315E-07-9.22078E-08 6.64291E+01
 -1       121-6.09523E+01-5.62873E+00 4.22954E+01-2.33895E-07-4.68160E-08-2.04813E+01
 -1       122-6.09523E+01-5.62873E+00 4.22954E+01-2.33897E-07-4.68158E-08-2.04813E+01
 -1       123-3.22010E+01 8.22534E+00 5.96672E+01-2.38017E-07 6.31557E-09-4.79623E+01
 -1       124-3.22010E+01 8.22534E+00 5.96672E+01-2.38019E-07 6.31555E-09-4.79623E+01
 -1       125 7.25211E+00 3.75740E+01 1.18044E+02-2.25408E-07 2.76410E-08-1.18825E+01
 -1       126 7.25211E+00 3.75740E+01 1.18044E+02-2.25403E-07 2.76409E-08-1.18825E+01
 -3
    1PSTEP                        47          12           1          
  100CL  112 1.20000E-01         126                     1   12           1
 -4  TOSTRAIN    6    1
 -5  EXX         1    4    1    1
 -5  EYY         1    4    2    2
 -5  EZZ         1    4    3    3
 -5  EXY         1    4    1    2
 -5  EYZ         1    4    2    3
 -5  EZX         1    4    3    1
 -1         1-2.19498E-05-1.78267E-25-1.39282E-02 9.86830E-16-1.97915E-18 7.61620E-03
 -1         2-2.29147E-05-1.18674E-25 1.95607E-03-9.74204E-18-5.52370E-19 6.36336E-03
 -1         3-1.15812E-03 6.03031E-25 2.14818E-03-6.02085E-13 2.81760E-14 2.34795E-03
 -1         4 2.61991E-03 9.49398E-25-1.18036E-02-6.96775E-13 2.40323E-13 2.63661E-03
 -1         5-2.19498E-05-1.78267E-25-1.39282E-02 9.86830E-16-1.97915E-18 7.61620E-03
 -1         6-2.29147E-05-1.18674E-25 1.95607E-03-9.73618E-18-5.51528E-19 6.36336E-03
 -1         7-1.15812E-03 6.03032E-25 2.14818E-03-6.02085E-13 2.81760E-14 2.34795E-03
 -1         8 2.61991E-03 9.49397E-25-1.18036E-02-6.96774E-13 2.40323E-13 2.63661E-03
 -1         9-9.98007E-04 2.62630E-24 2.20992E-03-1.15405E-12 1.05142E-13 2.40166E-03
 -1        10 7.65535E-04 2.28471E-24-7.08311E-03-1.08923E-12-1.89991E-15 1.71914E-03
 -1        11-9.98007E-04 2.62630E-24 2.20992E-03-1.15405E-12 1.05142E-13 2.40166E-03
 -1        12 7.65535E-04 2.28471E-24-7.08311E-03-1.08923E-12-1.89966E-15 1.71914E-03
 -1        13-9.15070E-04 1.40585E-24 2.02956E-03-8.68931E-13 1.59658E-14 1.93160E-03
 -1        14 1.13539E-05 1.03196E-24-2.48912E-03-6.75225E-13-3.54114E-13 1.53416E-03
 -1        15-9.15070E-04 1.40585E-24 2.02956E-03-8.68931E-13 1.59661E-14 1.93160E-03
 -1        16 1.13539E-05 1.03196E-24-2.48912E-03-6.75225E-13-3.54114E-13 1.53416E-03
 -1        17-8.38378E-04 9.32696E-26 1.84134E-03-3.05522E-13-1.10216E-13 1.58439E-03
 -1        18-7.30815E-04 4.92024E-25 1.01527E-03-3.00227E-13-4.35789E-13 1.25668E-03
 -1        19-8.38378E-04 9.32690E-26 1.84134E-03-3.05523E-13-1.10216E-13 1.58439E-03
 -1        20-7.30815E-04 4.92024E-25 1.01527E-03-3.00226E-13-4.35790E-13 1.25668E-03
 -1        21-6.68027E-04-4.43807E-26 1.53813E-03 1.48185E-14 1.34637E-14 1.26102E-03
 -1        22-1.17316E-03 1.43387E-25 3.70354E-03-1.31493E-13-2.91682E-13 1.00846E-03
 -1        23-6.68027E-04-4.43808E-26 1.53813E-03 1.48178E-14 1.34637E-14 1.26102E-03
 -1        24-1.17316E-03 1.43387E-25 3.70354E-03-1.31492E-13-2.91682E-13 1.00846E-03
 -1        25-5.64531E-04 1.11855E-26 1.28187E-03 1.67813E-14 8.27314E-14 1.02194E-03
 -1        26-1.61005E-03-1.78753E-26 5.95109E-03 4.82730E-14-3.47012E-14 7.98146E-04
 -1        27-5.64531E-04 1.11854E-26 1.28187E-03 1.67813E-14 8.27314E-14 1.02194E-03
 -1        28-1.61005E-03-1.78753E-26 5.95109E-03 4.82716E-14-3.47010E-14 7.98146E-04
 -1        29-5.28001E-04 1.00921E-26 1.15770E-03 1.29236E-14 6.79163E-14 6.61201E-04
 -1        30-2.00123E-03 3.33750E-26 7.74460E-03-3.70400E-14 1.50435E-13 5.10699E-04
 -1        31-5.28001E-04 1.00922E-26 1.15770E-03 1.29221E-14 6.79163E-14 6.61201E-04
 -1        32-2.00123E-03 3.33750E-26 7.74460E-03-3.70392E-14 1.50434E-13 5.10699E-04
 -1        33-5.10889E-04-1.14501E-25 1.08880E-03-2.81119E-14 5.76140E-14 2.36999E-04
 -1        34-2.18452E-03 1.23764E-25 8.67183E-03-2.10784E-14 3.51738E-13 1.84892E-04
 -1        35-5.10889E-04-1.14500E-25 1.08880E-03-2.81113E-14 5.76138E-14 2.36999E-04
 -1        36-2.18452E-03 1.23765E-25 8.67183E-03-2.10805E-14 3.51738E-13 1.84892E-04
 -1        37-4.67780E-04 9.75125E-25 1.00950E-03-7.77738E-13 4.49263E-14 4.48787E-05
 -1        38-2.17969E-03 1.27732E-24 8.89248E-03-7.32178E-13 4.72225E-13 4.45246E-05
 -1        39-4.67780E-04 9.75088E-25 1.00950E-03-7.77727E-13 4.49266E-14 4.48787E-05
 -1        40-2.17969E-03 1.27735E-24 8.89248E-03-7.32186E-13 4.72225E-13 4.45246E-05
 -1        41-4.42754E-04 4.31163E-24 9.39510E-04-1.48417E-12 3.09832E-14-2.63301E-04
 -1        42-2.15649E-03 4.24755E-24 8.69144E-03-1.44763E-12 2.94224E-13-1.93545E-04
 -1        43-4.42754E-04 4.31165E-24 9.39510E-04-1.48417E-12 3.09831E-14-2.63301E-04
 -1        44-2.15649E-03 4.24752E-24 8.69144E-03-1.44762E-12 2.94225E-13-1.93545E-04
 -1        45-4.11670E-04 4.62169E-24 8.83286E-04-1.52152E-12 4.73028E-16-1.02217E-03
 -1        46-1.87826E-03 4.67418E-24 7.34565E-03-1.53221E-12-4.88479E-14-7.74348E-04
 -1        47-4.11670E-04 4.62167E-24 8.83286E-04-1.52152E-12 4.73069E-16-1.02217E-03
 -1        48-1.87826E-03 4.67421E-24 7.34565E-03-1.53221E-12-4.88480E-14-7.74348E-04
 -1        49-3.58440E-04 3.05281E-24 8.10236E-04-1.24241E-12-7.58010E-15-1.65718E-03
 -1        50-1.12465E-03 2.93947E-24 4.24061E-03-1.19489E-12-2.57900E-13-1.24964E-03
 -1        51-3.58440E-04 3.05280E-24 8.10236E-04-1.24241E-12-7.57996E-15-1.65718E-03
 -1        52-1.12465E-03 2.93948E-24 4.24061E-03-1.19489E-12-2.57900E-13-1.24964E-03
 -1        53-3.07738E-04 1.89449E-24 7.28645E-04-9.98259E-13-2.23348E-14-1.46235E-03
 -1        54-2.03413E-04 1.92983E-24 4.90182E-04-9.50602E-13-3.32585E-13-1.09675E-03
 -1        55-3.07738E-04 1.89452E-24 7.28645E-04-9.98265E-13-2.23351E-14-1.46235E-03
 -1        56-2.03413E-04 1.92980E-24 4.90182E-04-9.50593E-13-3.32584E-13-1.09675E-03
 -1        57-2.87199E-04 1.92844E-25 6.70456E-04-3.98148E-13-1.67995E-14-5.82383E-04
 -1        58 3.54736E-04 3.34587E-25-1.89725E-03-3.59403E-13-3.05721E-13-4.40891E-04
 -1        59-2.87199E-04 1.92845E-25 6.70456E-04-3.98149E-13-1.67996E-14-5.82383E-04
 -1        60 3.54736E-04 3.34591E-25-1.89725E-03-3.59402E-13-3.05721E-13-4.40891E-04
 -1        61-2.72456E-04-2.39313E-26 6.24915E-04 2.65245E-14-6.61879E-14 2.53158E-04
 -1        62 3.66459E-04-6.27296E-27-2.07314E-03-5.10936E-15-1.24133E-13 1.83259E-04
 -1        63-2.72456E-04-2.39327E-26 6.24915E-04 2.65289E-14-6.61880E-14 2.53158E-04
 -1        64 3.66459E-04-6.27151E-27-2.07314E-03-5.11163E-15-1.24133E-13 1.83259E-04
 -1        65-2.29013E-04-1.41254E-26 5.86974E-04-5.10339E-14-7.71625E-14 5.54749E-04
 -1        66 9.93917E-05 4.54244E-26-8.42604E-04-1.86057E-13 8.30874E-14 4.12958E-04
 -1        67-2.29013E-04-1.41274E-26 5.86974E-04-5.10283E-14-7.71628E-14 5.54749E-04
 -1        68 9.93917E-05 4.54276E-26-8.42604E-04-1.86064E-13 8.30871E-14 4.12958E-04
 -1        69-2.40137E-04 2.67717E-25 5.58794E-04-4.06497E-13 8.62377E-15 3.31845E-04
 -1        70-2.09986E-04 4.19738E-25 3.84130E-04-4.29731E-13 2.05489E-13 2.53387E-04
 -1        71-2.40137E-04 2.67717E-25 5.58794E-04-4.06497E-13 8.62391E-15 3.31845E-04
 -1        72-2.09986E-04 4.19746E-25 3.84130E-04-4.29735E-13 2.05489E-13 2.53387E-04
 -1        73-2.37556E-04 1.06607E-24 4.75704E-04-7.39918E-13 2.77781E-14-1.75829E-05
 -1        74-2.94594E-04 9.69070E-25 7.52912E-04-6.67136E-13 2.27884E-13 1.40140E-05
 -1        75-2.37556E-04 1.06607E-24 4.75704E-04-7.39916E-13 2.77777E-14-1.75829E-05
 -1        76-2.94594E-04 9.69080E-25 7.52912E-04-6.67139E-13 2.27884E-13 1.40140E-05
 -1        77-1.35319E-04 1.25290E-24 4.49384E-04-7.92889E-13 2.39240E-14-1.35621E-04
 -1        78-1.38161E-04 1.17431E-24 4.69378E-04-7.45108E-13 2.11877E-13-7.68319E-05
 -1        79-1.35319E-04 1.25290E-24 4.49384E-04-7.92888E-13 2.39238E-14-1.35621E-04
 -1        80-1.38161E-04 1.17430E-24 4.69378E-04-7.45105E-13 2.11877E-13-7.68319E-05
 -1        81-7.67922E-05 1.38924E-24 4.90518E-04-8.35327E-13 6.33017E-14-1.37555E-04
 -1        82-5.47684E-05 2.21666E-24 2.56065E-04-1.03061E-12 2.68542E-13-2.12858E-04
 -1        83-7.67922E-05 1.38926E-24 4.90518E-04-8.35334E-13 6.33023E-14-1.37555E-04
 -1        84-5.47684E-05 2.21662E-24 2.56065E-04-1.03060E-12 2.68542E-13-2.12858E-04
 -1        85-2.38796E-05-1.48305E-25 1.83780E-02-9.92305E-16 9.48594E-19 8.89451E-03
 -1        86-4.93615E-03 7.84191E-25 1.61614E-02-6.45551E-13-1.84766E-13 2.93672E-03
 -1        87-2.38796E-05-1.48305E-25 1.83780E-02-9.92349E-16 9.42306E-19 8.89451E-03
 -1        88-4.93615E-03 7.84189E-25 1.61614E-02-6.45550E-13-1.84765E-13 2.93672E-03
 -1        89-2.76155E-03 2.07572E-24 1.13366E-02-1.02570E-12 3.46910E-14 1.66000E-03
 -1        90-2.76155E-03 2.07572E-24 1.13366E-02-1.02570E-12 3.46908E-14 1.66000E-03
 -1        91-1.84149E-03 1.90000E-24 6.57915E-03-9.56905E-13 2.68185E-13 1.50081E-03
 -1        92-1.84149E-03 1.89999E-24 6.57915E-03-9.56901E-13 2.68185E-13 1.50081E-03
 -1        93-9.45941E-04 3.17431E-25 2.65757E-03-3.86511E-13 2.78832E-13 1.19633E-03
 -1        94-9.45941E-04 3.17435E-25 2.65757E-03-3.86513E-13 2.78832E-13 1.19633E-03
 -1        95-1.62890E-04 6.22975E-26-5.90618E-04 5.06445E-14 2.30546E-13 9.36952E-04
 -1        96-1.62890E-04 6.22967E-26-5.90618E-04 5.06434E-14 2.30546E-13 9.36952E-04
 -1        97 4.80984E-04 5.00880E-26-3.32309E-03-5.69972E-14 1.61399E-13 7.61674E-04
 -1        98 4.80984E-04 5.00882E-26-3.32309E-03-5.69997E-14 1.61399E-13 7.61674E-04
 -1        99 9.45229E-04-1.40343E-26-5.39113E-03 1.00948E-14 3.04575E-14 4.97712E-04
 -1       100 9.45229E-04-1.40344E-26-5.39113E-03 1.00902E-14 3.04576E-14 4.97712E-04
 -1       101 1.16274E-03 6.24515E-27-6.46785E-03-6.53726E-14-2.55550E-13 1.69749E-04
 -1       102 1.16274E-03 6.23587E-27-6.46785E-03-6.53679E-14-2.55549E-13 1.69749E-04
 -1       103 1.24413E-03 1.31541E-24-6.83819E-03-7.82553E-13-4.05397E-13 2.51677E-05
 -1       104 1.24413E-03 1.31546E-24-6.83819E-03-7.82570E-13-4.05398E-13 2.51677E-05
 -1       105 1.27098E-03 4.22749E-24-6.79265E-03-1.46175E-12-1.88260E-13-2.10339E-04
 -1       106 1.27098E-03 4.22744E-24-6.79265E-03-1.46173E-12-1.88259E-13-2.10339E-04
 -1       107 1.05492E-03 4.13041E-24-5.57398E-03-1.44100E-12 6.40259E-14-7.96303E-04
 -1       108 1.05492E-03 4.13045E-24-5.57398E-03-1.44100E-12 6.40255E-14-7.96303E-04
 -1       109 4.07774E-04 2.94547E-24-2.59659E-03-1.20980E-12 1.52448E-13-1.27926E-03
 -1       110 4.07774E-04 2.94546E-24-2.59659E-03-1.20980E-12 1.52448E-13-1.27926E-03
 -1       111-4.12063E-04 2.28313E-24 9.93687E-04-1.05587E-12 2.74051E-13-1.12382E-03
 -1       112-4.12063E-04 2.28316E-24 9.93687E-04-1.05588E-12 2.74052E-13-1.12382E-03
 -1       113-9.29134E-04 5.08129E-25 3.23499E-03-4.59822E-13 3.38395E-13-4.56601E-04
 -1       114-9.29134E-04 5.08114E-25 3.23499E-03-4.59818E-13 3.38395E-13-4.56601E-04
 -1       115-9.11370E-04-4.02189E-26 3.33028E-03-2.48235E-14 1.06754E-13 1.66333E-04
 -1       116-9.11370E-04-4.02190E-26 3.33028E-03-2.48296E-14 1.06754E-13 1.66333E-04
 -1       117-5.57418E-04 4.61459E-26 2.07085E-03 1.01756E-14-2.07755E-13 3.92135E-04
 -1       118-5.57418E-04 4.61443E-26 2.07085E-03 1.01821E-14-2.07755E-13 3.92135E-04
 -1       119-2.70288E-04 3.04098E-25 7.57033E-04-3.26652E-13-2.98580E-13 2.17571E-04
 -1       120-2.70288E-04 3.04084E-25 7.57033E-04-3.26646E-13-2.98580E-13 2.17571E-04
 -1       121-1.80518E-04 1.15390E-24 1.56116E-04-7.60745E-13-1.50021E-13-6.56772E-05
 -1       122-1.80518E-04 1.15391E-24 1.56116E-04-7.60751E-13-1.50020E-13-6.56772E-05
 -1       123-1.32478E-04 1.19313E-24 1.68117E-04-7.73571E-13 2.29225E-14-1.54882E-04
 -1       124-1.32478E-04 1.19315E-24 1.68117E-04-7.73576E-13 2.29224E-14-1.54882E-04
 -1       125-9.88160E-05 1.08415E-24 2.61654E-04-7.32280E-13 9.22419E-14-3.73845E-05
 -1       126-9.88160E-05 1.08411E-24 2.61654E-04-7.32265E-13 9.22416E-14-3.73845E-05
 -3
    1PSTEP                        48          12           1          
  100CL  112 1.20000E-01         126                     1   12           1
 -4  ERROR       1    1
 -5  STR(%)      1    1    0    0
 -1         1 7.29715E+01
 -1         2 7.29715E+01
 -1         3 7.35782E+01
 -1         4 7.35782E+01
 -1         5 7.29715E+01
 -1         6 7.29715E+01
 -1         7 7.35782E+01
 -1         8 7.35782E+01
 -1         9 7.35782E+01
 -1        10 7.35782E+01
 -1        11 7.35782E+01
 -1        12 7.35782E+01
 -1        13 7.02699E+01
 -1        14 7.02699E+01
 -1        15 7.02699E+01
 -1        16 7.02699E+01
 -1        17 5.85513E+01
 -1        18 5.85513E+01
 -1        19 5.85513E+01
 -1        20 5.85513E+01
 -1        21 9.68168E+01
 -1        22 3.88106E+01
 -1        23 9.68168E+01
 -1        24 3.88106E+01
 -1        25 9.68168E+01
 -1        26 4.90635E+01
 -1        27 9.68168E+01
 -1        28 4.90635E+01
 -1        29 8.06315E+01
 -1        30 5.14826E+01
 -1        31 8.06315E+01
 -1        32 5.14826E+01
 -1        33 7.48542E+01
 -1        34 5.16177E+01
 -1        35 7.48542E+01
 -1        36 5.16177E+01
 -1        37 7.01091E+01
 -1        38 5.23864E+01
 -1        39 7.01091E+01
 -1        40 5.23864E+01
 -1        41 7.20209E+01
 -1        42 5.34091E+01
 -1        43 7.20209E+01
 -1        44 5.34091E+01
 -1        45 7.20209E+01
 -1        46 5.34091E+01
 -1        47 7.20209E+01
 -1        48 5.34091E+01
 -1        49 6.60089E+01
 -1        50 4.81782E+01
 -1        51 6.60089E+01
 -1        52 4.81782E+01
 -1        53 5.00226E+01
 -1        54 4.61521E+01
 -1        55 5.00226E+01
 -1        56 4.61521E+01
 -1        57 7.61900E+01
 -1        58 7.61900E+01
 -1        59 7.61900E+01
 -1        60 7.61900E+01
 -1        61 7.61900E+01
 -1        62 7.61900E+01
 -1        63 7.61900E+01
 -1        64 7.61900E+01
 -1        65 7.42006E+01
 -1        66 7.42006E+01
 -1        67 7.42006E+01
 -1        68 7.42006E+01
 -1        69 4.97078E+01
 -1        70 4.97078E+01
 -1        71 4.97078E+01
 -1        72 4.97078E+01
 -1        73 4.16660E+01
 -1        74 1.71432E+01
 -1        75 4.16660E+01
 -1        76 1.71432E+01
 -1        77 4.16660E+01
 -1        78 2.56475E+01
 -1        79 4.16660E+01
 -1        80 2.56475E+01
 -1        81 2.56475E+01
 -1        82 2.56475E+01
 -1        83 2.56475E+01
 -1        84 2.56475E+01
 -1        85 5.68355E+01
 -1        86 5.68355E+01
 -1        87 5.68355E+01
 -1        88 5.68355E+01
 -1        89 4.72722E+01
 -1        90 4.72722E+01
 -1        91 4.11113E+01
 -1        92 4.11113E+01
 -1        93 2.92579E+01
 -1        94 2.92579E+01
 -1        95 9.68168E+01
 -1        96 9.68168E+01
 -1        97 9.68168E+01
 -1        98 9.68168E+01
 -1        99 8.06315E+01
 -1       100 8.06315E+01
 -1       101 7.48542E+01
 -1       102 7.48542E+01
 -1       103 7.01091E+01
 -1       104 7.01091E+01
 -1       105 7.20209E+01
 -1       106 7.20209E+01
 -1       107 7.20209E+01
 -1       108 7.20209E+01
 -1       109 6.60089E+01
 -1       110 6.60089E+01
 -1       111 5.00226E+01
 -1       112 5.00226E+01
 -1       113 4.74714E+01
 -1       114 4.74714E+01
 -1       115 4.74714E+01
 -1       116 4.74714E+01
 -1       117 4.32578E+01
 -1       118 4.32578E+01
 -1       119 3.63441E+01
 -1       120 3.63441E+01
 -1       121 4.16660E+01
 -1       122 4.16660E+01
 -1       123 4.16660E+01
 -1       124 4.16660E+01
 -1       125 1.96810E+01
 -1       126 1.96810E+01
 -3
    1PSTEP                        49          13           1          
  100CL  113 1.30000E-01         126                     1   13           1
 -4  DISP        4    1
 -5  D1          1    2    1    0
 -5  D2          1    2    2    0
 -5  D3          1    2    3    0
 -5  ALL         1    2    0    0    1ALL
 -1         1 0.00000E+00 0.00000E+00 0.00000E+00
 -1         2 0.00000E+00 0.00000E+00 0.00000E+00
 -1         3 6.49640E-04 0.00000E+00 8.94275E-05
 -1         4 8.02578E-04 0.00000E+00-7.50469E-04
 -1         5 0.00000E+00 0.00000E+00 0.00000E+00
 -1         6 0.00000E+00 0.00000E+00 0.00000E+00
 -1         7 6.49640E-04 0.00000E+00 8.94275E-05
 -1         8 8.02578E-04 0.00000E+00-7.50469E-04
 -1         9 2.16439E-03 0.00000E+00 1.88386E-04
 -1        10 2.19258E-03 0.00000E+00-1.28880E-03
 -1        11 2.16439E-03 0.00000E+00 1.88386E-04
 -1        12 2.19258E-03 0.00000E+00-1.28880E-03
 -1        13 4.09910E-03 0.00000E+00 2.59849E-04
 -1        14 4.08226E-03 0.00000E+00-1.58296E-03
 -1        15 4.09910E-03 0.00000E+00 2.59849E-04
 -1        16 4.08226E-03 0.00000E+00-1.58296E-03
 -1        17 6.24274E-03 0.00000E+00 3.08427E-04
 -1        18 6.18267E-03 0.00000E+00-1.69015E-03
 -1        19 6.24274E-03 0.00000E+00 3.08427E-04
 -1        20 6.18267E-03 0.00000E+00-1.69015E-03
 -1        21 8.42699E-03 0.00000E+00 3.49178E-04
 -1        22 8.33543E-03 0.00000E+00-1.63688E-03
 -1        23 8.42699E-03 0.00000E+00 3.49178E-04
 -1        24 8.33543E-03 0.00000E+00-1.63688E-03
 -1        25 1.04968E-02 0.00000E+00 3.88028E-04
 -1        26 1.03909E-02 0.00000E+00-1.44569E-03
 -1        27 1.04968E-02 0.00000E+00 3.88028E-04
 -1        28 1.03909E-02 0.00000E+00-1.44569E-03
 -1        29 1.23246E-02 0.00000E+00 4.28023E-04
 -1        30 1.22046E-02 0.00000E+00-1.13585E-03
 -1        31 1.23246E-02 0.00000E+00 4.28023E-04
 -1        32 1.22046E-02 0.00000E+00-1.13585E-03
 -1        33 1.38023E-02 0.00000E+00 4.73752E-04
 -1        34 1.36783E-02 0.00000E+00-7.26800E-04
 -1        35 1.38023E-02 0.00000E+00 4.73752E-04
 -1        36 1.36783E-02 0.00000E+00-7.26800E-04
 -1        37 1.48162E-02 0.00000E+00 5.27800E-04
 -1        38 1.46970E-02 0.00000E+00-2.63351E-04
 -1        39 1.48162E-02 0.00000E+00 5.27800E-04
 -1        40 1.46970E-02 0.00000E+00-2.63351E-04
 -1        41 1.53766E-02 0.00000E+00 5.83807E-04
 -1        42 1.52734E-02 0.00000E+00 1.95248E-04
 -1        43 1.53766E-02 0.00000E+00 5.83807E-04
 -1        44 1.52734E-02 0.00000E+00 1.95248E-04
 -1        45 1.55445E-02 0.00000E+00 6.34275E-04
 -1        46 1.54488E-02 0.00000E+00 6.28167E-04
 -1        47 1.55445E-02 0.00000E+00 6.34275E-04
 -1        48 1.54488E-02 0.00000E+00 6.28167E-04
 -1        49 1.52955E-02 0.00000E+00 6.76816E-04
 -1        50 1.52175E-02 0.00000E+00 1.01515E-03
 -1        51 1.52955E-02 0.00000E+00 6.76816E-04
 -1        52 1.52175E-02 0.00000E+00 1.01515E-03
 -1        53 1.46475E-02 0.00000E+00 7.11911E-04
 -1        54 1.46027E-02 0.00000E+00 1.27927E-03
 -1        55 1.46475E-02 0.00000E+00 7.11911E-04
 -1        56 1.46027E-02 0.00000E+00 1.27927E-03
 -1        57 1.38236E-02 0.00000E+00 7.42387E-04
 -1        58 1.38264E-02 0.00000E+00 1.34533E-03
 -1        59 1.38236E-02 0.00000E+00 7.42387E-04
 -1        60 1.38264E-02 0.00000E+00 1.34533E-03
 -1        61 1.31447E-02 0.00000E+00 7.71400E-04
 -1        62 1.31731E-02 0.00000E+00 1.23933E-03
 -1        63 1.31447E-02 0.00000E+00 7.71400E-04
 -1        64 1.31731E-02 0.00000E+00 1.23933E-03
 -1        65 1.27825E-02 0.00000E+00 8.01350E-04
 -1        66 1.28096E-02 0.00000E+00 1.08478E-03
 -1        67 1.27825E-02 0.00000E+00 8.01350E-04
 -1        68 1.28096E-02 0.00000E+00 1.08478E-03
 -1        69 1.26504E-02 0.00000E+00 8.30764E-04
 -1        70 1.26611E-02 0.00000E+00 9.87401E-04
 -1        71 1.26504E-02 0.00000E+00 8.30764E-04
 -1        72 1.26611E-02 0.00000E+00 9.87401E-04
 -1        73 1.25808E-02 0.00000E+00 8.54776E-04
 -1        74 1.25872E-02 0.00000E+00 9.61900E-04
 -1        75 1.25808E-02 0.00000E+00 8.54776E-04
 -1        76 1.25872E-02 0.00000E+00 9.61900E-04
 -1        77 1.24920E-02 0.00000E+00 8.77567E-04
 -1        78 1.24929E-02 0.00000E+00 9.73867E-04
 -1        79 1.24920E-02 0.00000E+00 8.77567E-04
 -1        80 1.24929E-02 0.00000E+00 9.73867E-04
 -1        81 1.23908E-02 0.00000E+00 9.02497E-04
 -1        82 1.23901E-02 0.00000E+00 9.86123E-04
 -1        83 1.23908E-02 0.00000E+00 9.02497E-04
 -1        84 1.23901E-02 0.00000E+00 9.86123E-04
 -1        85 0.00000E+00 0.00000E+00 0.00000E+00
 -1        86 9.29957E-04 0.00000E+00 9.45794E-04
 -1        87 0.00000E+00 0.00000E+00 0.00000E+00
 -1        88 9.29957E-04 0.00000E+00 9.45794E-04
 -1        89 2.35176E-03 0.00000E+00 1.65731E-03
 -1        90 2.35176E-03 0.00000E+00 1.65731E-03
 -1        91 4.24785E-03 0.00000E+00 2.08994E-03
 -1        92 4.24785E-03 0.00000E+00 2.08994E-03
 -1        93 6.35204E-03 0.00000E+00 2.30108E-03
 -1        94 6.35204E-03 0.00000E+00 2.30108E-03
 -1        95 8.50055E-03 0.00000E+00 2.33238E-03
 -1        96 8.50055E-03 0.00000E+00 2.33238E-03
 -1        97 1.05353E-02 0.00000E+00 2.22076E-03
 -1        98 1.05353E-02 0.00000E+00 2.22076E-03
 -1        99 1.23254E-02 0.00000E+00 1.99423E-03
 -1       100 1.23254E-02 0.00000E+00 1.99423E-03
 -1       101 1.37761E-02 0.00000E+00 1.67743E-03
 -1       102 1.37761E-02 0.00000E+00 1.67743E-03
 -1       103 1.47759E-02 0.00000E+00 1.31905E-03
 -1       104 1.47759E-02 0.00000E+00 1.31905E-03
 -1       105 1.53338E-02 0.00000E+00 9.69565E-04
 -1       106 1.53338E-02 0.00000E+00 9.69565E-04
 -1       107 1.54986E-02 0.00000E+00 6.36999E-04
 -1       108 1.54986E-02 0.00000E+00 6.36999E-04
 -1       109 1.52629E-02 0.00000E+00 3.35293E-04
 -1       110 1.52629E-02 0.00000E+00 3.35293E-04
 -1       111 1.46500E-02 0.00000E+00 1.42123E-04
 -1       112 1.46500E-02 0.00000E+00 1.42123E-04
 -1       113 1.38690E-02 0.00000E+00 1.37972E-04
 -1       114 1.38690E-02 0.00000E+00 1.37972E-04
 -1       115 1.32093E-02 0.00000E+00 3.03291E-04
 -1       116 1.32093E-02 0.00000E+00 3.03291E-04
 -1       117 1.28415E-02 0.00000E+00 5.17520E-04
 -1       118 1.28415E-02 0.00000E+00 5.17520E-04
 -1       119 1.26887E-02 0.00000E+00 6.68819E-04
 -1       120 1.26887E-02 0.00000E+00 6.68819E-04
 -1       121 1.25995E-02 0.00000E+00 7.39318E-04
 -1       122 1.25995E-02 0.00000E+00 7.39318E-04
 -1       123 1.25040E-02 0.00000E+00 7.72516E-04
 -1       124 1.25040E-02 0.00000E+00 7.72516E-04
 -1       125 1.23979E-02 0.00000E+00 7.91564E-04
 -1       126 1.23979E-02 0.00000E+00 7.91564E-04
 -3
    1PSTEP                        50          13           1          
  100CL  113 1.30000E-01         126                     1   13           1
 -4  STRESS      6    1
 -5  SXX         1    4    1    1
 -5  SYY         1    4    2    2
 -5  SZZ         1    4    3    3
 -5  SXY         1    4    1    2
 -5  SYZ         1    4    2    3
 -5  SZX         1    4    3    1
 -1         1-3.39061E+03-3.45975E+03-7.88965E+03 3.35166E-10-2.51107E-10 2.35073E+03
 -1         2 4.72240E+02 4.31778E+02 9.51416E+02-1.77250E-11-2.87243E-10 2.00766E+03
 -1         3-4.87373E+01 2.34860E+02 8.31201E+02-1.01769E-07 1.22990E-08 7.30488E+02
 -1         4-1.15179E+03-2.17731E+03-5.98854E+03-7.82125E-08 7.87920E-08 7.28789E+02
 -1         5-3.39061E+03-3.45975E+03-7.88965E+03 3.35166E-10-2.51107E-10 2.35073E+03
 -1         6 4.72240E+02 4.31778E+02 9.51416E+02-1.77232E-11-2.87243E-10 2.00766E+03
 -1         7-4.87373E+01 2.34860E+02 8.31201E+02-1.01769E-07 1.22990E-08 7.30488E+02
 -1         8-1.15179E+03-2.17731E+03-5.98854E+03-7.82125E-08 7.87919E-08 7.28789E+02
 -1         9-3.02071E+01 2.65192E+02 9.11983E+02-2.58705E-07-1.14616E-08 7.91850E+02
 -1        10-1.22257E+03-1.56681E+03-3.94828E+03-2.38273E-07 1.34605E-07 4.51579E+02
 -1        11-3.02071E+01 2.65192E+02 9.11983E+02-2.58705E-07-1.14617E-08 7.91850E+02
 -1        12-1.22257E+03-1.56681E+03-3.94828E+03-2.38273E-07 1.34605E-07 4.51579E+02
 -1        13-5.24203E+00 2.42992E+02 8.19458E+02-4.30289E-07 5.53088E-09 6.41954E+02
 -1        14-5.20428E+02-6.63453E+02-1.67982E+03-4.28776E-07 9.50627E-08 4.43860E+02
 -1        15-5.24203E+00 2.42992E+02 8.19458E+02-4.30288E-07 5.53089E-09 6.41954E+02
 -1        16-5.20428E+02-6.63453E+02-1.67982E+03-4.28777E-07 9.50626E-08 4.43860E+02
 -1        17-1.49434E+01 2.15438E+02 7.38299E+02-4.07396E-07 3.54651E-08 5.35481E+02
 -1        18-9.88901E+01-8.69153E+00 7.37214E+01-4.03900E-07-1.08917E-08 3.97941E+02
 -1        19-1.49434E+01 2.15438E+02 7.38299E+02-4.07398E-07 3.54650E-08 5.35481E+02
 -1        20-9.88901E+01-8.69153E+00 7.37214E+01-4.03899E-07-1.08918E-08 3.97941E+02
 -1        21-3.37538E+01 1.93627E+02 6.83348E+02-1.97713E-07 8.52254E-09 4.54371E+02
 -1        22 2.38575E+02 5.27729E+02 1.53302E+03-1.85786E-07-8.98274E-08 3.91852E+02
 -1        23-3.37538E+01 1.93627E+02 6.83348E+02-1.97712E-07 8.52251E-09 4.54371E+02
 -1        24 2.38575E+02 5.27729E+02 1.53302E+03-1.85787E-07-8.98276E-08 3.91852E+02
 -1        25-2.78667E+01 1.79789E+02 6.28650E+02-7.94309E-09-1.30105E-08 3.69164E+02
 -1        26 5.76275E+02 9.94898E+02 2.76999E+03-3.03863E-08-1.42725E-07 3.54735E+02
 -1        27-2.78667E+01 1.79789E+02 6.28650E+02-7.94281E-09-1.30104E-08 3.69164E+02
 -1        28 5.76275E+02 9.94898E+02 2.76999E+03-3.03864E-08-1.42725E-07 3.54735E+02
 -1        29-3.88738E+01 1.59658E+02 5.69535E+02 1.38391E-07-1.57619E-08 2.80205E+02
 -1        30 7.74884E+02 1.34276E+03 3.75119E+03 9.69805E-08-1.32238E-07 2.96272E+02
 -1        31-3.88738E+01 1.59658E+02 5.69535E+02 1.38392E-07-1.57620E-08 2.80205E+02
 -1        32 7.74884E+02 1.34276E+03 3.75119E+03 9.69797E-08-1.32238E-07 2.96272E+02
 -1        33-5.27814E+01 1.45137E+02 5.33448E+02 2.84313E-07 7.48220E-09 1.41635E+02
 -1        34 9.19315E+02 1.58033E+03 4.41635E+03 2.40955E-07-1.57944E-08 1.84996E+02
 -1        35-5.27814E+01 1.45137E+02 5.33448E+02 2.84313E-07 7.48221E-09 1.41635E+02
 -1        36 9.19315E+02 1.58033E+03 4.41635E+03 2.40956E-07-1.57943E-08 1.84996E+02
 -1        37-6.59540E+01 1.31516E+02 4.99398E+02 2.14338E-07 2.09026E-08-8.03149E+00
 -1        38 9.48867E+02 1.63717E+03 4.57949E+03 1.63671E-07 1.55504E-07 4.90543E+01
 -1        39-6.59540E+01 1.31516E+02 4.99398E+02 2.14340E-07 2.09027E-08-8.03149E+00
 -1        40 9.48867E+02 1.63717E+03 4.57949E+03 1.63669E-07 1.55504E-07 4.90543E+01
 -1        41-5.09202E+01 1.21171E+02 4.48679E+02-1.30759E-07 1.07844E-08-6.90008E+01
 -1        42 9.73434E+02 1.59518E+03 4.40864E+03-1.29353E-07 2.20753E-07-2.63813E+01
 -1        43-5.09202E+01 1.21171E+02 4.48679E+02-1.30760E-07 1.07843E-08-6.90008E+01
 -1        44 9.73434E+02 1.59518E+03 4.40864E+03-1.29351E-07 2.20753E-07-2.63813E+01
 -1        45-4.53974E+01 1.01634E+02 3.80455E+02-4.53514E-07 9.26689E-09-1.38591E+02
 -1        46 8.67406E+02 1.45143E+03 4.02594E+03-4.25409E-07 1.10661E-07-1.06489E+02
 -1        47-4.53974E+01 1.01634E+02 3.80455E+02-4.53513E-07 9.26696E-09-1.38591E+02
 -1        48 8.67406E+02 1.45143E+03 4.02594E+03-4.25412E-07 1.10661E-07-1.06489E+02
 -1        49-3.07672E+01 9.06961E+01 3.33379E+02-4.17900E-07 1.27524E-08-3.35700E+02
 -1        50 6.93209E+02 1.15721E+03 3.20262E+03-4.23223E-07-5.36691E-08-2.72024E+02
 -1        51-3.07672E+01 9.06961E+01 3.33379E+02-4.17900E-07 1.27524E-08-3.35700E+02
 -1        52 6.93209E+02 1.15721E+03 3.20262E+03-4.23224E-07-5.36689E-08-2.72024E+02
 -1        53-2.70041E+01 8.25436E+01 3.04615E+02-1.82098E-07 1.91189E-08-5.17702E+02
 -1        54 3.47798E+02 5.92070E+02 1.64062E+03-1.95599E-07-1.25535E-07-4.04230E+02
 -1        55-2.70041E+01 8.25436E+01 3.04615E+02-1.82100E-07 1.91189E-08-5.17702E+02
 -1        56 3.47798E+02 5.92070E+02 1.64062E+03-1.95601E-07-1.25535E-07-4.04230E+02
 -1        57-1.16988E+01 8.22907E+01 2.88979E+02-4.69871E-10 4.39437E-09-4.57102E+02
 -1        58 1.13543E+01-3.87487E+01-1.36226E+02-9.16038E-09-1.16534E-07-3.44108E+02
 -1        59-1.16988E+01 8.22907E+01 2.88979E+02-4.69874E-10 4.39427E-09-4.57102E+02
 -1        60 1.13543E+01-3.87487E+01-1.36226E+02-9.15857E-09-1.16534E-07-3.44108E+02
 -1        61-1.43036E+01 7.63781E+01 2.71169E+02 1.69023E-07 3.60737E-09-1.63235E+02
 -1        62-2.53940E+02-4.47204E+02-1.23013E+03 1.50616E-07-5.75319E-08-1.19778E+02
 -1        63-1.43036E+01 7.63781E+01 2.71169E+02 1.69025E-07 3.60726E-09-1.63235E+02
 -1        64-2.53940E+02-4.47204E+02-1.23013E+03 1.50612E-07-5.75319E-08-1.19778E+02
 -1        65-2.20148E+01 7.03462E+01 2.57122E+02 1.63069E-07-3.44473E-09 1.11472E+02
 -1        66-2.76760E+02-4.49026E+02-1.21467E+03 1.57600E-07 2.01080E-08 8.69486E+01
 -1        67-2.20148E+01 7.03462E+01 2.57122E+02 1.63071E-07-3.44481E-09 1.11472E+02
 -1        68-2.76760E+02-4.49026E+02-1.21467E+03 1.57599E-07 2.01082E-08 8.69486E+01
 -1        69-2.21984E+01 6.14217E+01 2.27152E+02 5.00405E-08-3.99546E-08 1.79638E+02
 -1        70-1.64941E+02-2.32185E+02-6.07477E+02 5.12212E-08 5.84760E-08 1.40175E+02
 -1        71-2.21984E+01 6.14217E+01 2.27152E+02 5.00400E-08-3.99547E-08 1.79638E+02
 -1        72-1.64941E+02-2.32185E+02-6.07477E+02 5.12207E-08 5.84758E-08 1.40175E+02
 -1        73 4.30207E+01 8.04278E+01 2.25359E+02-6.13200E-08-3.93736E-08 9.87179E+01
 -1        74 3.92309E+01-7.54334E-01-4.16156E+01-7.83190E-08 8.56801E-08 7.07537E+01
 -1        75 4.30207E+01 8.04278E+01 2.25359E+02-6.13183E-08-3.93735E-08 9.87179E+01
 -1        76 3.92309E+01-7.54334E-01-4.16156E+01-7.83176E-08 8.56803E-08 7.07537E+01
 -1        77 5.14443E+01 8.52296E+01 2.32883E+02-2.26362E-07 2.74549E-09 1.74019E+01
 -1        78 6.67316E+01 6.07799E+01 1.35926E+02-2.62740E-07 1.21646E-07-7.03163E+00
 -1        79 5.14443E+01 8.52296E+01 2.32883E+02-2.26365E-07 2.74554E-09 1.74019E+01
 -1        80 6.67316E+01 6.07799E+01 1.35926E+02-2.62740E-07 1.21646E-07-7.03163E+00
 -1        81 7.45002E+01 9.79185E+01 2.52155E+02-3.78436E-07 2.79562E-08-1.20853E+01
 -1        82 4.97534E+01 5.38193E+01 1.29737E+02-3.44472E-07 1.25329E-07-5.90553E+01
 -1        83 7.45002E+01 9.79185E+01 2.52155E+02-3.78435E-07 2.79562E-08-1.20853E+01
 -1        84 4.97534E+01 5.38193E+01 1.29737E+02-3.44472E-07 1.25328E-07-5.90553E+01
 -1        85 4.45777E+03 4.36360E+03 1.05086E+04-4.51076E-10-3.71799E-10 3.03670E+03
 -1        86 1.01406E+03 2.63623E+03 7.99603E+03-1.25551E-07-6.23840E-08 1.07551E+03
 -1        87 4.45777E+03 4.36360E+03 1.05086E+04-4.51090E-10-3.71800E-10 3.03670E+03
 -1        88 1.01406E+03 2.63623E+03 7.99603E+03-1.25551E-07-6.23840E-08 1.07551E+03
 -1        89 1.03040E+03 2.00344E+03 5.77238E+03-2.93690E-07-9.60877E-08 6.70032E+02
 -1        90 1.03040E+03 2.00344E+03 5.77238E+03-2.93690E-07-9.60874E-08 6.70032E+02
 -1        91 4.74389E+02 1.13849E+03 3.36916E+03-3.72626E-07-3.02400E-08 5.85091E+02
 -1        92 4.74389E+02 1.13849E+03 3.36916E+03-3.72627E-07-3.02402E-08 5.85091E+02
 -1        93 5.51109E+01 4.47020E+02 1.44873E+03-3.65645E-07 9.42635E-08 4.42612E+02
 -1        94 5.51109E+01 4.47020E+02 1.44873E+03-3.65643E-07 9.42635E-08 4.42612E+02
 -1        95-3.23139E+02-1.41267E+02-1.44341E+02-1.77654E-07 1.41269E-07 3.37665E+02
 -1        96-3.23139E+02-1.41267E+02-1.44341E+02-1.77656E-07 1.41269E-07 3.37665E+02
 -1        97-6.44329E+02-6.34148E+02-1.46183E+03 2.04117E-08 1.21455E-07 2.29108E+02
 -1        98-6.44329E+02-6.34148E+02-1.46183E+03 2.04116E-08 1.21455E-07 2.29108E+02
 -1        99-8.63501E+02-1.02284E+03-2.52638E+03 1.30923E-07 8.78047E-08 1.39210E+02
 -1       100-8.63501E+02-1.02284E+03-2.52638E+03 1.30921E-07 8.78049E-08 1.39210E+02
 -1       101-1.04302E+03-1.30088E+03-3.25997E+03 2.90996E-07 1.77436E-08 3.91490E+01
 -1       102-1.04302E+03-1.30088E+03-3.25997E+03 2.90995E-07 1.77435E-08 3.91490E+01
 -1       103-1.10228E+03-1.39121E+03-3.49754E+03 1.70762E-07-1.04105E-07-5.65823E+01
 -1       104-1.10228E+03-1.39121E+03-3.49754E+03 1.70762E-07-1.04105E-07-5.65823E+01
 -1       105-1.08956E+03-1.36416E+03-3.42225E+03-1.14921E-07-1.78175E-07-8.29310E+01
 -1       106-1.08956E+03-1.36416E+03-3.42225E+03-1.14920E-07-1.78175E-07-8.29310E+01
 -1       107-9.66154E+02-1.25209E+03-3.17571E+03-4.23430E-07-8.88966E-08-1.15636E+02
 -1       108-9.66154E+02-1.25209E+03-3.17571E+03-4.23433E-07-8.88967E-08-1.15636E+02
 -1       109-7.63011E+02-9.77986E+02-2.47491E+03-3.86369E-07 7.37477E-08-2.46677E+02
 -1       110-7.63011E+02-9.77986E+02-2.47491E+03-3.86368E-07 7.37477E-08-2.46677E+02
 -1       111-4.13624E+02-4.29788E+02-1.01103E+03-1.56728E-07 1.41584E-07-3.86823E+02
 -1       112-4.13624E+02-4.29788E+02-1.01103E+03-1.56729E-07 1.41584E-07-3.86823E+02
 -1       113-4.24623E+01 2.03350E+02 7.26989E+02-1.13414E-08 1.23467E-07-3.61752E+02
 -1       114-4.24623E+01 2.03350E+02 7.26989E+02-1.13422E-08 1.23467E-07-3.61752E+02
 -1       115 2.23655E+02 6.01480E+02 1.79514E+03 1.59586E-07 6.11773E-08-1.48433E+02
 -1       116 2.23655E+02 6.01480E+02 1.79514E+03 1.59584E-07 6.11774E-08-1.48433E+02
 -1       117 2.20783E+02 5.78408E+02 1.71893E+03 1.10937E-07-4.12563E-08 6.82174E+01
 -1       118 2.20783E+02 5.78408E+02 1.71893E+03 1.10939E-07-4.12563E-08 6.82174E+01
 -1       119 1.02547E+02 3.37015E+02 1.02543E+03 1.14224E-08-1.21072E-07 1.25025E+02
 -1       120 1.02547E+02 3.37015E+02 1.02543E+03 1.14234E-08-1.21072E-07 1.25025E+02
 -1       121 3.91004E+01 1.53828E+02 4.74709E+02-5.11795E-08-1.59946E-07 7.09276E+01
 -1       122 3.91004E+01 1.53828E+02 4.74709E+02-5.11827E-08-1.59946E-07 7.09276E+01
 -1       123-7.41946E+00 6.60005E+01 2.27681E+02-1.96562E-07-1.48136E-07 1.28240E+01
 -1       124-7.41946E+00 6.60005E+01 2.27681E+02-1.96560E-07-1.48136E-07 1.28240E+01
 -1       125 1.37790E+01 5.64633E+01 1.74559E+02-3.62177E-07-1.16874E-07 1.46142E+01
 -1       126 1.37790E+01 5.64633E+01 1.74559E+02-3.62174E-07-1.16874E-07 1.46142E+01
 -3
    1PSTEP                        51          13           1          
  100CL  113 1.30000E-01         126                     1   13           1
 -4  TOSTRAIN    6    1
 -5  EXX         1    4    1    1
 -5  EYY         1    4    2    2
 -5  EZZ         1    4    3    3
 -5  EXY         1    4    1    2
 -5  EYZ         1    4    2    3
 -5  EZX         1    4    3    1
 -1         1-2.43470E-05-4.20438E-26-1.47919E-02 8.77009E-16-2.06196E-18 8.02562E-03
 -1         2-2.56594E-05-3.39467E-26 1.84880E-03 5.09059E-17-5.13679E-19 6.49625E-03
 -1         3-1.13923E-03 1.43280E-25 2.13765E-03-3.31771E-13 3.44049E-14 2.31077E-03
 -1         4 3.18526E-03 1.82254E-25-1.25640E-02-2.60198E-13 2.56411E-13 2.70558E-03
 -1         5-2.43470E-05-4.20438E-26-1.47919E-02 8.77009E-16-2.06196E-18 8.02562E-03
 -1         6-2.56594E-05-3.39467E-26 1.84880E-03 5.09117E-17-5.12832E-19 6.49625E-03
 -1         7-1.13923E-03 1.43281E-25 2.13765E-03-3.31771E-13 3.44049E-14 2.31077E-03
 -1         8 3.18526E-03 1.82254E-25-1.25640E-02-2.60198E-13 2.56411E-13 2.70558E-03
 -1         9-1.16318E-03 1.27270E-24 2.30043E-03-8.39579E-13-6.19282E-14 2.46403E-03
 -1        10 9.90920E-04 1.41315E-24-7.74614E-03-7.90222E-13 4.18878E-13 1.75864E-03
 -1        11-1.16318E-03 1.27270E-24 2.30043E-03-8.39578E-13-6.19283E-14 2.46403E-03
 -1        12 9.90920E-04 1.41316E-24-7.74614E-03-7.90223E-13 4.18878E-13 1.75864E-03
 -1        13-9.81755E-04 3.85090E-24 2.03223E-03-1.39861E-12-3.33161E-14 1.97134E-03
 -1        14 3.39803E-04 3.98094E-24-3.20808E-03-1.40629E-12 2.58614E-13 1.58952E-03
 -1        15-9.81755E-04 3.85090E-24 2.03223E-03-1.39861E-12-3.33160E-14 1.97134E-03
 -1        16 3.39803E-04 3.98095E-24-3.20808E-03-1.40629E-12 2.58614E-13 1.58952E-03
 -1        17-8.96017E-04 3.45551E-24 1.82975E-03-1.32834E-12 6.21857E-14 1.62878E-03
 -1        18-4.02266E-04 3.33463E-24 3.66334E-04-1.31058E-12-8.77690E-14 1.26523E-03
 -1        19-8.96017E-04 3.45554E-24 1.82975E-03-1.32834E-12 6.21853E-14 1.62878E-03
 -1        20-4.02266E-04 3.33461E-24 3.66334E-04-1.31058E-12-8.77692E-14 1.26523E-03
 -1        21-8.62397E-04 6.38976E-25 1.70135E-03-6.43442E-13 2.15882E-15 1.37305E-03
 -1        22-1.04094E-03 7.19936E-25 3.33395E-03-5.91007E-13-3.14297E-13 1.09328E-03
 -1        23-8.62397E-04 6.38975E-25 1.70135E-03-6.43441E-13 2.15875E-15 1.37305E-03
 -1        24-1.04094E-03 7.19945E-25 3.33395E-03-5.91011E-13-3.14298E-13 1.09328E-03
 -1        25-7.72677E-04-1.59774E-25 1.54961E-03-2.41765E-14-4.32018E-14 1.11332E-03
 -1        26-1.44557E-03 3.03710E-25 5.77332E-03-8.08190E-14-4.63643E-13 8.75895E-04
 -1        27-7.72677E-04-1.59774E-25 1.54961E-03-2.41755E-14-4.32014E-14 1.11332E-03
 -1        28-1.44557E-03 3.03708E-25 5.77332E-03-8.08192E-14-4.63643E-13 8.75895E-04
 -1        29-7.19644E-04 2.92395E-25 1.40657E-03 4.51359E-13-3.71121E-14 8.43459E-04
 -1        30-1.91143E-03 4.20743E-25 7.75775E-03 3.28595E-13-4.15426E-13 6.46253E-04
 -1        31-7.19644E-04 2.92398E-25 1.40657E-03 4.51361E-13-3.71122E-14 8.43459E-04
 -1        32-1.91143E-03 4.20739E-25 7.75775E-03 3.28593E-13-4.15426E-13 6.46253E-04
 -1        33-6.92798E-04 1.66942E-24 1.31434E-03 9.23403E-13 4.64858E-14 4.12314E-04
 -1        34-2.19383E-03 1.11664E-24 9.07887E-03 7.82965E-13-3.21270E-14 3.20661E-04
 -1        35-6.92798E-04 1.66942E-24 1.31434E-03 9.23403E-13 4.64858E-14 4.12314E-04
 -1        36-2.19383E-03 1.11666E-24 9.07887E-03 7.82971E-13-3.21267E-14 3.20661E-04
 -1        37-6.68086E-04 7.05070E-25 1.22978E-03 6.95675E-13 7.87780E-14-5.51994E-05
 -1        38-2.26069E-03 7.77770E-25 9.39427E-03 5.22997E-13 5.07309E-13-2.74971E-05
 -1        39-6.68086E-04 7.05075E-25 1.22978E-03 6.95680E-13 7.87782E-14-5.51994E-05
 -1        40-2.26069E-03 7.77759E-25 9.39427E-03 5.22990E-13 5.07309E-13-2.74971E-05
 -1        41-5.77172E-04-1.63687E-25 1.09433E-03-4.25366E-13 3.15586E-14-2.36395E-04
 -1        42-2.03598E-03 8.66560E-25 8.98589E-03-4.25102E-13 7.05528E-13-1.69076E-04
 -1        43-5.77172E-04-1.63682E-25 1.09433E-03-4.25372E-13 3.15584E-14-2.36395E-04
 -1        44-2.03598E-03 8.66545E-25 8.98589E-03-4.25096E-13 7.05528E-13-1.69076E-04
 -1        45-5.01316E-04 4.14059E-24 9.35088E-04-1.47429E-12 2.99385E-14-4.49735E-04
 -1        46-1.91621E-03 3.83000E-24 8.23658E-03-1.38049E-12 3.55453E-13-3.40718E-04
 -1        47-5.01316E-04 4.14058E-24 9.35088E-04-1.47429E-12 2.99387E-14-4.49735E-04
 -1        48-1.91621E-03 3.83005E-24 8.23658E-03-1.38050E-12 3.55452E-13-3.40718E-04
 -1        49-4.33299E-04 3.58938E-24 8.21949E-04-1.35807E-12 5.06946E-14-1.08059E-03
 -1        50-1.53772E-03 3.70026E-24 6.57306E-03-1.37542E-12-1.63641E-13-8.18129E-04
 -1        51-4.33299E-04 3.58938E-24 8.21949E-04-1.35807E-12 5.06945E-14-1.08059E-03
 -1        52-1.53772E-03 3.70027E-24 6.57306E-03-1.37543E-12-1.63640E-13-8.18129E-04
 -1        53-4.08716E-04 4.88568E-25 7.64820E-04-5.90992E-13 6.88425E-14-1.66642E-03
 -1        54-8.32079E-04 9.09027E-25 3.40622E-03-6.40928E-13-3.98873E-13-1.25675E-03
 -1        55-4.08716E-04 4.88589E-25 7.64820E-04-5.90999E-13 6.88423E-14-1.66642E-03
 -1        56-8.32079E-04 9.09038E-25 3.40622E-03-6.40933E-13-3.98872E-13-1.25675E-03
 -1        57-3.52431E-04-1.58187E-25 7.08643E-04-1.30898E-15 1.42942E-14-1.47038E-03
 -1        58 1.29614E-04 1.25981E-25-2.95228E-04-3.51225E-14-3.78472E-13-1.12125E-03
 -1        59-3.52431E-04-1.58189E-25 7.08643E-04-1.30900E-15 1.42938E-14-1.47038E-03
 -1        60 1.29614E-04 1.25983E-25-2.95228E-04-3.51166E-14-3.78472E-13-1.12125E-03
 -1        61-3.17920E-04 5.44266E-25 6.48100E-04 5.49501E-13 6.60969E-15-5.20691E-04
 -1        62 6.11392E-04 4.75763E-25-2.54701E-03 4.87774E-13-1.92188E-13-4.19958E-04
 -1        63-3.17920E-04 5.44273E-25 6.48100E-04 5.49505E-13 6.60928E-15-5.20691E-04
 -1        64 6.11392E-04 4.75742E-25-2.54701E-03 4.87762E-13-1.92188E-13-4.19958E-04
 -1        65-3.03820E-04 5.33115E-25 6.07828E-04 5.29969E-13-1.41855E-14 3.66838E-04
 -1        66 5.58003E-04 5.01351E-25-2.50136E-03 5.12750E-13 6.26686E-14 2.65592E-04
 -1        67-3.03820E-04 5.33126E-25 6.07828E-04 5.29974E-13-1.41858E-14 3.66838E-04
 -1        68 5.58003E-04 5.01350E-25-2.50136E-03 5.12749E-13 6.26692E-14 2.65592E-04
 -1        69-2.70447E-04 1.08793E-26 5.36312E-04 1.62377E-13-1.30303E-13 5.85579E-04
 -1        70 2.20053E-04 4.21614E-26-1.22529E-03 1.66946E-13 1.89817E-13 4.52184E-04
 -1        71-2.70447E-04 1.08797E-26 5.36312E-04 1.62376E-13-1.30303E-13 5.85579E-04
 -1        72 2.20053E-04 4.21630E-26-1.22529E-03 1.66944E-13 1.89817E-13 4.52184E-04
 -1        73-1.20731E-04-1.36067E-26 4.69348E-04-1.99482E-13-1.27458E-13 3.21671E-04
 -1        74 1.30656E-04 1.36311E-25-1.33871E-04-2.54026E-13 2.79026E-13 2.29613E-04
 -1        75-1.20731E-04-1.36121E-26 4.69348E-04-1.99476E-13-1.27458E-13 3.21671E-04
 -1        76 1.30656E-04 1.36306E-25-1.33871E-04-2.54021E-13 2.79027E-13 2.29613E-04
 -1        77-1.09640E-04 9.22202E-25 4.79113E-04-7.35603E-13 1.03957E-14 5.76827E-05
 -1        78 1.92474E-05 1.64340E-24 2.44191E-04-8.52987E-13 3.96837E-13-2.23898E-05
 -1        79-1.09640E-04 9.22229E-25 4.79113E-04-7.35612E-13 1.03959E-14 5.76827E-05
 -1        80 1.92474E-05 1.64341E-24 2.44191E-04-8.52989E-13 3.96836E-13-2.23898E-05
 -1        81-7.62678E-05 2.90365E-24 5.00758E-04-1.22957E-12 9.31871E-14-3.80556E-05
 -1        82-1.39999E-05 2.77863E-24 2.47260E-04-1.11858E-12 4.09033E-13-1.91327E-04
 -1        83-7.62678E-05 2.90363E-24 5.00758E-04-1.22956E-12 9.31870E-14-3.80556E-05
 -1        84-1.39999E-05 2.77862E-24 2.47260E-04-1.11858E-12 4.09031E-13-1.91327E-04
 -1        85-2.69718E-05-6.45514E-26 1.92402E-02-9.25503E-16 8.75252E-19 9.29939E-03
 -1        86-5.46373E-03 3.03244E-25 1.69815E-02-4.03032E-13-2.04915E-13 2.98717E-03
 -1        87-2.69718E-05-6.45513E-26 1.92402E-02-9.25547E-16 8.68930E-19 9.29939E-03
 -1        88-5.46373E-03 3.03243E-25 1.69815E-02-4.03032E-13-2.04915E-13 2.98717E-03
 -1        89-3.31728E-03 1.91050E-24 1.20636E-02-9.42777E-13-3.34854E-13 1.66983E-03
 -1        90-3.31728E-03 1.91050E-24 1.20636E-02-9.42777E-13-3.34854E-13 1.66983E-03
 -1        91-2.30331E-03 2.90477E-24 7.26019E-03-1.20582E-12-1.41270E-13 1.52305E-03
 -1        92-2.30331E-03 2.90479E-24 7.26019E-03-1.20582E-12-1.41271E-13 1.52305E-03
 -1        93-1.38977E-03 2.92039E-24 3.33277E-03-1.20070E-12 2.57674E-13 1.24216E-03
 -1        94-1.38977E-03 2.92038E-24 3.33277E-03-1.20070E-12 2.57675E-13 1.24216E-03
 -1        95-6.83858E-04 8.97009E-25 7.34100E-05-5.96617E-13 4.35951E-13 1.06950E-03
 -1        96-6.83858E-04 8.97023E-25 7.34100E-05-5.96624E-13 4.35950E-13 1.06950E-03
 -1        97-9.97823E-05 1.63653E-25-2.64231E-03 5.12300E-14 3.98361E-13 8.44056E-04
 -1        98-9.97823E-05 1.63648E-25-2.64231E-03 5.12295E-14 3.98360E-13 8.44056E-04
 -1        99 4.72140E-04 4.15196E-25-4.89062E-03 4.16732E-13 3.00637E-13 6.26604E-04
 -1       100 4.72140E-04 4.15184E-25-4.89062E-03 4.16724E-13 3.00637E-13 6.26604E-04
 -1       101 8.08239E-04 1.70009E-24-6.42338E-03 9.45871E-13 8.11309E-14 3.03658E-04
 -1       102 8.08239E-04 1.70007E-24-6.42338E-03 9.45866E-13 8.11307E-14 3.03658E-04
 -1       103 9.24514E-04 5.91148E-25-6.92792E-03 5.61442E-13-3.32912E-13-6.18174E-05
 -1       104 9.24514E-04 5.91152E-25-6.92792E-03 5.61442E-13-3.32912E-13-6.18174E-05
 -1       105 8.81640E-04 5.10489E-25-6.76843E-03-3.70051E-13-5.87744E-13-2.14922E-04
 -1       106 8.81640E-04 5.10488E-25-6.76843E-03-3.70049E-13-5.87744E-13-2.14922E-04
 -1       107 9.13577E-04 3.70600E-24-6.31858E-03-1.37883E-12-2.91645E-13-3.81570E-04
 -1       108 9.13577E-04 3.70606E-24-6.31858E-03-1.37884E-12-2.91645E-13-3.81570E-04
 -1       109 6.71121E-04 3.11093E-24-4.89557E-03-1.25547E-12 2.50054E-13-8.47269E-04
 -1       110 6.71121E-04 3.11092E-24-4.89557E-03-1.25547E-12 2.50054E-13-8.47269E-04
 -1       111 1.46463E-05 7.49038E-25-1.87181E-03-5.03428E-13 4.67280E-13-1.28285E-03
 -1       112 1.46463E-05 7.49044E-25-1.87181E-03-5.03429E-13 4.67280E-13-1.28285E-03
 -1       113-8.34477E-04 1.77643E-25 1.71851E-03-3.11379E-14 4.00827E-13-1.14312E-03
 -1       114-8.34477E-04 1.77649E-25 1.71851E-03-3.11404E-14 4.00827E-13-1.14312E-03
 -1       115-1.24723E-03 5.29883E-25 3.85886E-03 5.20585E-13 1.93036E-13-4.31532E-04
 -1       116-1.24723E-03 5.29869E-25 3.85886E-03 5.20576E-13 1.93036E-13-4.31532E-04
 -1       117-1.16564E-03 2.34476E-25 3.67711E-03 3.59747E-13-1.35446E-13 2.48627E-04
 -1       118-1.16564E-03 2.34482E-25 3.67711E-03 3.59752E-13-1.35446E-13 2.48627E-04
 -1       119-7.60948E-04 2.45016E-25 2.22354E-03 3.61459E-14-3.92480E-13 4.13798E-04
 -1       120-7.60948E-04 2.45015E-25 2.22354E-03 3.61493E-14-3.92480E-13 4.13798E-04
 -1       121-3.72118E-04 4.96223E-25 1.03920E-03-1.67297E-13-5.18762E-13 2.32909E-04
 -1       122-3.72118E-04 4.96236E-25 1.03920E-03-1.67308E-13-5.18762E-13 2.32909E-04
 -1       123-2.38527E-04 1.10895E-24 5.24624E-04-6.39859E-13-4.79779E-13 4.31883E-05
 -1       124-2.38527E-04 1.10894E-24 5.24624E-04-6.39855E-13-4.79779E-13 4.31883E-05
 -1       125-1.38536E-04 2.88530E-24 3.83266E-04-1.17790E-12-3.77032E-13 4.86068E-05
 -1       126-1.38536E-04 2.88526E-24 3.83266E-04-1.17789E-12-3.77032E-13 4.86068E-05
 -3
    1PSTEP                        52          13           1          
  100CL  113 1.30000E-01         126                     1   13           1
 -4  ERROR       1    1
 -5  STR(%)      1    1    0    0
 -1         1 7.27412E+01
 -1         2 7.27412E+01
 -1         3 7.53381E+01
 -1         4 7.53381E+01
 -1         5 7.27412E+01
 -1         6 7.27412E+01
 -1         7 7.53381E+01
 -1         8 7.53381E+01
 -1         9 7.53381E+01
 -1        10 7.53381E+01
 -1        11 7.53381E+01
 -1        12 7.53381E+01
 -1        13 7.44525E+01
 -1        14 7.44525E+01
 -1        15 7.44525E+01
 -1        16 7.44525E+01
 -1        17 6.90159E+01
 -1        18 6.90159E+01
 -1        19 6.90159E+01
 -1        20 6.90159E+01
 -1        21 5.46841E+01
 -1        22 3.25048E+01
 -1        23 5.46841E+01
 -1        24 3.25048E+01
 -1        25 7.67467E+01
 -1        26 4.47144E+01
 -1        27 7.67467E+01
 -1        28 4.47144E+01
 -1        29 7.74710E+01
 -1        30 4.97277E+01
 -1        31 7.74710E+01
 -1        32 4.97277E+01
 -1        33 7.74710E+01
 -1        34 5.00005E+01
 -1        35 7.74710E+01
 -1        36 5.00005E+01
 -1        37 7.01463E+01
 -1        38 5.06497E+01
 -1        39 7.01463E+01
 -1        40 5.06497E+01
 -1        41 7.01463E+01
 -1        42 5.16314E+01
 -1        43 7.01463E+01
 -1        44 5.16314E+01
 -1        45 7.10975E+01
 -1        46 5.26540E+01
 -1        47 7.10975E+01
 -1        48 5.26540E+01
 -1        49 7.10975E+01
 -1        50 5.26540E+01
 -1        51 7.10975E+01
 -1        52 5.26540E+01
 -1        53 5.83882E+01
 -1        54 4.52529E+01
 -1        55 5.83882E+01
 -1        56 4.52529E+01
 -1        57 6.09480E+01
 -1        58 6.09480E+01
 -1        59 6.09480E+01
 -1        60 6.09480E+01
 -1        61 7.63690E+01
 -1        62 7.63690E+01
 -1        63 7.63690E+01
 -1        64 7.63690E+01
 -1        65 7.63690E+01
 -1        66 7.63690E+01
 -1        67 7.63690E+01
 -1        68 7.63690E+01
 -1        69 7.50175E+01
 -1        70 7.50175E+01
 -1        71 7.50175E+01
 -1        72 7.50175E+01
 -1        73 5.72656E+01
 -1        74 5.72656E+01
 -1        75 5.72656E+01
 -1        76 5.72656E+01
 -1        77 2.29069E+01
 -1        78 2.29069E+01
 -1        79 2.29069E+01
 -1        80 2.29069E+01
 -1        81 1.88694E+01
 -1        82 1.88694E+01
 -1        83 1.88694E+01
 -1        84 1.88694E+01
 -1        85 5.80941E+01
 -1        86 5.80941E+01
 -1        87 5.80941E+01
 -1        88 5.80941E+01
 -1        89 4.86655E+01
 -1        90 4.86655E+01
 -1        91 4.29167E+01
 -1        92 4.29167E+01
 -1        93 2.89417E+01
 -1        94 2.89417E+01
 -1        95 5.46841E+01
 -1        96 5.46841E+01
 -1        97 7.67467E+01
 -1        98 7.67467E+01
 -1        99 7.74710E+01
 -1       100 7.74710E+01
 -1       101 7.74710E+01
 -1       102 7.74710E+01
 -1       103 7.01463E+01
 -1       104 7.01463E+01
 -1       105 7.01463E+01
 -1       106 7.01463E+01
 -1       107 7.10975E+01
 -1       108 7.10975E+01
 -1       109 7.10975E+01
 -1       110 7.10975E+01
 -1       111 5.83882E+01
 -1       112 5.83882E+01
 -1       113 4.27973E+01
 -1       114 4.27973E+01
 -1       115 5.09955E+01
 -1       116 5.09955E+01
 -1       117 5.09955E+01
 -1       118 5.09955E+01
 -1       119 4.57508E+01
 -1       120 4.57508E+01
 -1       121 2.98349E+01
 -1       122 2.98349E+01
 -1       123 1.30989E+01
 -1       124 1.30989E+01
 -1       125 1.17684E+01
 -1       126 1.17684E+01
 -3
    1PSTEP                        53          14           1          
  100CL  114 1.40000E-01         126                     1   14           1
 -4  DISP        4    1
 -5  D1          1    2    1    0
 -5  D2          1    2    2    0
 -5  D3          1    2    3    0
 -5  ALL         1    2    0    0    1ALL
 -1         1 0.00000E+00 0.00000E+00 0.00000E+00
 -1         2 0.00000E+00 0.00000E+00 0.00000E+00
 -1         3 6.82646E-04 0.00000E+00 7.37435E-05
 -1         4 8.51132E-04 0.00000E+00-8.09495E-04
 -1         5 0.00000E+00 0.00000E+00 0.00000E+00
 -1         6 0.00000E+00 0.00000E+00 0.00000E+00
 -1         7 6.82646E-04 0.00000E+00 7.37435E-05
 -1         8 8.51132E-04 0.00000E+00-8.09495E-04
 -1         9 2.24506E-03 0.00000E+00 1.47352E-04
 -1        10 2.29267E-03 0.00000E+00-1.40675E-03
 -1        11 2.24506E-03 0.00000E+00 1.47352E-04
 -1        12 2.29267E-03 0.00000E+00-1.40675E-03
 -1        13 4.26803E-03 0.00000E+00 2.05537E-04
 -1        14 4.26066E-03 0.00000E+00-1.75328E-03
 -1        15 4.26803E-03 0.00000E+00 2.05537E-04
 -1        16 4.26066E-03 0.00000E+00-1.75328E-03
 -1        17 6.56682E-03 0.00000E+00 2.51851E-04
 -1        18 6.51123E-03 0.00000E+00-1.90470E-03
 -1        19 6.56682E-03 0.00000E+00 2.51851E-04
 -1        20 6.51123E-03 0.00000E+00-1.90470E-03
 -1        21 8.93827E-03 0.00000E+00 2.91656E-04
 -1        22 8.84548E-03 0.00000E+00-1.87806E-03
 -1        23 8.93827E-03 0.00000E+00 2.91656E-04
 -1        24 8.84548E-03 0.00000E+00-1.87806E-03
 -1        25 1.12148E-02 0.00000E+00 3.36770E-04
 -1        26 1.10963E-02 0.00000E+00-1.69068E-03
 -1        27 1.12148E-02 0.00000E+00 3.36770E-04
 -1        28 1.10963E-02 0.00000E+00-1.69068E-03
 -1        29 1.32428E-02 0.00000E+00 3.89555E-04
 -1        30 1.31164E-02 0.00000E+00-1.37627E-03
 -1        31 1.32428E-02 0.00000E+00 3.89555E-04
 -1        32 1.31164E-02 0.00000E+00-1.37627E-03
 -1        33 1.49310E-02 0.00000E+00 4.45514E-04
 -1        34 1.48044E-02 0.00000E+00-9.72688E-04
 -1        35 1.49310E-02 0.00000E+00 4.45514E-04
 -1        36 1.48044E-02 0.00000E+00-9.72688E-04
 -1        37 1.62109E-02 0.00000E+00 5.02579E-04
 -1        38 1.60886E-02 0.00000E+00-5.03569E-04
 -1        39 1.62109E-02 0.00000E+00 5.02579E-04
 -1        40 1.60886E-02 0.00000E+00-5.03569E-04
 -1        41 1.69939E-02 0.00000E+00 5.61112E-04
 -1        42 1.68833E-02 0.00000E+00-1.03391E-05
 -1        43 1.69939E-02 0.00000E+00 5.61112E-04
 -1        44 1.68833E-02 0.00000E+00-1.03391E-05
 -1        45 1.73128E-02 0.00000E+00 6.18336E-04
 -1        46 1.72173E-02 0.00000E+00 4.52800E-04
 -1        47 1.73128E-02 0.00000E+00 6.18336E-04
 -1        48 1.72173E-02 0.00000E+00 4.52800E-04
 -1        49 1.72474E-02 0.00000E+00 6.71391E-04
 -1        50 1.71632E-02 0.00000E+00 8.68663E-04
 -1        51 1.72474E-02 0.00000E+00 6.71391E-04
 -1        52 1.71632E-02 0.00000E+00 8.68663E-04
 -1        53 1.68002E-02 0.00000E+00 7.16959E-04
 -1        54 1.67359E-02 0.00000E+00 1.21993E-03
 -1        55 1.68002E-02 0.00000E+00 7.16959E-04
 -1        56 1.67359E-02 0.00000E+00 1.21993E-03
 -1        57 1.60089E-02 0.00000E+00 7.51709E-04
 -1        58 1.59822E-02 0.00000E+00 1.43671E-03
 -1        59 1.60089E-02 0.00000E+00 7.51709E-04
 -1        60 1.59822E-02 0.00000E+00 1.43671E-03
 -1        61 1.51061E-02 0.00000E+00 7.80685E-04
 -1        62 1.51216E-02 0.00000E+00 1.45649E-03
 -1        63 1.51061E-02 0.00000E+00 7.80685E-04
 -1        64 1.51216E-02 0.00000E+00 1.45649E-03
 -1        65 1.43892E-02 0.00000E+00 8.08646E-04
 -1        66 1.44338E-02 0.00000E+00 1.30911E-03
 -1        67 1.43892E-02 0.00000E+00 8.08646E-04
 -1        68 1.44338E-02 0.00000E+00 1.30911E-03
 -1        69 1.40182E-02 0.00000E+00 8.33708E-04
 -1        70 1.40664E-02 0.00000E+00 1.10919E-03
 -1        71 1.40182E-02 0.00000E+00 8.33708E-04
 -1        72 1.40664E-02 0.00000E+00 1.10919E-03
 -1        73 1.39297E-02 0.00000E+00 8.58649E-04
 -1        74 1.39573E-02 0.00000E+00 9.71986E-04
 -1        75 1.39297E-02 0.00000E+00 8.58649E-04
 -1        76 1.39573E-02 0.00000E+00 9.71986E-04
 -1        77 1.39442E-02 0.00000E+00 8.82139E-04
 -1        78 1.39544E-02 0.00000E+00 9.24879E-04
 -1        79 1.39442E-02 0.00000E+00 8.82139E-04
 -1        80 1.39544E-02 0.00000E+00 9.24879E-04
 -1        81 1.39414E-02 0.00000E+00 9.04671E-04
 -1        82 1.39486E-02 0.00000E+00 9.18591E-04
 -1        83 1.39414E-02 0.00000E+00 9.04671E-04
 -1        84 1.39486E-02 0.00000E+00 9.18591E-04
 -1        85 0.00000E+00 0.00000E+00 0.00000E+00
 -1        86 9.42710E-04 0.00000E+00 9.57757E-04
 -1        87 0.00000E+00 0.00000E+00 0.00000E+00
 -1        88 9.42710E-04 0.00000E+00 9.57757E-04
 -1        89 2.41388E-03 0.00000E+00 1.69199E-03
 -1        90 2.41388E-03 0.00000E+00 1.69199E-03
 -1        91 4.41034E-03 0.00000E+00 2.15781E-03
 -1        92 4.41034E-03 0.00000E+00 2.15781E-03
 -1        93 6.67168E-03 0.00000E+00 2.40519E-03
 -1        94 6.67168E-03 0.00000E+00 2.40519E-03
 -1        95 9.00675E-03 0.00000E+00 2.46392E-03
 -1        96 9.00675E-03 0.00000E+00 2.46392E-03
 -1        97 1.12487E-02 0.00000E+00 2.36772E-03
 -1        98 1.12487E-02 0.00000E+00 2.36772E-03
 -1        99 1.32414E-02 0.00000E+00 2.15696E-03
 -1       100 1.32414E-02 0.00000E+00 2.15696E-03
 -1       101 1.48977E-02 0.00000E+00 1.86420E-03
 -1       102 1.48977E-02 0.00000E+00 1.86420E-03
 -1       103 1.61529E-02 0.00000E+00 1.50841E-03
 -1       104 1.61529E-02 0.00000E+00 1.50841E-03
 -1       105 1.69278E-02 0.00000E+00 1.13107E-03
 -1       106 1.69278E-02 0.00000E+00 1.13107E-03
 -1       107 1.72489E-02 0.00000E+00 7.81558E-04
 -1       108 1.72489E-02 0.00000E+00 7.81558E-04
 -1       109 1.71913E-02 0.00000E+00 4.69805E-04
 -1       110 1.71913E-02 0.00000E+00 4.69805E-04
 -1       111 1.67607E-02 0.00000E+00 2.07670E-04
 -1       112 1.67607E-02 0.00000E+00 2.07670E-04
 -1       113 1.60048E-02 0.00000E+00 6.33417E-05
 -1       114 1.60048E-02 0.00000E+00 6.33417E-05
 -1       115 1.51418E-02 0.00000E+00 1.03689E-04
 -1       116 1.51418E-02 0.00000E+00 1.03689E-04
 -1       117 1.44454E-02 0.00000E+00 3.03702E-04
 -1       118 1.44454E-02 0.00000E+00 3.03702E-04
 -1       119 1.40655E-02 0.00000E+00 5.54300E-04
 -1       120 1.40655E-02 0.00000E+00 5.54300E-04
 -1       121 1.39590E-02 0.00000E+00 7.45828E-04
 -1       122 1.39590E-02 0.00000E+00 7.45828E-04
 -1       123 1.39553E-02 0.00000E+00 8.40028E-04
 -1       124 1.39553E-02 0.00000E+00 8.40028E-04
 -1       125 1.39412E-02 0.00000E+00 8.69639E-04
 -1       126 1.39412E-02 0.00000E+00 8.69639E-04
 -3
    1PSTEP                        54          14           1          
  100CL  114 1.40000E-01         126                     1   14           1
 -4  STRESS      6    1
 -5  SXX         1    4    1    1
 -5  SYY         1    4    2    2
 -5  SZZ         1    4    3    3
 -5  SXY         1    4    1    2
 -5  SYZ         1    4    2    3
 -5  SZX         1    4    3    1
 -1         1-3.65506E+03-3.73270E+03-8.49336E+03 7.93525E-11 3.73251E-11 2.48332E+03
 -1         2 4.07031E+02 3.61549E+02 7.81440E+02-2.04344E-11 1.84614E-10 2.10870E+03
 -1         3 6.15171E+01 2.29826E+02 6.98368E+02 6.26717E-08-1.41484E-08 7.43149E+02
 -1         4-1.24057E+03-2.36898E+03-6.51593E+03 1.66427E-08 3.39703E-08 7.40875E+02
 -1         5-3.65506E+03-3.73270E+03-8.49336E+03 7.93525E-11 3.73251E-11 2.48332E+03
 -1         6 4.07031E+02 3.61549E+02 7.81440E+02-2.04335E-11 1.84614E-10 2.10870E+03
 -1         7 6.15171E+01 2.29826E+02 6.98368E+02 6.26716E-08-1.41484E-08 7.43149E+02
 -1         8-1.24057E+03-2.36898E+03-6.51593E+03 1.66428E-08 3.39703E-08 7.40875E+02
 -1         9 1.21593E+02 2.85479E+02 8.23285E+02-1.19473E-08 7.50145E-09 7.63178E+02
 -1        10-1.23512E+03-1.71268E+03-4.40877E+03-1.39963E-08 8.25374E-08 4.05652E+02
 -1        11 1.21593E+02 2.85479E+02 8.23285E+02-1.19474E-08 7.50144E-09 7.63178E+02
 -1        12-1.23512E+03-1.71268E+03-4.40877E+03-1.39960E-08 8.25374E-08 4.05652E+02
 -1        13 1.21208E+02 2.88431E+02 8.43282E+02-1.97764E-07 2.60817E-08 6.49372E+02
 -1        14-5.69327E+02-8.00230E+02-2.08160E+03-1.90233E-07 1.08664E-07 4.29767E+02
 -1        15 1.21208E+02 2.88431E+02 8.43282E+02-1.97765E-07 2.60817E-08 6.49372E+02
 -1        16-5.69327E+02-8.00230E+02-2.08160E+03-1.90233E-07 1.08664E-07 4.29767E+02
 -1        17 1.38978E+02 2.94491E+02 8.48205E+02-3.57156E-07 3.14039E-08 5.72939E+02
 -1        18-1.04906E+02-8.73981E+01-1.82287E+02-3.23109E-07 3.93954E-08 4.16677E+02
 -1        19 1.38978E+02 2.94491E+02 8.48205E+02-3.57155E-07 3.14039E-08 5.72939E+02
 -1        20-1.04906E+02-8.73981E+01-1.82287E+02-3.23107E-07 3.93958E-08 4.16677E+02
 -1        21 1.29006E+02 2.90711E+02 8.45295E+02-3.18458E-07 2.20514E-08 4.89027E+02
 -1        22 2.79188E+02 5.25037E+02 1.48357E+03-2.99840E-07-1.00138E-07 4.07166E+02
 -1        23 1.29006E+02 2.90711E+02 8.45295E+02-3.18459E-07 2.20516E-08 4.89027E+02
 -1        24 2.79188E+02 5.25037E+02 1.48357E+03-2.99841E-07-1.00138E-07 4.07166E+02
 -1        25 9.84265E+01 2.78746E+02 8.34123E+02-4.38392E-08-3.64959E-09 3.95723E+02
 -1        26 5.66202E+02 1.01117E+03 2.83646E+03-3.32165E-08-1.56182E-07 3.82908E+02
 -1        27 9.84265E+01 2.78746E+02 8.34123E+02-4.38400E-08-3.64959E-09 3.95723E+02
 -1        28 5.66202E+02 1.01117E+03 2.83646E+03-3.32161E-08-1.56182E-07 3.82908E+02
 -1        29 9.94746E+01 2.66870E+02 7.90313E+02 2.13300E-07-5.03767E-09 2.95159E+02
 -1        30 8.13003E+02 1.37539E+03 3.82440E+03 1.87550E-07-1.12123E-07 3.29545E+02
 -1        31 9.94746E+01 2.66870E+02 7.90313E+02 2.13302E-07-5.03766E-09 2.95159E+02
 -1        32 8.13003E+02 1.37539E+03 3.82440E+03 1.87548E-07-1.12123E-07 3.29545E+02
 -1        33 9.62481E+01 2.41506E+02 7.05840E+02 2.80620E-07-2.51394E-08 2.11368E+02
 -1        34 9.85950E+02 1.62409E+03 4.49750E+03 2.80760E-07-5.67339E-08 2.63260E+02
 -1        35 9.62481E+01 2.41506E+02 7.05840E+02 2.80619E-07-2.51393E-08 2.11368E+02
 -1        36 9.85950E+02 1.62409E+03 4.49750E+03 2.80762E-07-5.67339E-08 2.63260E+02
 -1        37 9.33799E+01 2.16736E+02 6.25298E+02 3.06455E-07-2.39376E-08 8.39536E+01
 -1        38 1.07460E+03 1.75373E+03 4.85162E+03 2.71294E-07 2.93032E-09 1.42944E+02
 -1        39 9.33799E+01 2.16736E+02 6.25298E+02 3.06454E-07-2.39376E-08 8.39536E+01
 -1        40 1.07460E+03 1.75373E+03 4.85162E+03 2.71293E-07 2.93030E-09 1.42944E+02
 -1        41 8.55610E+01 1.95787E+02 5.62050E+02 2.45797E-07 8.51156E-09-5.83653E+01
 -1        42 1.07218E+03 1.72712E+03 4.76116E+03 2.40007E-07 9.70110E-08-9.57927E-01
 -1        43 8.55610E+01 1.95787E+02 5.62050E+02 2.45796E-07 8.51158E-09-5.83653E+01
 -1        44 1.07218E+03 1.72712E+03 4.76116E+03 2.40006E-07 9.70110E-08-9.57927E-01
 -1        45 9.41306E+01 1.84933E+02 5.17128E+02 3.69484E-08 2.01294E-08-1.15435E+02
 -1        46 1.00768E+03 1.59007E+03 4.35575E+03 4.68921E-08 1.36366E-07-7.47249E+01
 -1        47 9.41306E+01 1.84933E+02 5.17128E+02 3.69513E-08 2.01293E-08-1.15435E+02
 -1        48 1.00768E+03 1.59007E+03 4.35575E+03 4.68891E-08 1.36366E-07-7.47249E+01
 -1        49 9.15641E+01 1.68875E+02 4.68789E+02-1.31140E-07 1.42044E-08-1.76163E+02
 -1        50 8.75446E+02 1.38636E+03 3.79512E+03-7.92387E-08 6.52904E-08-1.41584E+02
 -1        51 9.15641E+01 1.68875E+02 4.68789E+02-1.31136E-07 1.42044E-08-1.76163E+02
 -1        52 8.75446E+02 1.38636E+03 3.79512E+03-7.92397E-08 6.52903E-08-1.41584E+02
 -1        53 1.10814E+02 1.58826E+02 4.19771E+02-3.60276E-08 9.30092E-09-3.50411E+02
 -1        54 6.71334E+02 1.04215E+03 2.83335E+03-2.20111E-08-3.67879E-08-2.82872E+02
 -1        55 1.10814E+02 1.58826E+02 4.19771E+02-3.60311E-08 9.30117E-09-3.50411E+02
 -1        56 6.71334E+02 1.04215E+03 2.83335E+03-2.20072E-08-3.67881E-08-2.82872E+02
 -1        57 1.26500E+02 1.49969E+02 3.75954E+02 1.12722E-07 2.20853E-08-4.96319E+02
 -1        58 3.50731E+02 4.73855E+02 1.23926E+03 1.08177E-07-5.85678E-08-3.83931E+02
 -1        59 1.26500E+02 1.49969E+02 3.75954E+02 1.12725E-07 2.20852E-08-4.96319E+02
 -1        60 3.50731E+02 4.73855E+02 1.23926E+03 1.08175E-07-5.85677E-08-3.83931E+02
 -1        61 1.16849E+02 1.36485E+02 3.40585E+02 1.25487E-07 8.45358E-09-4.12990E+02
 -1        62-4.07270E+01-1.74216E+02-5.35137E+02 1.43901E-07-4.05960E-08-2.99829E+02
 -1        63 1.16849E+02 1.36485E+02 3.40585E+02 1.25485E-07 8.45352E-09-4.12990E+02
 -1        64-4.07270E+01-1.74216E+02-5.35137E+02 1.43900E-07-4.05960E-08-2.99829E+02
 -1        65 1.08888E+02 1.22117E+02 2.99731E+02 1.67069E-07-6.88901E-09-1.28213E+02
 -1        66-2.75310E+02-5.69977E+02-1.61428E+03 1.45065E-07-1.45981E-08-7.66886E+01
 -1        67 1.08888E+02 1.22117E+02 2.99731E+02 1.67066E-07-6.88905E-09-1.28213E+02
 -1        68-2.75310E+02-5.69977E+02-1.61428E+03 1.45066E-07-1.45980E-08-7.66886E+01
 -1        69 1.33405E+02 1.24287E+02 2.81292E+02 1.96250E-07 4.90093E-09 1.46572E+02
 -1        70-2.45930E+02-5.48362E+02-1.57275E+03 1.58454E-07 4.23383E-08 1.17907E+02
 -1        71 1.33405E+02 1.24287E+02 2.81292E+02 1.96249E-07 4.90077E-09 1.46572E+02
 -1        72-2.45930E+02-5.48362E+02-1.57275E+03 1.58455E-07 4.23384E-08 1.17907E+02
 -1        73 1.04285E+02 1.08591E+02 2.57811E+02 1.15972E-07-7.16565E-09 2.34367E+02
 -1        74-1.26313E+02-2.96999E+02-8.60499E+02 1.11735E-07 9.60553E-08 1.76721E+02
 -1        75 1.04285E+02 1.08591E+02 2.57811E+02 1.15973E-07-7.16573E-09 2.34367E+02
 -1        76-1.26313E+02-2.96999E+02-8.60499E+02 1.11734E-07 9.60554E-08 1.76721E+02
 -1        77 1.01414E+02 1.04118E+02 2.45947E+02-4.85814E-08-4.50401E-08 1.48784E+02
 -1        78-1.32814E+01-7.60872E+01-2.40013E+02-3.58095E-08 1.12602E-07 1.17926E+02
 -1        79 1.01414E+02 1.04118E+02 2.45947E+02-4.85769E-08-4.50401E-08 1.48784E+02
 -1        80-1.32814E+01-7.60872E+01-2.40013E+02-3.58096E-08 1.12602E-07 1.17926E+02
 -1        81 1.43924E+02 1.21083E+02 2.59971E+02-2.48324E-07-7.32885E-08 6.68495E+01
 -1        82 4.78162E+01 3.91243E+00-3.48218E+01-2.50013E-07 1.12342E-07 2.48692E+01
 -1        83 1.43924E+02 1.21083E+02 2.59971E+02-2.48329E-07-7.32883E-08 6.68495E+01
 -1        84 4.78162E+01 3.91243E+00-3.48218E+01-2.50013E-07 1.12341E-07 2.48692E+01
 -1        85 4.51643E+03 4.41886E+03 1.06436E+04-3.55557E-11 1.55045E-10 3.08181E+03
 -1        86 1.31766E+03 2.81251E+03 8.28961E+03 5.97760E-08-5.79652E-08 1.09101E+03
 -1        87 4.51643E+03 4.41886E+03 1.06436E+04-3.55625E-11 1.55044E-10 3.08181E+03
 -1        88 1.31766E+03 2.81251E+03 8.28961E+03 5.97759E-08-5.79652E-08 1.09101E+03
 -1        89 1.39405E+03 2.23792E+03 6.20302E+03 1.18191E-08-1.00687E-07 6.73495E+02
 -1        90 1.39405E+03 2.23792E+03 6.20302E+03 1.18188E-08-1.00687E-07 6.73495E+02
 -1        91 7.81309E+02 1.37310E+03 3.85483E+03-2.16158E-07-9.03227E-08 6.14003E+02
 -1        92 7.81309E+02 1.37310E+03 3.85483E+03-2.16156E-07-9.03224E-08 6.14003E+02
 -1        93 3.61451E+02 6.79498E+02 1.92290E+03-3.21609E-07-6.09072E-09 4.84423E+02
 -1        94 3.61451E+02 6.79498E+02 1.92290E+03-3.21610E-07-6.09107E-09 4.84423E+02
 -1        95-4.08613E+01 5.69809E+01 2.34711E+02-3.30704E-07 1.11559E-07 3.65118E+02
 -1        96-4.08613E+01 5.69809E+01 2.34711E+02-3.30701E-07 1.11559E-07 3.65118E+02
 -1        97-3.98419E+02-4.67146E+02-1.15363E+03-4.48237E-08 1.59672E-07 2.49908E+02
 -1        98-3.98419E+02-4.67146E+02-1.15363E+03-4.48239E-08 1.59672E-07 2.49908E+02
 -1        99-6.40625E+02-8.56694E+02-2.20070E+03 2.01172E-07 1.09037E-07 1.46767E+02
 -1       100-6.40625E+02-8.56694E+02-2.20070E+03 2.01169E-07 1.09037E-07 1.46767E+02
 -1       101-8.12640E+02-1.15134E+03-2.99821E+03 2.41096E-07 2.72062E-08 8.18063E+01
 -1       102-8.12640E+02-1.15134E+03-2.99821E+03 2.41100E-07 2.72057E-08 8.18063E+01
 -1       103-9.02403E+02-1.32834E+03-3.48724E+03 3.10425E-07-5.64890E-08 2.01884E+00
 -1       104-9.02403E+02-1.32834E+03-3.48724E+03 3.10425E-07-5.64892E-08 2.01884E+00
 -1       105-9.12176E+02-1.34238E+03-3.52372E+03 2.28748E-07-1.13209E-07-8.15794E+01
 -1       106-9.12176E+02-1.34238E+03-3.52372E+03 2.28749E-07-1.13208E-07-8.15794E+01
 -1       107-8.31727E+02-1.22890E+03-3.23280E+03 3.55985E-08-9.51229E-08-9.93231E+01
 -1       108-8.31727E+02-1.22890E+03-3.23280E+03 3.55963E-08-9.51230E-08-9.93231E+01
 -1       109-7.08427E+02-1.06039E+03-2.80125E+03-1.24283E-07-1.39162E-09-1.25156E+02
 -1       110-7.08427E+02-1.06039E+03-2.80125E+03-1.24287E-07-1.39165E-09-1.25156E+02
 -1       111-4.59074E+02-7.26806E+02-1.94897E+03-2.30619E-08 8.43530E-08-2.49533E+02
 -1       112-4.59074E+02-7.26806E+02-1.94897E+03-2.30571E-08 8.43528E-08-2.49533E+02
 -1       113-1.02328E+02-1.69050E+02-4.56110E+02 1.08546E-07 7.17207E-08-3.70024E+02
 -1       114-1.02328E+02-1.69050E+02-4.56110E+02 1.08543E-07 7.17207E-08-3.70024E+02
 -1       115 2.58337E+02 4.39116E+02 1.21454E+03 9.59503E-08 3.36948E-08-3.23398E+02
 -1       116 2.58337E+02 4.39116E+02 1.21454E+03 9.59547E-08 3.36949E-08-3.23398E+02
 -1       117 4.81303E+02 8.06354E+02 2.22544E+03 1.73945E-07 2.10812E-08-1.11549E+02
 -1       118 4.81303E+02 8.06354E+02 2.22544E+03 1.73944E-07 2.10813E-08-1.11549E+02
 -1       119 5.23210E+02 8.08587E+02 2.18962E+03 1.97652E-07-2.90132E-08 1.07473E+02
 -1       120 5.23210E+02 8.08587E+02 2.18962E+03 1.97653E-07-2.90131E-08 1.07473E+02
 -1       121 3.44827E+02 5.24612E+02 1.41173E+03 9.43818E-08-1.14681E-07 1.77626E+02
 -1       122 3.44827E+02 5.24612E+02 1.41173E+03 9.43818E-08-1.14681E-07 1.77626E+02
 -1       123 1.65942E+02 2.34355E+02 6.17026E+02-7.67757E-08-2.11752E-07 1.02402E+02
 -1       124 1.65942E+02 2.34355E+02 6.17026E+02-7.67832E-08-2.11752E-07 1.02402E+02
 -1       125 1.39704E+02 1.37966E+02 3.20599E+02-2.95081E-07-2.77070E-07 6.42446E+01
 -1       126 1.39704E+02 1.37966E+02 3.20599E+02-2.95075E-07-2.77071E-07 6.42446E+01
 -3
    1PSTEP                        55          14           1          
  100CL  114 1.40000E-01         126                     1   14           1
 -4  TOSTRAIN    6    1
 -5  EXX         1    4    1    1
 -5  EYY         1    4    2    2
 -5  EZZ         1    4    3    3
 -5  EXY         1    4    1    2
 -5  EYZ         1    4    2    3
 -5  EZX         1    4    3    1
 -1         1-2.70085E-05-2.49834E-27-1.59406E-02 2.99814E-16-3.62440E-19 8.51116E-03
 -1         2-2.76131E-05-1.27879E-26 1.54147E-03-1.12229E-16 6.75405E-19 6.82630E-03
 -1         3-7.71388E-04 6.07165E-26 1.74386E-03 2.04779E-13-4.28720E-14 2.36564E-03
 -1         4 3.51012E-03 8.56157E-27-1.37070E-02 5.18356E-14 1.12919E-13 2.79373E-03
 -1         5-2.70085E-05-2.49834E-27-1.59406E-02 2.99814E-16-3.62440E-19 8.51116E-03
 -1         6-2.76131E-05-1.27879E-26 1.54147E-03-1.12226E-16 6.75830E-19 6.82630E-03
 -1         7-7.71388E-04 6.07164E-26 1.74386E-03 2.04778E-13-4.28720E-14 2.36564E-03
 -1         8 3.51012E-03 8.56165E-27-1.37070E-02 5.18362E-14 1.12919E-13 2.79373E-03
 -1         9-7.39165E-04-9.77088E-26 1.96173E-03-3.96125E-14 2.29967E-14 2.39095E-03
 -1        10 1.42507E-03 7.22323E-26-8.80538E-03-5.47729E-14 2.69943E-13 1.66944E-03
 -1        11-7.39165E-04-9.77088E-26 1.96173E-03-3.96128E-14 2.29967E-14 2.39095E-03
 -1        12 1.42507E-03 7.22317E-26-8.80538E-03-5.47719E-14 2.69943E-13 1.66944E-03
 -1        13-7.33371E-04 7.03262E-25 1.97967E-03-6.45859E-13 5.94777E-14 2.00046E-03
 -1        14 6.16552E-04 9.05473E-25-4.07484E-03-6.33296E-13 3.30752E-13 1.59897E-03
 -1        15-7.33371E-04 7.03270E-25 1.97967E-03-6.45862E-13 5.94775E-14 2.00046E-03
 -1        16 6.16552E-04 9.05473E-25-4.07484E-03-6.33297E-13 3.30751E-13 1.59897E-03
 -1        17-6.75040E-04 2.67406E-24 1.95159E-03-1.16429E-12 5.18935E-14 1.74562E-03
 -1        18-1.81831E-04 2.17015E-24-1.94885E-04-1.05525E-12 8.27937E-14 1.35988E-03
 -1        19-6.75040E-04 2.67405E-24 1.95159E-03-1.16428E-12 5.18937E-14 1.74562E-03
 -1        20-1.81831E-04 2.17013E-24-1.94885E-04-1.05525E-12 8.27952E-14 1.35988E-03
 -1        21-6.69088E-04 1.98462E-24 1.92972E-03-1.03722E-12 2.66577E-14 1.47379E-03
 -1        22-9.12830E-04 1.88976E-24 3.19487E-03-9.58384E-13-3.65801E-13 1.13928E-03
 -1        23-6.69088E-04 1.98463E-24 1.92972E-03-1.03723E-12 2.66580E-14 1.47379E-03
 -1        24-9.12830E-04 1.88976E-24 3.19487E-03-9.58386E-13-3.65801E-13 1.13928E-03
 -1        25-7.00385E-04-2.95501E-25 1.90743E-03-1.41832E-13-1.75326E-14 1.17815E-03
 -1        26-1.54515E-03 2.25404E-25 5.94441E-03-8.62904E-14-5.07432E-13 9.27533E-04
 -1        27-7.00385E-04-2.95504E-25 1.90743E-03-1.41835E-13-1.75327E-14 1.17815E-03
 -1        28-1.54515E-03 2.25404E-25 5.94441E-03-8.62892E-14-5.07432E-13 9.27533E-04
 -1        29-6.28030E-04 7.95784E-25 1.78107E-03 6.93380E-13 8.07516E-15 8.72585E-04
 -1        30-1.90594E-03 8.56412E-25 7.89569E-03 6.21745E-13-3.38988E-13 7.08168E-04
 -1        31-6.28030E-04 7.95805E-25 1.78107E-03 6.93388E-13 8.07549E-15 8.72585E-04
 -1        32-1.90594E-03 8.56396E-25 7.89569E-03 6.21739E-13-3.38988E-13 7.08168E-04
 -1        33-5.34321E-04 1.66369E-24 1.57477E-03 9.14070E-13-5.57338E-14 6.26172E-04
 -1        34-2.13233E-03 1.70850E-24 9.21005E-03 9.16121E-13-1.56438E-13 5.17942E-04
 -1        35-5.34321E-04 1.66369E-24 1.57477E-03 9.14069E-13-5.57338E-14 6.26172E-04
 -1        36-2.13233E-03 1.70852E-24 9.21005E-03 9.16127E-13-1.56438E-13 5.17942E-04
 -1        37-4.44393E-04 1.98690E-24 1.37572E-03 9.97269E-13-5.75096E-14 2.36334E-04
 -1        38-2.24655E-03 1.53039E-24 9.89169E-03 8.79742E-13 2.70196E-14 2.11221E-04
 -1        39-4.44393E-04 1.98689E-24 1.37572E-03 9.97267E-13-5.75096E-14 2.36334E-04
 -1        40-2.24655E-03 1.53038E-24 9.89169E-03 8.79741E-13 2.70195E-14 2.11221E-04
 -1        41-3.83318E-04 1.15523E-24 1.22374E-03 7.98441E-13 3.68349E-14-2.06852E-04
 -1        42-2.14925E-03 1.29953E-24 9.67762E-03 7.75083E-13 3.20041E-13-1.38208E-04
 -1        43-3.83318E-04 1.15523E-24 1.22374E-03 7.98440E-13 3.68350E-14-2.06852E-04
 -1        44-2.14925E-03 1.29952E-24 9.67762E-03 7.75080E-13 3.20040E-13-1.38208E-04
 -1        45-3.14358E-04-1.33684E-25 1.10899E-03 1.19910E-13 6.56451E-14-3.78558E-04
 -1        46-1.90699E-03 2.75690E-25 8.83505E-03 1.50924E-13 4.38402E-13-2.73491E-04
 -1        47-3.14358E-04-1.33672E-25 1.10899E-03 1.19920E-13 6.56450E-14-3.78558E-04
 -1        48-1.90699E-03 2.75680E-25 8.83505E-03 1.50915E-13 4.38403E-13-2.73491E-04
 -1        49-2.76592E-04 2.97155E-25 1.00333E-03-4.25874E-13 4.78043E-14-5.66103E-04
 -1        50-1.67909E-03 1.46013E-25 7.71557E-03-2.56045E-13 2.11080E-13-4.15290E-04
 -1        51-2.76592E-04 2.97138E-25 1.00333E-03-4.25860E-13 4.78044E-14-5.66103E-04
 -1        52-1.67909E-03 1.46015E-25 7.71557E-03-2.56048E-13 2.11079E-13-4.15290E-04
 -1        53-1.98423E-04-3.73718E-26 8.83946E-04-1.16680E-13 3.14370E-14-1.12555E-03
 -1        54-1.23654E-03-2.03308E-26 5.77033E-03-7.28011E-14-1.17861E-13-8.38852E-04
 -1        55-1.98423E-04-3.73663E-26 8.83946E-04-1.16692E-13 3.14379E-14-1.12555E-03
 -1        56-1.23654E-03-2.03349E-26 5.77033E-03-7.27883E-14-1.17862E-13-8.38852E-04
 -1        57-1.31763E-04 2.24393E-25 7.80954E-04 3.67433E-13 6.67184E-14-1.59726E-03
 -1        58-4.40332E-04 2.62133E-25 2.50052E-03 3.48273E-13-1.94453E-13-1.20097E-03
 -1        59-1.31763E-04 2.24406E-25 7.80954E-04 3.67443E-13 6.67179E-14-1.59726E-03
 -1        60-4.40332E-04 2.62124E-25 2.50052E-03 3.48266E-13-1.94452E-13-1.20097E-03
 -1        61-1.10899E-04 3.23873E-25 7.01857E-04 4.08133E-13 2.19471E-14-1.32874E-03
 -1        62 4.00463E-04 4.58725E-25-1.15306E-03 4.65549E-13-1.38380E-13-9.94747E-04
 -1        63-1.10899E-04 3.23861E-25 7.01857E-04 4.08124E-13 2.19470E-14-1.32874E-03
 -1        64 4.00463E-04 4.58716E-25-1.15306E-03 4.65545E-13-1.38380E-13-9.94747E-04
 -1        65-6.63902E-05 5.84418E-25 5.94141E-04 5.42601E-13-2.78415E-14-4.09223E-04
 -1        66 9.41153E-04 4.40802E-25-3.40736E-03 4.71081E-13-5.23902E-14-2.93262E-04
 -1        67-6.63902E-05 5.84400E-25 5.94141E-04 5.42592E-13-2.78416E-14-4.09223E-04
 -1        68 9.41153E-04 4.40807E-25-3.40736E-03 4.71084E-13-5.23897E-14-2.93262E-04
 -1        69 2.37913E-05 7.95813E-25 5.13381E-04 6.37708E-13 1.23024E-14 4.78173E-04
 -1        70 9.79072E-04 5.44579E-25-3.35185E-03 5.15766E-13 1.35279E-13 3.60710E-04
 -1        71 2.37913E-05 7.95808E-25 5.13381E-04 6.37706E-13 1.23019E-14 4.78173E-04
 -1        72 9.79072E-04 5.44587E-25-3.35185E-03 5.15770E-13 1.35279E-13 3.60710E-04
 -1        73-1.46555E-05 1.86408E-25 4.84672E-04 3.76804E-13-2.41891E-14 7.61589E-04
 -1        74 5.54712E-04 3.75689E-25-1.84031E-03 3.63529E-13 3.12029E-13 5.71003E-04
 -1        75-1.46555E-05 1.86413E-25 4.84672E-04 3.76806E-13-2.41893E-14 7.61589E-04
 -1        76 5.54712E-04 3.75685E-25-1.84031E-03 3.63526E-13 3.12030E-13 5.71003E-04
 -1        77-8.99773E-06-1.21882E-25 4.60231E-04-1.57845E-13-1.46180E-13 4.83166E-04
 -1        78 2.04172E-04 8.93182E-26-5.33812E-04-1.16339E-13 3.66272E-13 3.83404E-04
 -1        79-8.99773E-06-1.21900E-25 4.60231E-04-1.57831E-13-1.46180E-13 4.83166E-04
 -1        80 2.04172E-04 8.93212E-26-5.33812E-04-1.16339E-13 3.66272E-13 3.83404E-04
 -1        81 7.42320E-05 1.13462E-24 4.50708E-04-8.06798E-13-2.37640E-13 2.17105E-04
 -1        82 1.42666E-04 1.30475E-24-1.25768E-04-8.12373E-13 3.65360E-13 8.07890E-05
 -1        83 7.42320E-05 1.13466E-24 4.50708E-04-8.06816E-13-2.37640E-13 2.17105E-04
 -1        84 1.42666E-04 1.30475E-24-1.25768E-04-8.12373E-13 3.65358E-13 8.07890E-05
 -1        85-2.82177E-05-2.30204E-26 1.94876E-02-3.73513E-16 1.72003E-18 9.42692E-03
 -1        86-5.05290E-03 1.20869E-25 1.73489E-02 1.98183E-13-1.81326E-13 3.01677E-03
 -1        87-2.82177E-05-2.30204E-26 1.94876E-02-3.73535E-16 1.71686E-18 9.42692E-03
 -1        88-5.05290E-03 1.20869E-25 1.73489E-02 1.98183E-13-1.81326E-13 3.01677E-03
 -1        89-2.90340E-03 6.80570E-26 1.26807E-02 4.95325E-14-3.20592E-13 1.64773E-03
 -1        90-2.90340E-03 6.80586E-26 1.26807E-02 4.95315E-14-3.20593E-13 1.64773E-03
 -1        91-2.08329E-03 9.81497E-25 8.06601E-03-6.88898E-13-3.17299E-13 1.56634E-03
 -1        92-2.08329E-03 9.81484E-25 8.06601E-03-6.88893E-13-3.17298E-13 1.56634E-03
 -1        93-1.16825E-03 2.13089E-24 4.12336E-03-1.04289E-12-6.44218E-14 1.33448E-03
 -1        94-1.16825E-03 2.13090E-24 4.12336E-03-1.04289E-12-6.44231E-14 1.33448E-03
 -1        95-4.25345E-04 2.38808E-24 6.74086E-04-1.09054E-12 3.15406E-13 1.13929E-03
 -1        96-4.25345E-04 2.38804E-24 6.74086E-04-1.09053E-12 3.15406E-13 1.13929E-03
 -1        97 1.44384E-04 2.35468E-25-2.16608E-03-1.67635E-13 5.14266E-13 9.11745E-04
 -1        98 1.44384E-04 2.35475E-25-2.16608E-03-1.67636E-13 5.14266E-13 9.11745E-04
 -1        99 6.49880E-04 9.38084E-25-4.35398E-03 6.41190E-13 3.79466E-13 6.60348E-04
 -1       100 6.49880E-04 9.38061E-25-4.35398E-03 6.41181E-13 3.79466E-13 6.60348E-04
 -1       101 1.06368E-03 1.19637E-24-6.03714E-03 7.81796E-13 1.11458E-13 4.72249E-04
 -1       102 1.06368E-03 1.19642E-24-6.03714E-03 7.81811E-13 1.11456E-13 4.72249E-04
 -1       103 1.35777E-03 2.06694E-24-7.09263E-03 1.01388E-12-1.64751E-13 1.77474E-04
 -1       104 1.35777E-03 2.06693E-24-7.09263E-03 1.01388E-12-1.64751E-13 1.77474E-04
 -1       105 1.38261E-03 1.24741E-24-7.17751E-03 7.48569E-13-3.62904E-13-1.70755E-04
 -1       106 1.38261E-03 1.24740E-24-7.17751E-03 7.48572E-13-3.62903E-13-1.70755E-04
 -1       107 1.27828E-03 5.15488E-26-6.58494E-03 1.16682E-13-3.11691E-13-3.01859E-04
 -1       108 1.27828E-03 5.15310E-26-6.58494E-03 1.16675E-13-3.11692E-13-3.01859E-04
 -1       109 1.12590E-03 2.38219E-25-5.70710E-03-4.04404E-13-2.99013E-15-4.39652E-04
 -1       110 1.12590E-03 2.38235E-25-5.70710E-03-4.04418E-13-2.99019E-15-4.39652E-04
 -1       111 8.39695E-04 8.37869E-26-3.98204E-03-7.17748E-14 2.76435E-13-8.65370E-04
 -1       112 8.39695E-04 8.37830E-26-3.98204E-03-7.17591E-14 2.76434E-13-8.65370E-04
 -1       113 1.76805E-04 3.17797E-25-9.06512E-04 3.56560E-13 2.28574E-13-1.21873E-03
 -1       114 1.76805E-04 3.17792E-25-9.06512E-04 3.56553E-13 2.28573E-13-1.21873E-03
 -1       115-6.22261E-04 2.00482E-25 2.53012E-03 3.13381E-13 1.04879E-13-1.00473E-03
 -1       116-6.22261E-04 2.00503E-25 2.53012E-03 3.13395E-13 1.04879E-13-1.00473E-03
 -1       117-1.07393E-03 6.31470E-25 4.57784E-03 5.65616E-13 6.23890E-14-3.03138E-04
 -1       118-1.07393E-03 6.31465E-25 4.57784E-03 5.65613E-13 6.23893E-14-3.03138E-04
 -1       119-9.31489E-04 8.05528E-25 4.44536E-03 6.41351E-13-9.73283E-14 3.76584E-04
 -1       120-9.31489E-04 8.05536E-25 4.44536E-03 6.41355E-13-9.73280E-14 3.76584E-04
 -1       121-5.84023E-04 3.25055E-25 2.86234E-03 3.06124E-13-3.71976E-13 5.81053E-04
 -1       122-5.84023E-04 3.25047E-25 2.86234E-03 3.06124E-13-3.71976E-13 5.81053E-04
 -1       123-2.22167E-04 8.07570E-25 1.23897E-03-2.49597E-13-6.86825E-13 3.32430E-04
 -1       124-2.22167E-04 8.07598E-25 1.23897E-03-2.49622E-13-6.86825E-13 3.32430E-04
 -1       125 5.79770E-06 3.11749E-24 5.92399E-04-9.58994E-13-8.99016E-13 2.08753E-04
 -1       126 5.79770E-06 3.11744E-24 5.92399E-04-9.58972E-13-8.99018E-13 2.08753E-04
 -3
    1PSTEP                        56          14           1          
  100CL  114 1.40000E-01         126                     1   14           1
 -4  ERROR       1    1
 -5  STR(%)      1    1    0    0
 -1         1 7.06218E+01
 -1         2 7.06218E+01
 -1         3 7.29180E+01
 -1         4 7.29180E+01
 -1         5 7.06218E+01
 -1         6 7.06218E+01
 -1         7 7.29180E+01
 -1         8 7.29180E+01
 -1         9 7.58585E+01
 -1        10 7.58585E+01
 -1        11 7.58585E+01
 -1        12 7.58585E+01
 -1        13 7.58585E+01
 -1        14 7.58585E+01
 -1        15 7.58585E+01
 -1        16 7.58585E+01
 -1        17 7.48811E+01
 -1        18 7.48811E+01
 -1        19 7.48811E+01
 -1        20 7.48811E+01
 -1        21 7.04059E+01
 -1        22 2.64224E+01
 -1        23 7.04059E+01
 -1        24 2.64224E+01
 -1        25 9.11908E+01
 -1        26 4.09552E+01
 -1        27 9.11908E+01
 -1        28 4.09552E+01
 -1        29 9.11908E+01
 -1        30 4.65328E+01
 -1        31 9.11908E+01
 -1        32 4.65328E+01
 -1        33 8.62491E+01
 -1        34 4.95948E+01
 -1        35 8.62491E+01
 -1        36 4.95948E+01
 -1        37 7.86580E+01
 -1        38 4.97280E+01
 -1        39 7.86580E+01
 -1        40 4.97280E+01
 -1        41 7.45740E+01
 -1        42 5.08660E+01
 -1        43 7.45740E+01
 -1        44 5.08660E+01
 -1        45 7.49949E+01
 -1        46 5.08660E+01
 -1        47 7.49949E+01
 -1        48 5.08660E+01
 -1        49 7.77496E+01
 -1        50 5.06530E+01
 -1        51 7.77496E+01
 -1        52 5.06530E+01
 -1        53 7.77496E+01
 -1        54 5.01588E+01
 -1        55 7.77496E+01
 -1        56 5.01588E+01
 -1        57 5.92472E+01
 -1        58 3.80847E+01
 -1        59 5.92472E+01
 -1        60 3.80847E+01
 -1        61 7.14510E+01
 -1        62 7.14510E+01
 -1        63 7.14510E+01
 -1        64 7.14510E+01
 -1        65 7.40591E+01
 -1        66 7.40591E+01
 -1        67 7.40591E+01
 -1        68 7.40591E+01
 -1        69 7.41614E+01
 -1        70 7.41614E+01
 -1        71 7.41614E+01
 -1        72 7.41614E+01
 -1        73 7.41614E+01
 -1        74 7.41614E+01
 -1        75 7.41614E+01
 -1        76 7.41614E+01
 -1        77 6.41616E+01
 -1        78 6.41616E+01
 -1        79 6.41616E+01
 -1        80 6.41616E+01
 -1        81 4.60714E+01
 -1        82 4.60714E+01
 -1        83 4.60714E+01
 -1        84 4.60714E+01
 -1        85 5.85799E+01
 -1        86 5.85799E+01
 -1        87 5.85799E+01
 -1        88 5.85799E+01
 -1        89 5.08504E+01
 -1        90 5.08504E+01
 -1        91 4.53983E+01
 -1        92 4.53983E+01
 -1        93 3.11672E+01
 -1        94 3.11672E+01
 -1        95 7.04059E+01
 -1        96 7.04059E+01
 -1        97 9.11908E+01
 -1        98 9.11908E+01
 -1        99 9.11908E+01
 -1       100 9.11908E+01
 -1       101 8.62491E+01
 -1       102 8.62491E+01
 -1       103 7.86580E+01
 -1       104 7.86580E+01
 -1       105 7.45740E+01
 -1       106 7.45740E+01
 -1       107 7.49949E+01
 -1       108 7.49949E+01
 -1       109 7.77496E+01
 -1       110 7.77496E+01
 -1       111 7.77496E+01
 -1       112 7.77496E+01
 -1       113 5.92472E+01
 -1       114 5.92472E+01
 -1       115 4.53913E+01
 -1       116 4.53913E+01
 -1       117 5.13812E+01
 -1       118 5.13812E+01
 -1       119 5.13812E+01
 -1       120 5.13812E+01
 -1       121 4.84669E+01
 -1       122 4.84669E+01
 -1       123 3.25246E+01
 -1       124 3.25246E+01
 -1       125 5.94994E+00
 -1       126 5.94994E+00
 -3
    1PSTEP                        57          15           1          
  100CL  115 1.50000E-01         126                     1   15           1
 -4  DISP        4    1
 -5  D1          1    2    1    0
 -5  D2          1    2    2    0
 -5  D3          1    2    3    0
 -5  ALL         1    2    0    0    1ALL
 -1         1 0.00000E+00 0.00000E+00 0.00000E+00
 -1         2 0.00000E+00 0.00000E+00 0.00000E+00
 -1         3 6.86251E-04 0.00000E+00 5.31363E-05
 -1         4 8.66299E-04 0.00000E+00-8.66468E-04
 -1         5 0.00000E+00 0.00000E+00 0.00000E+00
 -1         6 0.00000E+00 0.00000E+00 0.00000E+00
 -1         7 6.86251E-04 0.00000E+00 5.31363E-05
 -1         8 8.66299E-04 0.00000E+00-8.66468E-04
 -1         9 2.31286E-03 0.00000E+00 1.08140E-04
 -1        10 2.36468E-03 0.00000E+00-1.52616E-03
 -1        11 2.31286E-03 0.00000E+00 1.08140E-04
 -1        12 2.36468E-03 0.00000E+00-1.52616E-03
 -1        13 4.44073E-03 0.00000E+00 1.47564E-04
 -1        14 4.43200E-03 0.00000E+00-1.93621E-03
 -1        15 4.44073E-03 0.00000E+00 1.47564E-04
 -1        16 4.43200E-03 0.00000E+00-1.93621E-03
 -1        17 6.89377E-03 0.00000E+00 1.84756E-04
 -1        18 6.82267E-03 0.00000E+00-2.12982E-03
 -1        19 6.89377E-03 0.00000E+00 1.84756E-04
 -1        20 6.82267E-03 0.00000E+00-2.12982E-03
 -1        21 9.44953E-03 0.00000E+00 2.23944E-04
 -1        22 9.33874E-03 0.00000E+00-2.12801E-03
 -1        23 9.44953E-03 0.00000E+00 2.23944E-04
 -1        24 9.33874E-03 0.00000E+00-2.12801E-03
 -1        25 1.19184E-02 0.00000E+00 2.64315E-04
 -1        26 1.17861E-02 0.00000E+00-1.96337E-03
 -1        27 1.19184E-02 0.00000E+00 2.64315E-04
 -1        28 1.17861E-02 0.00000E+00-1.96337E-03
 -1        29 1.41578E-02 0.00000E+00 3.12210E-04
 -1        30 1.40106E-02 0.00000E+00-1.66385E-03
 -1        31 1.41578E-02 0.00000E+00 3.12210E-04
 -1        32 1.40106E-02 0.00000E+00-1.66385E-03
 -1        33 1.60570E-02 0.00000E+00 3.69969E-04
 -1        34 1.59098E-02 0.00000E+00-1.26281E-03
 -1        35 1.60570E-02 0.00000E+00 3.69969E-04
 -1        36 1.59098E-02 0.00000E+00-1.26281E-03
 -1        37 1.75552E-02 0.00000E+00 4.33316E-04
 -1        38 1.74115E-02 0.00000E+00-7.93967E-04
 -1        39 1.75552E-02 0.00000E+00 4.33316E-04
 -1        40 1.74115E-02 0.00000E+00-7.93967E-04
 -1        41 1.86022E-02 0.00000E+00 4.99128E-04
 -1        42 1.84674E-02 0.00000E+00-2.79754E-04
 -1        43 1.86022E-02 0.00000E+00 4.99128E-04
 -1        44 1.84674E-02 0.00000E+00-2.79754E-04
 -1        45 1.91224E-02 0.00000E+00 5.66620E-04
 -1        46 1.89989E-02 0.00000E+00 2.37042E-04
 -1        47 1.91224E-02 0.00000E+00 5.66620E-04
 -1        48 1.89989E-02 0.00000E+00 2.37042E-04
 -1        49 1.91719E-02 0.00000E+00 6.30867E-04
 -1        50 1.90682E-02 0.00000E+00 6.98908E-04
 -1        51 1.91719E-02 0.00000E+00 6.30867E-04
 -1        52 1.90682E-02 0.00000E+00 6.98908E-04
 -1        53 1.88605E-02 0.00000E+00 6.87047E-04
 -1        54 1.87718E-02 0.00000E+00 1.08624E-03
 -1        55 1.88605E-02 0.00000E+00 6.87047E-04
 -1        56 1.87718E-02 0.00000E+00 1.08624E-03
 -1        57 1.82254E-02 0.00000E+00 7.33058E-04
 -1        58 1.81604E-02 0.00000E+00 1.38862E-03
 -1        59 1.82254E-02 0.00000E+00 7.33058E-04
 -1        60 1.81604E-02 0.00000E+00 1.38862E-03
 -1        61 1.73021E-02 0.00000E+00 7.66713E-04
 -1        62 1.72747E-02 0.00000E+00 1.54538E-03
 -1        63 1.73021E-02 0.00000E+00 7.66713E-04
 -1        64 1.72747E-02 0.00000E+00 1.54538E-03
 -1        65 1.63257E-02 0.00000E+00 7.92457E-04
 -1        66 1.63452E-02 0.00000E+00 1.49817E-03
 -1        67 1.63257E-02 0.00000E+00 7.92457E-04
 -1        68 1.63452E-02 0.00000E+00 1.49817E-03
 -1        69 1.56208E-02 0.00000E+00 8.20316E-04
 -1        70 1.56620E-02 0.00000E+00 1.29085E-03
 -1        71 1.56208E-02 0.00000E+00 8.20316E-04
 -1        72 1.56620E-02 0.00000E+00 1.29085E-03
 -1        73 1.53326E-02 0.00000E+00 8.47185E-04
 -1        74 1.53715E-02 0.00000E+00 1.05425E-03
 -1        75 1.53326E-02 0.00000E+00 8.47185E-04
 -1        76 1.53715E-02 0.00000E+00 1.05425E-03
 -1        77 1.53373E-02 0.00000E+00 8.68245E-04
 -1        78 1.53544E-02 0.00000E+00 9.07898E-04
 -1        79 1.53373E-02 0.00000E+00 8.68245E-04
 -1        80 1.53544E-02 0.00000E+00 9.07898E-04
 -1        81 1.53919E-02 0.00000E+00 8.91145E-04
 -1        82 1.53944E-02 0.00000E+00 8.69624E-04
 -1        83 1.53919E-02 0.00000E+00 8.91145E-04
 -1        84 1.53944E-02 0.00000E+00 8.69624E-04
 -1        85 0.00000E+00 0.00000E+00 0.00000E+00
 -1        86 9.65630E-04 0.00000E+00 9.78649E-04
 -1        87 0.00000E+00 0.00000E+00 0.00000E+00
 -1        88 9.65630E-04 0.00000E+00 9.78649E-04
 -1        89 2.50157E-03 0.00000E+00 1.73285E-03
 -1        90 2.50157E-03 0.00000E+00 1.73285E-03
 -1        91 4.60792E-03 0.00000E+00 2.22518E-03
 -1        92 4.60792E-03 0.00000E+00 2.22518E-03
 -1        93 7.03048E-03 0.00000E+00 2.49742E-03
 -1        94 7.03048E-03 0.00000E+00 2.49742E-03
 -1        95 9.54900E-03 0.00000E+00 2.57507E-03
 -1        96 9.54900E-03 0.00000E+00 2.57507E-03
 -1        97 1.19808E-02 0.00000E+00 2.49417E-03
 -1        98 1.19808E-02 0.00000E+00 2.49417E-03
 -1        99 1.41834E-02 0.00000E+00 2.29133E-03
 -1       100 1.41834E-02 0.00000E+00 2.29133E-03
 -1       101 1.60519E-02 0.00000E+00 2.00450E-03
 -1       102 1.60519E-02 0.00000E+00 2.00450E-03
 -1       103 1.75225E-02 0.00000E+00 1.66185E-03
 -1       104 1.75225E-02 0.00000E+00 1.66185E-03
 -1       105 1.85529E-02 0.00000E+00 1.27829E-03
 -1       106 1.85529E-02 0.00000E+00 1.27829E-03
 -1       107 1.90701E-02 0.00000E+00 8.93866E-04
 -1       108 1.90701E-02 0.00000E+00 8.93866E-04
 -1       109 1.91295E-02 0.00000E+00 5.59208E-04
 -1       110 1.91295E-02 0.00000E+00 5.59208E-04
 -1       111 1.88301E-02 0.00000E+00 2.84519E-04
 -1       112 1.88301E-02 0.00000E+00 2.84519E-04
 -1       113 1.82163E-02 0.00000E+00 7.32722E-05
 -1       114 1.82163E-02 0.00000E+00 7.32722E-05
 -1       115 1.73266E-02 0.00000E+00-1.48925E-05
 -1       116 1.73266E-02 0.00000E+00-1.48925E-05
 -1       117 1.63890E-02 0.00000E+00 9.04274E-05
 -1       118 1.63890E-02 0.00000E+00 9.04274E-05
 -1       119 1.57035E-02 0.00000E+00 3.54717E-04
 -1       120 1.57035E-02 0.00000E+00 3.54717E-04
 -1       121 1.53994E-02 0.00000E+00 6.38707E-04
 -1       122 1.53994E-02 0.00000E+00 6.38707E-04
 -1       123 1.53701E-02 0.00000E+00 8.22899E-04
 -1       124 1.53701E-02 0.00000E+00 8.22899E-04
 -1       125 1.54062E-02 0.00000E+00 8.89251E-04
 -1       126 1.54062E-02 0.00000E+00 8.89251E-04
 -3
    1PSTEP                        58          15           1          
  100CL  115 1.50000E-01         126                     1   15           1
 -4  STRESS      6    1
 -5  SXX         1    4    1    1
 -5  SYY         1    4    2    2
 -5  SZZ         1    4    3    3
 -5  SXY         1    4    1    2
 -5  SYZ         1    4    2    3
 -5  SZX         1    4    3    1
 -1         1-3.91917E+03-3.99888E+03-9.07887E+03-3.30274E-10 4.28999E-10 2.51816E+03
 -1         2 3.11556E+02 2.66802E+02 5.53363E+02 8.63666E-11 3.22256E-10 2.11636E+03
 -1         3-5.32409E+01 1.29273E+02 4.76822E+02 1.04994E-07 1.48757E-08 7.25880E+02
 -1         4-1.37830E+03-2.58410E+03-7.06889E+03 1.32248E-07-3.85101E-08 7.31873E+02
 -1         5-3.91917E+03-3.99888E+03-9.07887E+03-3.30274E-10 4.28999E-10 2.51816E+03
 -1         6 3.11556E+02 2.66802E+02 5.53363E+02 8.63675E-11 3.22256E-10 2.11636E+03
 -1         7-5.32409E+01 1.29273E+02 4.76822E+02 1.04994E-07 1.48757E-08 7.25880E+02
 -1         8-1.37830E+03-2.58410E+03-7.06889E+03 1.32248E-07-3.85101E-08 7.31873E+02
 -1         9-1.47140E+00 1.89606E+02 6.24002E+02 1.84612E-07 9.48885E-09 7.75008E+02
 -1        10-1.43909E+03-1.95998E+03-5.01029E+03 2.09947E-07-1.34476E-08 3.88606E+02
 -1        11-1.47140E+00 1.89606E+02 6.24002E+02 1.84612E-07 9.48883E-09 7.75008E+02
 -1        12-1.43909E+03-1.95998E+03-5.01029E+03 2.09946E-07-1.34475E-08 3.88606E+02
 -1        13 3.08434E+00 2.13926E+02 7.11886E+02 1.56709E-07-1.69369E-08 6.63189E+02
 -1        14-7.48479E+02-1.00322E+03-2.57130E+03 1.77811E-07 1.74177E-08 4.04609E+02
 -1        15 3.08434E+00 2.13926E+02 7.11886E+02 1.56709E-07-1.69368E-08 6.63189E+02
 -1        16-7.48479E+02-1.00322E+03-2.57130E+03 1.77811E-07 1.74178E-08 4.04609E+02
 -1        17-1.62286E+01 2.33606E+02 8.00705E+02 3.31849E-08-2.79226E-08 6.09102E+02
 -1        18-3.11224E+02-2.45649E+02-5.02287E+02 3.66791E-08 3.46290E-08 4.22411E+02
 -1        19-1.62286E+01 2.33606E+02 8.00705E+02 3.31848E-08-2.79225E-08 6.09102E+02
 -1        20-3.11224E+02-2.45649E+02-5.02287E+02 3.66798E-08 3.46288E-08 4.22411E+02
 -1        21-1.04826E+01 2.45299E+02 8.34155E+02-1.00676E-07-2.07170E-09 5.17338E+02
 -1        22 1.11761E+02 4.12278E+02 1.27371E+03-7.04714E-08 1.82685E-08 4.29452E+02
 -1        23-1.04826E+01 2.45299E+02 8.34155E+02-1.00675E-07-2.07177E-09 5.17338E+02
 -1        24 1.11761E+02 4.12278E+02 1.27371E+03-7.04734E-08 1.82686E-08 4.29452E+02
 -1        25-1.39430E+01 2.40373E+02 8.18873E+02-8.97904E-08 1.96585E-08 4.06419E+02
 -1        26 4.67179E+02 9.41568E+02 2.70162E+03-1.05910E-07-4.44555E-08 3.87132E+02
 -1        27-1.39430E+01 2.40373E+02 8.18873E+02-8.97905E-08 1.96585E-08 4.06419E+02
 -1        28 4.67179E+02 9.41568E+02 2.70162E+03-1.05910E-07-4.44556E-08 3.87132E+02
 -1        29-3.84648E+01 2.24504E+02 7.87676E+02 1.80884E-08 1.20249E-09 2.99896E+02
 -1        30 6.74367E+02 1.31381E+03 3.75720E+03 3.52520E-08-8.76305E-08 3.29341E+02
 -1        31-3.84648E+01 2.24504E+02 7.87676E+02 1.80895E-08 1.20249E-09 2.99896E+02
 -1        32 6.74367E+02 1.31381E+03 3.75720E+03 3.52511E-08-8.76305E-08 3.29341E+02
 -1        33-4.36772E+01 2.09585E+02 7.39915E+02 1.01606E-07-9.97600E-09 2.13689E+02
 -1        34 8.62645E+02 1.58488E+03 4.49121E+03 1.02761E-07-9.11330E-08 2.71875E+02
 -1        35-4.36772E+01 2.09585E+02 7.39915E+02 1.01607E-07-9.97592E-09 2.13689E+02
 -1        36 8.62645E+02 1.58488E+03 4.49121E+03 1.02760E-07-9.11331E-08 2.71875E+02
 -1        37-4.55694E+01 1.88423E+02 6.68847E+02 1.65519E-07-1.28977E-08 1.46719E+02
 -1        38 9.74392E+02 1.75139E+03 4.94750E+03 1.46763E-07-1.10214E-07 2.11041E+02
 -1        39-4.55694E+01 1.88423E+02 6.68847E+02 1.65521E-07-1.28977E-08 1.46719E+02
 -1        40 9.74392E+02 1.75139E+03 4.94750E+03 1.46762E-07-1.10214E-07 2.11041E+02
 -1        41-4.56116E+01 1.69675E+02 6.06565E+02 3.54331E-07-2.01930E-08 1.92180E+01
 -1        42 1.03407E+03 1.81625E+03 5.10993E+03 3.41100E-07-1.10007E-07 7.85750E+01
 -1        43-4.56116E+01 1.69675E+02 6.06565E+02 3.54330E-07-2.01929E-08 1.92180E+01
 -1        44 1.03407E+03 1.81625E+03 5.10993E+03 3.41097E-07-1.10007E-07 7.85750E+01
 -1        45-5.51516E+01 1.50748E+02 5.52895E+02 5.04943E-07-7.50381E-09-1.32497E+02
 -1        46 9.51189E+02 1.69919E+03 4.79129E+03 4.46938E-07-2.48040E-08-7.87765E+01
 -1        47-5.51516E+01 1.50748E+02 5.52895E+02 5.04948E-07-7.50391E-09-1.32497E+02
 -1        48 9.51189E+02 1.69919E+03 4.79129E+03 4.46936E-07-2.48039E-08-7.87765E+01
 -1        49-4.37181E+01 1.38821E+02 5.02104E+02 4.19069E-07 4.93829E-09-1.88873E+02
 -1        50 8.49624E+02 1.48276E+03 4.15171E+03 4.12062E-07 8.36018E-08-1.44738E+02
 -1        51-4.37181E+01 1.38821E+02 5.02104E+02 4.19067E-07 4.93835E-09-1.88873E+02
 -1        52 8.49624E+02 1.48276E+03 4.15171E+03 4.12062E-07 8.36018E-08-1.44738E+02
 -1        53-4.12133E+01 1.20214E+02 4.40189E+02 1.61026E-07 6.36382E-09-2.25000E+02
 -1        54 6.69992E+02 1.19984E+03 3.36949E+03 1.61158E-07 1.16395E-07-1.81433E+02
 -1        55-4.12133E+01 1.20214E+02 4.40189E+02 1.61024E-07 6.36376E-09-2.25000E+02
 -1        56 6.69992E+02 1.19984E+03 3.36949E+03 1.61165E-07 1.16395E-07-1.81433E+02
 -1        57-2.70215E+01 1.03867E+02 3.75121E+02 4.44893E-08-4.38760E-09-3.77168E+02
 -1        58 4.42766E+02 8.05570E+02 2.26430E+03 8.14692E-08 7.80907E-08-3.00274E+02
 -1        59-2.70215E+01 1.03867E+02 3.75121E+02 4.44852E-08-4.38749E-09-3.77168E+02
 -1        60 4.42766E+02 8.05570E+02 2.26430E+03 8.14709E-08 7.80908E-08-3.00274E+02
 -1        61-1.57214E+01 8.69348E+01 3.08528E+02 3.32719E-08-1.09737E-08-5.25671E+02
 -1        62 7.39893E+01 1.91509E+02 5.71189E+02 2.67161E-08 2.44791E-08-4.01487E+02
 -1        63-1.57214E+01 8.69348E+01 3.08528E+02 3.32741E-08-1.09737E-08-5.25671E+02
 -1        64 7.39893E+01 1.91509E+02 5.71189E+02 2.67147E-08 2.44792E-08-4.01487E+02
 -1        65-8.72080E+00 7.88708E+01 2.74375E+02 7.15725E-08 6.29601E-09-4.23569E+02
 -1        66-2.81912E+02-4.44058E+02-1.18974E+03 5.07755E-08-1.88779E-08-3.02822E+02
 -1        67-8.72080E+00 7.88708E+01 2.74375E+02 7.15726E-08 6.29591E-09-4.23569E+02
 -1        68-2.81912E+02-4.44058E+02-1.18974E+03 5.07750E-08-1.88777E-08-3.02822E+02
 -1        69-5.23894E+01 5.38803E+01 2.33692E+02 1.52564E-07 2.11177E-08-8.90448E+01
 -1        70-5.39673E+02-8.11910E+02-2.14956E+03 1.46203E-07-2.49781E-08-4.25179E+01
 -1        71-5.23894E+01 5.38803E+01 2.33692E+02 1.52565E-07 2.11177E-08-8.90448E+01
 -1        72-5.39673E+02-8.11910E+02-2.14956E+03 1.46202E-07-2.49781E-08-4.25179E+01
 -1        73-3.11963E+01 4.99929E+01 1.97999E+02 1.87803E-07 2.69011E-09 2.02844E+02
 -1        74-4.58325E+02-7.00929E+02-1.86550E+03 2.19112E-07 2.69803E-09 1.66065E+02
 -1        75-3.11963E+01 4.99929E+01 1.97999E+02 1.87801E-07 2.69000E-09 2.02844E+02
 -1        76-4.58325E+02-7.00929E+02-1.86550E+03 2.19114E-07 2.69826E-09 1.66065E+02
 -1        77 1.74312E+01 6.53017E+01 1.99956E+02 1.54793E-07-3.47087E-08 2.22088E+02
 -1        78-2.42208E+02-3.47373E+02-9.12306E+02 1.69769E-07 3.02449E-08 1.56832E+02
 -1        79 1.74312E+01 6.53017E+01 1.99956E+02 1.54794E-07-3.47088E-08 2.22088E+02
 -1        80-2.42208E+02-3.47373E+02-9.12306E+02 1.69767E-07 3.02449E-08 1.56832E+02
 -1        81 4.24784E+01 7.85569E+01 2.19578E+02 1.02660E-07-4.35515E-08 1.37827E+02
 -1        82-1.49108E+02-1.64845E+02-4.00100E+02 8.98545E-08 4.68402E-08 5.66675E+01
 -1        83 4.24784E+01 7.85569E+01 2.19578E+02 1.02656E-07-4.35515E-08 1.37827E+02
 -1        84-1.49108E+02-1.64845E+02-4.00100E+02 8.98587E-08 4.68401E-08 5.66675E+01
 -1        85 4.61688E+03 4.51541E+03 1.08802E+04 3.81635E-10 3.33849E-10 3.15958E+03
 -1        86 1.22393E+03 2.82839E+03 8.44373E+03 1.05500E-07 5.02440E-08 1.10303E+03
 -1        87 4.61688E+03 4.51541E+03 1.08802E+04 3.81628E-10 3.33848E-10 3.15958E+03
 -1        88 1.22393E+03 2.82839E+03 8.44373E+03 1.05501E-07 5.02441E-08 1.10303E+03
 -1        89 1.33594E+03 2.28082E+03 6.41253E+03 1.41076E-07 1.79778E-08 7.05273E+02
 -1        90 1.33594E+03 2.28082E+03 6.41253E+03 1.41076E-07 1.79778E-08 7.05273E+02
 -1        91 7.22264E+02 1.42854E+03 4.10635E+03 1.33037E-07-4.38382E-08 6.56661E+02
 -1        92 7.22264E+02 1.42854E+03 4.10635E+03 1.33038E-07-4.38386E-08 6.56661E+02
 -1        93 2.42638E+02 7.04821E+02 2.13048E+03 1.40240E-08-7.21576E-08 5.35265E+02
 -1        94 2.42638E+02 7.04821E+02 2.13048E+03 1.40249E-08-7.21579E-08 5.35265E+02
 -1        95-1.61694E+02 7.14464E+01 4.05163E+02-5.42090E-08-9.63990E-09 3.96740E+02
 -1        96-1.61694E+02 7.14464E+01 4.05163E+02-5.42106E-08-9.63993E-09 3.96740E+02
 -1        97-5.16739E+02-4.64996E+02-1.02870E+03-8.09357E-08 7.16273E-08 2.56921E+02
 -1        98-5.16739E+02-4.64996E+02-1.02870E+03-8.09339E-08 7.16274E-08 2.56921E+02
 -1        99-7.75380E+02-8.75424E+02-2.12945E+03 2.99858E-08 7.75296E-08 1.45696E+02
 -1       100-7.75380E+02-8.75424E+02-2.12945E+03 2.99838E-08 7.75296E-08 1.45696E+02
 -1       101-9.70487E+02-1.17669E+03-2.92696E+03 1.16480E-07 5.92326E-08 7.44998E+01
 -1       102-9.70487E+02-1.17669E+03-2.92696E+03 1.16479E-07 5.92321E-08 7.44998E+01
 -1       103-1.08153E+03-1.38294E+03-3.49214E+03 1.70307E-07 9.11741E-08 3.71195E+01
 -1       104-1.08153E+03-1.38294E+03-3.49214E+03 1.70307E-07 9.11741E-08 3.71195E+01
 -1       105-1.14270E+03-1.48871E+03-3.77533E+03 3.63386E-07 1.02108E-07-3.66086E+01
 -1       106-1.14270E+03-1.48871E+03-3.77533E+03 3.63387E-07 1.02108E-07-3.66086E+01
 -1       107-1.07779E+03-1.40932E+03-3.58037E+03 4.93128E-07 4.60484E-10-1.26433E+02
 -1       108-1.07779E+03-1.40932E+03-3.58037E+03 4.93120E-07 4.60082E-10-1.26433E+02
 -1       109-9.46067E+02-1.21025E+03-3.05995E+03 4.09891E-07-1.14998E-07-1.45320E+02
 -1       110-9.46067E+02-1.21025E+03-3.05995E+03 4.09893E-07-1.14998E-07-1.45320E+02
 -1       111-7.61975E+02-9.64105E+02-2.43339E+03 1.56200E-07-1.26035E-07-1.57954E+02
 -1       112-7.61975E+02-9.64105E+02-2.43339E+03 1.56197E-07-1.26035E-07-1.57954E+02
 -1       113-5.08857E+02-6.02332E+02-1.48930E+03 4.40928E-08-4.83209E-08-2.75326E+02
 -1       114-5.08857E+02-6.02332E+02-1.48930E+03 4.40940E-08-4.83210E-08-2.75326E+02
 -1       115-1.05371E+02-7.09340E+00 8.70372E+01 4.93282E-08 1.08120E-08-4.08295E+02
 -1       116-1.05371E+02-7.09340E+00 8.70372E+01 4.93264E-08 1.08120E-08-4.08295E+02
 -1       117 2.68210E+02 6.14435E+02 1.79605E+03 9.75863E-08 2.74632E-08-3.49467E+02
 -1       118 2.68210E+02 6.14435E+02 1.79605E+03 9.75885E-08 2.74631E-08-3.49467E+02
 -1       119 4.17960E+02 9.06819E+02 2.63130E+03 1.55861E-07 1.94552E-08-1.01244E+02
 -1       120 4.17960E+02 9.06819E+02 2.63130E+03 1.55863E-07 1.94553E-08-1.01244E+02
 -1       121 3.69837E+02 7.76419E+02 2.23738E+03 1.49856E-07-2.33355E-08 1.25197E+02
 -1       122 3.69837E+02 7.76419E+02 2.23738E+03 1.49855E-07-2.33355E-08 1.25197E+02
 -1       123 2.25192E+02 4.26781E+02 1.20366E+03 1.26572E-07-6.15379E-08 1.50476E+02
 -1       124 2.25192E+02 4.26781E+02 1.20366E+03 1.26571E-07-6.15378E-08 1.50476E+02
 -1       125 1.51659E+02 2.39941E+02 6.49751E+02 1.31216E-07-6.37843E-08 1.17492E+02
 -1       126 1.51659E+02 2.39941E+02 6.49751E+02 1.31217E-07-6.37843E-08 1.17492E+02
 -3
    1PSTEP                        59          15           1          
  100CL  115 1.50000E-01         126                     1   15           1
 -4  TOSTRAIN    6    1
 -5  EXX         1    4    1    1
 -5  EYY         1    4    2    2
 -5  EZZ         1    4    3    3
 -5  EXY         1    4    1    2
 -5  EYZ         1    4    2    3
 -5  EZX         1    4    3    1
 -1         1-2.93322E-05-6.50971E-26-1.70580E-02-6.68000E-16 3.17888E-19 8.66283E-03
 -1         2-3.01970E-05-3.81154E-26 1.12722E-03 1.94026E-16-5.51704E-19 6.86235E-03
 -1         3-8.35656E-04 1.98878E-25 1.36997E-03 3.40084E-13 5.42997E-14 2.31711E-03
 -1         4 3.75306E-03 3.46423E-25-1.48666E-02 4.33357E-13-1.20075E-13 2.81017E-03
 -1         5-2.93322E-05-6.50971E-26-1.70580E-02-6.68000E-16 3.17888E-19 8.66283E-03
 -1         6-3.01970E-05-3.81154E-26 1.12722E-03 1.94029E-16-5.51278E-19 6.86235E-03
 -1         7-8.35656E-04 1.98878E-25 1.36997E-03 3.40084E-13 5.42997E-14 2.31711E-03
 -1         8 3.75306E-03 3.46422E-25-1.48666E-02 4.33357E-13-1.20075E-13 2.81017E-03
 -1         9-8.45918E-04 7.04357E-25 1.65007E-03 5.98553E-13 5.01903E-14 2.43612E-03
 -1        10 1.55895E-03 9.18072E-25-9.99718E-03 6.85082E-13-2.17841E-14 1.67868E-03
 -1        11-8.45918E-04 7.04358E-25 1.65007E-03 5.98553E-13 5.01902E-14 2.43612E-03
 -1        12 1.55895E-03 9.18070E-25-9.99718E-03 6.85081E-13-2.17839E-14 1.67868E-03
 -1        13-8.94880E-04 4.93129E-25 1.81653E-03 5.11467E-13-3.36564E-14 2.04128E-03
 -1        14 6.89550E-04 6.30718E-25-5.02137E-03 5.75621E-13 8.12598E-14 1.57400E-03
 -1        15-8.94880E-04 4.93127E-25 1.81653E-03 5.11466E-13-3.36563E-14 2.04128E-03
 -1        16 6.89550E-04 6.30718E-25-5.02137E-03 5.75621E-13 8.12601E-14 1.57400E-03
 -1        17-1.00619E-03-2.94812E-26 2.01795E-03 1.12301E-13-8.53742E-14 1.83803E-03
 -1        18-3.50570E-04-1.54339E-26-7.10728E-04 1.13700E-13 1.18155E-13 1.39738E-03
 -1        19-1.00619E-03-2.94812E-26 2.01795E-03 1.12300E-13-8.53739E-14 1.83803E-03
 -1        20-3.50570E-04-1.54332E-26-7.10728E-04 1.13702E-13 1.18154E-13 1.39738E-03
 -1        21-9.94747E-04 1.77774E-25 2.05822E-03-3.26604E-13-2.20302E-14 1.53600E-03
 -1        22-1.10719E-03 8.14782E-26 2.89882E-03-2.31697E-13 4.83591E-14 1.20358E-03
 -1        23-9.94747E-04 1.77769E-25 2.05822E-03-3.26600E-13-2.20302E-14 1.53600E-03
 -1        24-1.10719E-03 8.14849E-26 2.89882E-03-2.31703E-13 4.83591E-14 1.20358E-03
 -1        25-9.52159E-04 1.46926E-25 1.99268E-03-2.94630E-13 5.06552E-14 1.18824E-03
 -1        26-1.64995E-03 2.18133E-25 5.74558E-03-3.36995E-13-1.58491E-13 9.17051E-04
 -1        27-9.52159E-04 1.46926E-25 1.99268E-03-2.94630E-13 5.06552E-14 1.18824E-03
 -1        28-1.64995E-03 2.18133E-25 5.74558E-03-3.36994E-13-1.58491E-13 9.17051E-04
 -1        29-9.47013E-04-5.10411E-26 1.91620E-03 5.86148E-14 6.12519E-15 8.60658E-04
 -1        30-2.16274E-03 1.09897E-25 7.88293E-03 1.26043E-13-2.77183E-13 6.58246E-04
 -1        31-9.47013E-04-5.10396E-26 1.91620E-03 5.86185E-14 6.12532E-15 8.60658E-04
 -1        32-2.16274E-03 1.09896E-25 7.88293E-03 1.26040E-13-2.77183E-13 6.58246E-04
 -1        33-8.90244E-04 1.81317E-25 1.79214E-03 3.31260E-13-2.17158E-14 6.06406E-04
 -1        34-2.41250E-03 3.59599E-25 9.31818E-03 3.43376E-13-2.81790E-13 4.84699E-04
 -1        35-8.90244E-04 1.81323E-25 1.79214E-03 3.31263E-13-2.17155E-14 6.06406E-04
 -1        36-2.41250E-03 3.59592E-25 9.31818E-03 3.43372E-13-2.81790E-13 4.84699E-04
 -1        37-8.12269E-04 4.77793E-25 1.62033E-03 5.39015E-13-2.87226E-14 4.16913E-04
 -1        38-2.57494E-03 5.99854E-25 1.02096E-02 4.85191E-13-3.41706E-13 3.58201E-04
 -1        39-8.12269E-04 4.77804E-25 1.62033E-03 5.39019E-13-2.87224E-14 4.16913E-04
 -1        40-2.57494E-03 5.99846E-25 1.02096E-02 4.85189E-13-3.41706E-13 3.58201E-04
 -1        41-7.38116E-04 2.52563E-24 1.46381E-03 1.15283E-12-4.75245E-14 2.88857E-05
 -1        42-2.57732E-03 2.58531E-24 1.04960E-02 1.11233E-12-3.35295E-13 4.66436E-05
 -1        43-7.38116E-04 2.52561E-24 1.46381E-03 1.15283E-12-4.75244E-14 2.88857E-05
 -1        44-2.57732E-03 2.58526E-24 1.04960E-02 1.11232E-12-3.35295E-13 4.66436E-05
 -1        45-6.94784E-04 5.34542E-24 1.33948E-03 1.64168E-12-1.34846E-14-4.42234E-04
 -1        46-2.45163E-03 4.18122E-24 9.85712E-03 1.45087E-12-7.00218E-14-3.31689E-04
 -1        47-6.94784E-04 5.34553E-24 1.33948E-03 1.64170E-12-1.34849E-14-4.42234E-04
 -1        48-2.45163E-03 4.18118E-24 9.85712E-03 1.45086E-12-7.00215E-14-3.31689E-04
 -1        49-6.15310E-04 3.55453E-24 1.21041E-03 1.36242E-12 1.40629E-14-6.09554E-04
 -1        50-2.07489E-03 3.58669E-24 8.53293E-03 1.33811E-12 2.66703E-13-4.46992E-04
 -1        51-6.15310E-04 3.55450E-24 1.21041E-03 1.36241E-12 1.40631E-14-6.09554E-04
 -1        52-2.07489E-03 3.58670E-24 8.53293E-03 1.33811E-12 2.66703E-13-4.46992E-04
 -1        53-5.52731E-04 3.57459E-25 1.06948E-03 5.23651E-13 1.64140E-14-7.16720E-04
 -1        54-1.74325E-03 6.61916E-25 6.96430E-03 5.26637E-13 3.70520E-13-5.11383E-04
 -1        55-5.52731E-04 3.57440E-25 1.06948E-03 5.23643E-13 1.64139E-14-7.16720E-04
 -1        56-1.74325E-03 6.61977E-25 6.96430E-03 5.26662E-13 3.70519E-13-5.11383E-04
 -1        57-4.73054E-04 2.87453E-27 9.21147E-04 1.44410E-13-1.61197E-14-1.20540E-03
 -1        58-1.21506E-03 2.17158E-25 4.71726E-03 2.68407E-13 2.48790E-13-8.90256E-04
 -1        59-4.73054E-04 2.86485E-27 9.21147E-04 1.44396E-13-1.61191E-14-1.20540E-03
 -1        60-1.21506E-03 2.17159E-25 4.71726E-03 2.68413E-13 2.48790E-13-8.90256E-04
 -1        61-3.98264E-04 2.07214E-26 7.74329E-04 1.07471E-13-3.73326E-14-1.68761E-03
 -1        62-4.28695E-04 1.10272E-26 1.26258E-03 8.82627E-14 7.80210E-14-1.27571E-03
 -1        63-3.98264E-04 2.07252E-26 7.74329E-04 1.07478E-13-3.73326E-14-1.68761E-03
 -1        64-4.28695E-04 1.10247E-26 1.26258E-03 8.82582E-14 7.80213E-14-1.27571E-03
 -1        65-3.39660E-04 9.11350E-26 6.80111E-04 2.32978E-13 1.71079E-14-1.36043E-03
 -1        66 4.88727E-04 3.90756E-26-2.40869E-03 1.64114E-13-6.39648E-14-1.02722E-03
 -1        67-3.39660E-04 9.11354E-26 6.80111E-04 2.32978E-13 1.71076E-14-1.36043E-03
 -1        68 4.88727E-04 3.90740E-26-2.40869E-03 1.64113E-13-6.39642E-14-1.02722E-03
 -1        69-3.72392E-04 4.84357E-25 6.03334E-04 4.96611E-13 6.38764E-14-2.80011E-04
 -1        70 8.66255E-04 4.31616E-25-4.37619E-03 4.74765E-13-8.62130E-14-1.88109E-04
 -1        71-3.72392E-04 4.84362E-25 6.03334E-04 4.96614E-13 6.38764E-14-2.80011E-04
 -1        72 8.66255E-04 4.31609E-25-4.37619E-03 4.74761E-13-8.62131E-14-1.88109E-04
 -1        73-2.71493E-04 7.34865E-25 4.86094E-04 6.10438E-13 6.13857E-15 6.61570E-04
 -1        74 7.84284E-04 9.96575E-25-3.81487E-03 7.12612E-13 5.78755E-15 5.23416E-04
 -1        75-2.71493E-04 7.34855E-25 4.86094E-04 6.10434E-13 6.13824E-15 6.61570E-04
 -1        76 7.84284E-04 9.96592E-25-3.81487E-03 7.12619E-13 5.78826E-15 5.23416E-04
 -1        77-1.57204E-04 5.14087E-25 4.39466E-04 5.03135E-13-1.13204E-13 7.21285E-04
 -1        78 3.41328E-04 5.96591E-25-1.84426E-03 5.51948E-13 9.80603E-14 5.10465E-04
 -1        79-1.57204E-04 5.14093E-25 4.39466E-04 5.03137E-13-1.13204E-13 7.21285E-04
 -1        80 3.41328E-04 5.96579E-25-1.84426E-03 5.51943E-13 9.80604E-14 5.10465E-04
 -1        81-1.18247E-04 2.37704E-25 4.58599E-04 3.33779E-13-1.41410E-13 4.47266E-04
 -1        82 5.09101E-05 1.64974E-25-7.64991E-04 2.92003E-13 1.52489E-13 1.85210E-04
 -1        83-1.18247E-04 2.37685E-25 4.58599E-04 3.33766E-13-1.41410E-13 4.47266E-04
 -1        84 5.09101E-05 1.64993E-25-7.64991E-04 2.92017E-13 1.52489E-13 1.85210E-04
 -1        85-3.10618E-05-4.64815E-26 1.99194E-02 7.90375E-16-1.57920E-18 9.65612E-03
 -1        86-5.42437E-03 2.52462E-25 1.77860E-02 3.38230E-13 1.65534E-13 3.02233E-03
 -1        87-3.10618E-05-4.64815E-26 1.99194E-02 7.90353E-16-1.58238E-18 9.65612E-03
 -1        88-5.42437E-03 2.52463E-25 1.77860E-02 3.38230E-13 1.65534E-13 3.02233E-03
 -1        89-3.25079E-03 4.11022E-25 1.32140E-02 4.55099E-13 7.20089E-14 1.69302E-03
 -1        90-3.25079E-03 4.11025E-25 1.32140E-02 4.55102E-13 7.20091E-14 1.69302E-03
 -1        91-2.47931E-03 3.79564E-25 8.70330E-03 4.37940E-13-1.22886E-13 1.63374E-03
 -1        92-2.47931E-03 3.79567E-25 8.70330E-03 4.37942E-13-1.22888E-13 1.63374E-03
 -1        93-1.66181E-03 6.45120E-26 4.72695E-03 5.70045E-14-2.30645E-13 1.43024E-03
 -1        94-1.66181E-03 6.45118E-26 4.72695E-03 5.70074E-14-2.30645E-13 1.43024E-03
 -1        95-8.82302E-04 3.13802E-26 1.19401E-03-1.74580E-13-3.95228E-14 1.19170E-03
 -1        96-8.82302E-04 3.13838E-26 1.19401E-03-1.74586E-13-3.95232E-14 1.19170E-03
 -1        97-2.54368E-04 2.05791E-25-1.75748E-03-2.73916E-13 2.21418E-13 9.07793E-04
 -1        98-2.54368E-04 2.05784E-25-1.75748E-03-2.73911E-13 2.21419E-13 9.07793E-04
 -1        99 2.68710E-04 9.12738E-26-4.05300E-03 8.72154E-14 2.57107E-13 6.50873E-04
 -1       100 2.68710E-04 9.12694E-26-4.05300E-03 8.72089E-14 2.57107E-13 6.50873E-04
 -1       101 6.32012E-04 3.24506E-25-5.71404E-03 3.72560E-13 2.06338E-13 4.54595E-04
 -1       102 6.32012E-04 3.24498E-25-5.71404E-03 3.72557E-13 2.06336E-13 4.54595E-04
 -1       103 9.50406E-04 6.82991E-25-6.91920E-03 5.46941E-13 3.12796E-13 3.17142E-04
 -1       104 9.50406E-04 6.82986E-25-6.91920E-03 5.46939E-13 3.12796E-13 3.17142E-04
 -1       105 1.10108E-03 2.85752E-24-7.52407E-03 1.17807E-12 3.53921E-13 1.40961E-05
 -1       106 1.10108E-03 2.85755E-24-7.52407E-03 1.17808E-12 3.53921E-13 1.40961E-05
 -1       107 1.06207E-03 5.06682E-24-7.14369E-03 1.60574E-12 1.22036E-14-3.63025E-04
 -1       108 1.06207E-03 5.06665E-24-7.14369E-03 1.60571E-12 1.22021E-14-3.63025E-04
 -1       109 8.44265E-04 3.64004E-24-6.06977E-03 1.33358E-12-3.78870E-13-4.88978E-04
 -1       110 8.44265E-04 3.64007E-24-6.06977E-03 1.33358E-12-3.78869E-13-4.88978E-04
 -1       111 6.37786E-04 6.50083E-25-4.80355E-03 5.04611E-13-4.16547E-13-5.63227E-04
 -1       112 6.37786E-04 6.50060E-25-4.80355E-03 5.04601E-13-4.16547E-13-5.63227E-04
 -1       113 2.68955E-04 4.83702E-26-2.87338E-03 1.41065E-13-1.59613E-13-9.40520E-04
 -1       114 2.68955E-04 4.83755E-26-2.87338E-03 1.41069E-13-1.59614E-13-9.40520E-04
 -1       115-3.67833E-04 4.19936E-26 3.40076E-04 1.60982E-13 3.25858E-14-1.31425E-03
 -1       116-3.67833E-04 4.19891E-26 3.40076E-04 1.60976E-13 3.25860E-14-1.31425E-03
 -1       117-1.16805E-03 2.03382E-25 3.83793E-03 3.18499E-13 8.43082E-14-1.05906E-03
 -1       118-1.16805E-03 2.03390E-25 3.83793E-03 3.18506E-13 8.43078E-14-1.05906E-03
 -1       119-1.61104E-03 5.14035E-25 5.55190E-03 5.06929E-13 5.79932E-14-2.58372E-04
 -1       120-1.61104E-03 5.14051E-25 5.55190E-03 5.06937E-13 5.79934E-14-2.58372E-04
 -1       121-1.32727E-03 4.73496E-25 4.70092E-03 4.86543E-13-7.74414E-14 4.29773E-04
 -1       122-1.32727E-03 4.73487E-25 4.70092E-03 4.86538E-13-7.74413E-14 4.29773E-04
 -1       123-6.55736E-04 4.10641E-25 2.50893E-03 4.11245E-13-1.99715E-13 4.88733E-04
 -1       124-6.55736E-04 4.10631E-25 2.50893E-03 4.11239E-13-1.99714E-13 4.88733E-04
 -1       125-2.87404E-04 4.47293E-25 1.32808E-03 4.26513E-13-2.06949E-13 3.80121E-04
 -1       126-2.87404E-04 4.47298E-25 1.32808E-03 4.26516E-13-2.06949E-13 3.80121E-04
 -3
    1PSTEP                        60          15           1          
  100CL  115 1.50000E-01         126                     1   15           1
 -4  ERROR       1    1
 -5  STR(%)      1    1    0    0
 -1         1 6.81487E+01
 -1         2 6.81487E+01
 -1         3 6.97024E+01
 -1         4 6.97024E+01
 -1         5 6.81487E+01
 -1         6 6.81487E+01
 -1         7 6.97024E+01
 -1         8 6.97024E+01
 -1         9 7.19859E+01
 -1        10 7.19859E+01
 -1        11 7.19859E+01
 -1        12 7.19859E+01
 -1        13 8.92561E+01
 -1        14 8.92561E+01
 -1        15 8.92561E+01
 -1        16 8.92561E+01
 -1        17 8.92561E+01
 -1        18 8.92561E+01
 -1        19 8.92561E+01
 -1        20 8.92561E+01
 -1        21 6.83060E+01
 -1        22 2.41691E+01
 -1        23 6.83060E+01
 -1        24 2.41691E+01
 -1        25 8.07448E+01
 -1        26 3.98666E+01
 -1        27 8.07448E+01
 -1        28 3.98666E+01
 -1        29 8.44840E+01
 -1        30 4.56987E+01
 -1        31 8.44840E+01
 -1        32 4.56987E+01
 -1        33 8.44840E+01
 -1        34 4.84771E+01
 -1        35 8.44840E+01
 -1        36 4.84771E+01
 -1        37 7.92130E+01
 -1        38 5.03375E+01
 -1        39 7.92130E+01
 -1        40 5.03375E+01
 -1        41 7.37675E+01
 -1        42 5.07562E+01
 -1        43 7.37675E+01
 -1        44 5.07562E+01
 -1        45 7.54971E+01
 -1        46 5.10160E+01
 -1        47 7.54971E+01
 -1        48 5.10160E+01
 -1        49 7.70231E+01
 -1        50 5.10160E+01
 -1        51 7.70231E+01
 -1        52 5.10160E+01
 -1        53 7.70231E+01
 -1        54 5.04596E+01
 -1        55 7.70231E+01
 -1        56 5.04596E+01
 -1        57 7.67612E+01
 -1        58 4.84480E+01
 -1        59 7.67612E+01
 -1        60 4.84480E+01
 -1        61 5.38169E+01
 -1        62 5.38169E+01
 -1        63 5.38169E+01
 -1        64 5.38169E+01
 -1        65 7.13485E+01
 -1        66 7.13485E+01
 -1        67 7.13485E+01
 -1        68 7.13485E+01
 -1        69 7.13485E+01
 -1        70 7.13485E+01
 -1        71 7.13485E+01
 -1        72 7.13485E+01
 -1        73 7.08036E+01
 -1        74 7.08036E+01
 -1        75 7.08036E+01
 -1        76 7.08036E+01
 -1        77 7.87187E+01
 -1        78 7.87187E+01
 -1        79 7.87187E+01
 -1        80 7.87187E+01
 -1        81 7.87187E+01
 -1        82 7.87187E+01
 -1        83 7.87187E+01
 -1        84 7.87187E+01
 -1        85 6.06741E+01
 -1        86 6.06741E+01
 -1        87 6.06741E+01
 -1        88 6.06741E+01
 -1        89 5.37145E+01
 -1        90 5.37145E+01
 -1        91 4.96282E+01
 -1        92 4.96282E+01
 -1        93 3.63749E+01
 -1        94 3.63749E+01
 -1        95 6.83060E+01
 -1        96 6.83060E+01
 -1        97 8.07448E+01
 -1        98 8.07448E+01
 -1        99 8.44840E+01
 -1       100 8.44840E+01
 -1       101 8.44840E+01
 -1       102 8.44840E+01
 -1       103 7.92130E+01
 -1       104 7.92130E+01
 -1       105 7.37675E+01
 -1       106 7.37675E+01
 -1       107 7.54971E+01
 -1       108 7.54971E+01
 -1       109 7.70231E+01
 -1       110 7.70231E+01
 -1       111 7.70231E+01
 -1       112 7.70231E+01
 -1       113 7.67612E+01
 -1       114 7.67612E+01
 -1       115 3.90371E+01
 -1       116 3.90371E+01
 -1       117 5.23604E+01
 -1       118 5.23604E+01
 -1       119 5.47433E+01
 -1       120 5.47433E+01
 -1       121 5.47433E+01
 -1       122 5.47433E+01
 -1       123 4.85258E+01
 -1       124 4.85258E+01
 -1       125 2.52316E+01
 -1       126 2.52316E+01
 -3
    1PSTEP                        61          16           1          
  100CL  116 1.60000E-01         126                     1   16           1
 -4  DISP        4    1
 -5  D1          1    2    1    0
 -5  D2          1    2    2    0
 -5  D3          1    2    3    0
 -5  ALL         1    2    0    0    1ALL
 -1         1 0.00000E+00 0.00000E+00 0.00000E+00
 -1         2 0.00000E+00 0.00000E+00 0.00000E+00
 -1         3 6.83746E-04 0.00000E+00 4.60909E-05
 -1         4 8.85648E-04 0.00000E+00-9.16390E-04
 -1         5 0.00000E+00 0.00000E+00 0.00000E+00
 -1         6 0.00000E+00 0.00000E+00 0.00000E+00
 -1         7 6.83746E-04 0.00000E+00 4.60909E-05
 -1         8 8.85648E-04 0.00000E+00-9.16390E-04
 -1         9 2.38001E-03 0.00000E+00 9.33614E-05
 -1        10 2.44352E-03 0.00000E+00-1.63140E-03
 -1        11 2.38001E-03 0.00000E+00 9.33614E-05
 -1        12 2.44352E-03 0.00000E+00-1.63140E-03
 -1        13 4.63790E-03 0.00000E+00 1.23729E-04
 -1        14 4.63928E-03 0.00000E+00-2.08464E-03
 -1        15 4.63790E-03 0.00000E+00 1.23729E-04
 -1        16 4.63928E-03 0.00000E+00-2.08464E-03
 -1        17 7.23093E-03 0.00000E+00 1.39569E-04
 -1        18 7.17284E-03 0.00000E+00-2.32679E-03
 -1        19 7.23093E-03 0.00000E+00 1.39569E-04
 -1        20 7.17284E-03 0.00000E+00-2.32679E-03
 -1        21 9.95267E-03 0.00000E+00 1.54865E-04
 -1        22 9.84810E-03 0.00000E+00-2.37286E-03
 -1        23 9.95267E-03 0.00000E+00 1.54865E-04
 -1        24 9.84810E-03 0.00000E+00-2.37286E-03
 -1        25 1.26155E-02 0.00000E+00 1.78442E-04
 -1        26 1.24852E-02 0.00000E+00-2.24465E-03
 -1        27 1.26155E-02 0.00000E+00 1.78442E-04
 -1        28 1.24852E-02 0.00000E+00-2.24465E-03
 -1        29 1.50654E-02 0.00000E+00 2.11699E-04
 -1        30 1.49214E-02 0.00000E+00-1.97452E-03
 -1        31 1.50654E-02 0.00000E+00 2.11699E-04
 -1        32 1.49214E-02 0.00000E+00-1.97452E-03
 -1        33 1.71947E-02 0.00000E+00 2.58999E-04
 -1        34 1.70445E-02 0.00000E+00-1.58995E-03
 -1        35 1.71947E-02 0.00000E+00 2.58999E-04
 -1        36 1.70445E-02 0.00000E+00-1.58995E-03
 -1        37 1.89083E-02 0.00000E+00 3.23309E-04
 -1        38 1.87589E-02 0.00000E+00-1.11820E-03
 -1        39 1.89083E-02 0.00000E+00 3.23309E-04
 -1        40 1.87589E-02 0.00000E+00-1.11820E-03
 -1        41 2.01623E-02 0.00000E+00 3.98695E-04
 -1        42 2.00206E-02 0.00000E+00-5.91577E-04
 -1        43 2.01623E-02 0.00000E+00 3.98695E-04
 -1        44 2.00206E-02 0.00000E+00-5.91577E-04
 -1        45 2.09201E-02 0.00000E+00 4.76147E-04
 -1        46 2.07890E-02 0.00000E+00-4.20297E-05
 -1        47 2.09201E-02 0.00000E+00 4.76147E-04
 -1        48 2.07890E-02 0.00000E+00-4.20297E-05
 -1        49 2.11469E-02 0.00000E+00 5.49805E-04
 -1        50 2.10337E-02 0.00000E+00 4.78558E-04
 -1        51 2.11469E-02 0.00000E+00 5.49805E-04
 -1        52 2.10337E-02 0.00000E+00 4.78558E-04
 -1        53 2.09219E-02 0.00000E+00 6.16544E-04
 -1        54 2.08296E-02 0.00000E+00 9.17920E-04
 -1        55 2.09219E-02 0.00000E+00 6.16544E-04
 -1        56 2.08296E-02 0.00000E+00 9.17920E-04
 -1        57 2.03639E-02 0.00000E+00 6.73433E-04
 -1        58 2.02942E-02 0.00000E+00 1.26047E-03
 -1        59 2.03639E-02 0.00000E+00 6.73433E-04
 -1        60 2.02942E-02 0.00000E+00 1.26047E-03
 -1        61 1.95357E-02 0.00000E+00 7.19032E-04
 -1        62 1.94913E-02 0.00000E+00 1.49257E-03
 -1        63 1.95357E-02 0.00000E+00 7.19032E-04
 -1        64 1.94913E-02 0.00000E+00 1.49257E-03
 -1        65 1.85376E-02 0.00000E+00 7.55622E-04
 -1        66 1.85297E-02 0.00000E+00 1.57001E-03
 -1        67 1.85376E-02 0.00000E+00 7.55622E-04
 -1        68 1.85297E-02 0.00000E+00 1.57001E-03
 -1        69 1.75957E-02 0.00000E+00 7.85301E-04
 -1        70 1.76282E-02 0.00000E+00 1.46822E-03
 -1        71 1.75957E-02 0.00000E+00 7.85301E-04
 -1        72 1.76282E-02 0.00000E+00 1.46822E-03
 -1        73 1.69645E-02 0.00000E+00 8.11128E-04
 -1        74 1.70148E-02 0.00000E+00 1.25974E-03
 -1        75 1.69645E-02 0.00000E+00 8.11128E-04
 -1        76 1.70148E-02 0.00000E+00 1.25974E-03
 -1        77 1.66981E-02 0.00000E+00 8.35129E-04
 -1        78 1.67271E-02 0.00000E+00 1.08748E-03
 -1        79 1.66981E-02 0.00000E+00 8.35129E-04
 -1        80 1.67271E-02 0.00000E+00 1.08748E-03
 -1        81 1.65638E-02 0.00000E+00 8.58233E-04
 -1        82 1.65767E-02 0.00000E+00 1.02538E-03
 -1        83 1.65638E-02 0.00000E+00 8.58233E-04
 -1        84 1.65767E-02 0.00000E+00 1.02538E-03
 -1        85 0.00000E+00 0.00000E+00 0.00000E+00
 -1        86 9.67624E-04 0.00000E+00 1.01378E-03
 -1        87 0.00000E+00 0.00000E+00 0.00000E+00
 -1        88 9.67624E-04 0.00000E+00 1.01378E-03
 -1        89 2.57861E-03 0.00000E+00 1.81273E-03
 -1        90 2.57861E-03 0.00000E+00 1.81273E-03
 -1        91 4.81066E-03 0.00000E+00 2.32496E-03
 -1        92 4.81066E-03 0.00000E+00 2.32496E-03
 -1        93 7.37064E-03 0.00000E+00 2.60382E-03
 -1        94 7.37064E-03 0.00000E+00 2.60382E-03
 -1        95 1.00597E-02 0.00000E+00 2.68390E-03
 -1        96 1.00597E-02 0.00000E+00 2.68390E-03
 -1        97 1.26865E-02 0.00000E+00 2.60426E-03
 -1        98 1.26865E-02 0.00000E+00 2.60426E-03
 -1        99 1.50984E-02 0.00000E+00 2.40446E-03
 -1       100 1.50984E-02 0.00000E+00 2.40446E-03
 -1       101 1.71966E-02 0.00000E+00 2.11557E-03
 -1       102 1.71966E-02 0.00000E+00 2.11557E-03
 -1       103 1.88843E-02 0.00000E+00 1.76913E-03
 -1       104 1.88843E-02 0.00000E+00 1.76913E-03
 -1       105 2.01184E-02 0.00000E+00 1.38950E-03
 -1       106 2.01184E-02 0.00000E+00 1.38950E-03
 -1       107 2.08631E-02 0.00000E+00 9.92592E-04
 -1       108 2.08631E-02 0.00000E+00 9.92592E-04
 -1       109 2.10950E-02 0.00000E+00 6.17218E-04
 -1       110 2.10950E-02 0.00000E+00 6.17218E-04
 -1       111 2.08855E-02 0.00000E+00 3.08997E-04
 -1       112 2.08855E-02 0.00000E+00 3.08997E-04
 -1       113 2.03460E-02 0.00000E+00 8.03112E-05
 -1       114 2.03460E-02 0.00000E+00 8.03112E-05
 -1       115 1.95407E-02 0.00000E+00-5.78586E-05
 -1       116 1.95407E-02 0.00000E+00-5.78586E-05
 -1       117 1.85770E-02 0.00000E+00-6.29500E-05
 -1       118 1.85770E-02 0.00000E+00-6.29500E-05
 -1       119 1.76601E-02 0.00000E+00 9.33698E-05
 -1       120 1.76601E-02 0.00000E+00 9.33698E-05
 -1       121 1.70288E-02 0.00000E+00 3.52761E-04
 -1       122 1.70288E-02 0.00000E+00 3.52761E-04
 -1       123 1.67364E-02 0.00000E+00 5.75769E-04
 -1       124 1.67364E-02 0.00000E+00 5.75769E-04
 -1       125 1.65782E-02 0.00000E+00 6.66503E-04
 -1       126 1.65782E-02 0.00000E+00 6.66503E-04
 -3
    1PSTEP                        62          16           1          
  100CL  116 1.60000E-01         126                     1   16           1
 -4  STRESS      6    1
 -5  SXX         1    4    1    1
 -5  SYY         1    4    2    2
 -5  SZZ         1    4    3    3
 -5  SXY         1    4    1    2
 -5  SYZ         1    4    2    3
 -5  SZX         1    4    3    1
 -1         1-4.14963E+03-4.23184E+03-9.59097E+03-3.68887E-10 3.09977E-10 2.56690E+03
 -1         2 2.77220E+02 2.34164E+02 4.70255E+02 2.33525E-11 2.09145E-10 2.10801E+03
 -1         3 2.46950E+01 1.43808E+02 4.46163E+02 6.50719E-08 5.70103E-10 6.97682E+02
 -1         4-1.36819E+03-2.71623E+03-7.49769E+03 8.53495E-08-6.47179E-08 7.13981E+02
 -1         5-4.14963E+03-4.23184E+03-9.59097E+03-3.68887E-10 3.09977E-10 2.56690E+03
 -1         6 2.77220E+02 2.34164E+02 4.70255E+02 2.33534E-11 2.09145E-10 2.10801E+03
 -1         7 2.46950E+01 1.43808E+02 4.46163E+02 6.50718E-08 5.70078E-10 6.97682E+02
 -1         8-1.36819E+03-2.71623E+03-7.49769E+03 8.53496E-08-6.47179E-08 7.13981E+02
 -1         9 2.84015E+01 1.87685E+02 5.86254E+02 2.19415E-07-3.27231E-08 7.96823E+02
 -1        10-1.48648E+03-2.10259E+03-5.42199E+03 2.15750E-07-9.28278E-08 3.89369E+02
 -1        11 2.84015E+01 1.87685E+02 5.86254E+02 2.19415E-07-3.27229E-08 7.96823E+02
 -1        12-1.48648E+03-2.10259E+03-5.42199E+03 2.15749E-07-9.28280E-08 3.89369E+02
 -1        13 5.10838E+01 2.08151E+02 6.43439E+02 3.57674E-07-3.30437E-08 6.94932E+02
 -1        14-7.58777E+02-1.11436E+03-2.92525E+03 3.13154E-07-4.76989E-08 4.27351E+02
 -1        15 5.10838E+01 2.08151E+02 6.43439E+02 3.57673E-07-3.30437E-08 6.94932E+02
 -1        16-7.58777E+02-1.11436E+03-2.92525E+03 3.13155E-07-4.76991E-08 4.27351E+02
 -1        17 5.18677E+01 2.22187E+02 6.93349E+02 3.96416E-07-1.25495E-08 6.09884E+02
 -1        18-2.77728E+02-3.39062E+02-8.46100E+02 3.73552E-07 4.18089E-08 4.09903E+02
 -1        19 5.18677E+01 2.22187E+02 6.93349E+02 3.96417E-07-1.25494E-08 6.09884E+02
 -1        20-2.77728E+02-3.39062E+02-8.46100E+02 3.73551E-07 4.18087E-08 4.09903E+02
 -1        21 2.87548E+01 2.31273E+02 7.47475E+02 2.92632E-07-2.58404E-08 5.25287E+02
 -1        22 1.19682E+02 3.27238E+02 9.79754E+02 2.86996E-07 1.31111E-07 4.19434E+02
 -1        23 2.87548E+01 2.31273E+02 7.47475E+02 2.92633E-07-2.58404E-08 5.25287E+02
 -1        24 1.19682E+02 3.27238E+02 9.79754E+02 2.86996E-07 1.31112E-07 4.19434E+02
 -1        25 2.62978E+01 2.40240E+02 7.78171E+02-2.49619E-08-2.46557E-08 4.26267E+02
 -1        26 4.82829E+02 8.85424E+02 2.49495E+03 2.36718E-09 1.37324E-07 4.02540E+02
 -1        27 2.62978E+01 2.40240E+02 7.78171E+02-2.49621E-08-2.46558E-08 4.26267E+02
 -1        28 4.82829E+02 8.85424E+02 2.49495E+03 2.36684E-09 1.37324E-07 4.02540E+02
 -1        29 2.46119E+01 2.41863E+02 7.82359E+02-2.06763E-07 8.29227E-10 3.26110E+02
 -1        30 7.44696E+02 1.30631E+03 3.65917E+03-1.90783E-07 3.36165E-08 3.56162E+02
 -1        31 2.46119E+01 2.41863E+02 7.82359E+02-2.06762E-07 8.29312E-10 3.26110E+02
 -1        32 7.44696E+02 1.30631E+03 3.65917E+03-1.90783E-07 3.36165E-08 3.56162E+02
 -1        33 3.43298E+00 2.37344E+02 7.85932E+02-1.58030E-07 1.76693E-08 2.26677E+02
 -1        34 9.19005E+02 1.61063E+03 4.52205E+03-1.66780E-07-8.55141E-08 2.85647E+02
 -1        35 3.43298E+00 2.37344E+02 7.85932E+02-1.58035E-07 1.76692E-08 2.26677E+02
 -1        36 9.19005E+02 1.61063E+03 4.52205E+03-1.66776E-07-8.55141E-08 2.85647E+02
 -1        37-9.49954E+00 2.32973E+02 7.81709E+02 2.26674E-08 1.79870E-08 1.35253E+02
 -1        38 1.03629E+03 1.81288E+03 5.09590E+03 3.34043E-08-1.61653E-07 2.04899E+02
 -1        39-9.49954E+00 2.32973E+02 7.81709E+02 2.26675E-08 1.79871E-08 1.35253E+02
 -1        40 1.03629E+03 1.81288E+03 5.09590E+03 3.34080E-08-1.61653E-07 2.04899E+02
 -1        41-7.91347E+00 2.21670E+02 7.40915E+02 2.49386E-07-1.46297E-09 5.48145E+01
 -1        42 1.12194E+03 1.92324E+03 5.38736E+03 2.46478E-07-1.96002E-07 1.20232E+02
 -1        43-7.91347E+00 2.21670E+02 7.40915E+02 2.49384E-07-1.46300E-09 5.48145E+01
 -1        44 1.12194E+03 1.92324E+03 5.38736E+03 2.46480E-07-1.96002E-07 1.20232E+02
 -1        45 1.12403E+00 2.04186E+02 6.74594E+02 5.09323E-07-2.63749E-08-7.38627E+01
 -1        46 1.10666E+03 1.89001E+03 5.28893E+03 4.94279E-07-1.39350E-07-1.47689E+01
 -1        47 1.12403E+00 2.04186E+02 6.74594E+02 5.09318E-07-2.63748E-08-7.38627E+01
 -1        48 1.10666E+03 1.89001E+03 5.28893E+03 4.94276E-07-1.39350E-07-1.47689E+01
 -1        49 3.90973E+00 1.84945E+02 6.08354E+02 6.15213E-07-3.20050E-08-2.10796E+02
 -1        50 1.00396E+03 1.69430E+03 4.72026E+03 5.74510E-07 3.04132E-08-1.57063E+02
 -1        51 3.90973E+00 1.84945E+02 6.08354E+02 6.15215E-07-3.20049E-08-2.10796E+02
 -1        52 1.00396E+03 1.69430E+03 4.72026E+03 5.74509E-07 3.04131E-08-1.57063E+02
 -1        53 1.03985E+01 1.68705E+02 5.49232E+02 3.76745E-07-2.53214E-08-2.70074E+02
 -1        54 8.32536E+02 1.38898E+03 3.84883E+03 3.41267E-07 1.66473E-07-2.23132E+02
 -1        55 1.03985E+01 1.68705E+02 5.49232E+02 3.76742E-07-2.53215E-08-2.70074E+02
 -1        56 8.32536E+02 1.38898E+03 3.84883E+03 3.41268E-07 1.66473E-07-2.23132E+02
 -1        57 2.93692E+01 1.56045E+02 4.90858E+02 2.27742E-08-1.49881E-08-3.20529E+02
 -1        58 6.41782E+02 1.04088E+03 2.85807E+03 8.28187E-09 1.42326E-07-2.68885E+02
 -1        59 2.93692E+01 1.56045E+02 4.90858E+02 2.27746E-08-1.49880E-08-3.20529E+02
 -1        60 6.41782E+02 1.04088E+03 2.85807E+03 8.28142E-09 1.42326E-07-2.68885E+02
 -1        61 4.35548E+01 1.42211E+02 4.32964E+02-7.78103E-08 2.82408E-09-4.28573E+02
 -1        62 3.48254E+02 5.72483E+02 1.57262E+03-6.55516E-08 4.74471E-08-3.45988E+02
 -1        63 4.35548E+01 1.42211E+02 4.32964E+02-7.78104E-08 2.82405E-09-4.28573E+02
 -1        64 3.48254E+02 5.72483E+02 1.57262E+03-6.55548E-08 4.74470E-08-3.45988E+02
 -1        65 3.20624E+01 1.18075E+02 3.64273E+02-6.41904E-08 2.21458E-09-4.76150E+02
 -1        66-1.59178E+01-2.19536E+01-5.29742E+01-4.07765E-08-1.76757E-08-3.60485E+02
 -1        67 3.20624E+01 1.18075E+02 3.64273E+02-6.41900E-08 2.21469E-09-4.76150E+02
 -1        68-1.59178E+01-2.19536E+01-5.29742E+01-4.07775E-08-1.76759E-08-3.60485E+02
 -1        69 5.00485E+01 1.05938E+02 3.05316E+02-1.61374E-08-2.10763E-08-3.07306E+02
 -1        70-2.79141E+02-5.17128E+02-1.43531E+03 1.16172E-08-7.76098E-08-2.20942E+02
 -1        71 5.00485E+01 1.05938E+02 3.05316E+02-1.61394E-08-2.10763E-08-3.07306E+02
 -1        72-2.79141E+02-5.17128E+02-1.43531E+03 1.16202E-08-7.76098E-08-2.20942E+02
 -1        73 7.69216E+01 1.02821E+02 2.67239E+02 1.15600E-07-7.22546E-09 1.34996E+01
 -1        74-3.01794E+02-6.26691E+02-1.77534E+03 9.09913E-08-1.24963E-07 1.33595E+00
 -1        75 7.69216E+01 1.02821E+02 2.67239E+02 1.15600E-07-7.22538E-09 1.34996E+01
 -1        76-3.01794E+02-6.26691E+02-1.77534E+03 9.09887E-08-1.24963E-07 1.33595E+00
 -1        77 6.72114E+01 9.23506E+01 2.40129E+02 2.80881E-07 4.68572E-08 1.70531E+02
 -1        78-2.19319E+02-4.01532E+02-1.11430E+03 2.65661E-07-1.42562E-07 1.04657E+02
 -1        79 6.72114E+01 9.23506E+01 2.40129E+02 2.80878E-07 4.68571E-08 1.70531E+02
 -1        80-2.19319E+02-4.01532E+02-1.11430E+03 2.65664E-07-1.42562E-07 1.04657E+02
 -1        81 1.01830E+02 1.05362E+02 2.49372E+02 5.03275E-07 7.39284E-08 1.38879E+02
 -1        82-1.44164E+02-2.24818E+02-6.04469E+02 4.95592E-07-1.48948E-07 5.18938E+01
 -1        83 1.01830E+02 1.05362E+02 2.49372E+02 5.03273E-07 7.39285E-08 1.38879E+02
 -1        84-1.44164E+02-2.24818E+02-6.04469E+02 4.95590E-07-1.48948E-07 5.18938E+01
 -1        85 4.77555E+03 4.67453E+03 1.12751E+04 3.91350E-10 2.63114E-10 3.17243E+03
 -1        86 1.37584E+03 3.00033E+03 8.88701E+03 7.62426E-08 7.21478E-08 1.09883E+03
 -1        87 4.77555E+03 4.67453E+03 1.12751E+04 3.91343E-10 2.63113E-10 3.17243E+03
 -1        88 1.37584E+03 3.00033E+03 8.88701E+03 7.62428E-08 7.21477E-08 1.09883E+03
 -1        89 1.43553E+03 2.41630E+03 6.78117E+03 2.05874E-07 8.09906E-08 7.33079E+02
 -1        90 1.43553E+03 2.41630E+03 6.78117E+03 2.05874E-07 8.09905E-08 7.33079E+02
 -1        91 8.13732E+02 1.51627E+03 4.31294E+03 3.71466E-07 1.93733E-08 6.89135E+02
 -1        92 8.13732E+02 1.51627E+03 4.31294E+03 3.71467E-07 1.93732E-08 6.89135E+02
 -1        93 3.48944E+02 7.81216E+02 2.28073E+03 3.75778E-07-6.66827E-08 5.47051E+02
 -1        94 3.48944E+02 7.81216E+02 2.28073E+03 3.75778E-07-6.66827E-08 5.47051E+02
 -1        95-9.35810E+01 1.28389E+02 5.27396E+02 2.60543E-07-1.70899E-07 4.14468E+02
 -1        96-9.35810E+01 1.28389E+02 5.27396E+02 2.60540E-07-1.70899E-07 4.14468E+02
 -1        97-4.51937E+02-4.07379E+02-9.01883E+02-1.59817E-08-1.70397E-07 2.76514E+02
 -1        98-4.51937E+02-4.07379E+02-9.01883E+02-1.59829E-08-1.70397E-07 2.76514E+02
 -1        99-7.10685E+02-8.22667E+02-2.01955E+03-1.58846E-07-2.90006E-08 1.61643E+02
 -1       100-7.10685E+02-8.22667E+02-2.01955E+03-1.58845E-07-2.90014E-08 1.61643E+02
 -1       101-9.36856E+02-1.14944E+03-2.87051E+03-1.37301E-07 1.23204E-07 7.49385E+01
 -1       102-9.36856E+02-1.14944E+03-2.87051E+03-1.37294E-07 1.23205E-07 7.49385E+01
 -1       103-1.08606E+03-1.36933E+03-3.44375E+03 5.06725E-08 1.81623E-07 1.17490E+01
 -1       104-1.08606E+03-1.36933E+03-3.44375E+03 5.06712E-08 1.81623E-07 1.17490E+01
 -1       105-1.16293E+03-1.49855E+03-3.78947E+03 2.25319E-07 1.66257E-07-3.00846E+01
 -1       106-1.16293E+03-1.49855E+03-3.78947E+03 2.25321E-07 1.66257E-07-3.00846E+01
 -1       107-1.12350E+03-1.49512E+03-3.81537E+03 4.82013E-07 9.32477E-08-9.90164E+01
 -1       108-1.12350E+03-1.49512E+03-3.81537E+03 4.82018E-07 9.32475E-08-9.90164E+01
 -1       109-1.01443E+03-1.33794E+03-3.40945E+03 5.82093E-07-6.25789E-08-1.72104E+02
 -1       110-1.01443E+03-1.33794E+03-3.40945E+03 5.82089E-07-6.25788E-08-1.72104E+02
 -1       111-8.25605E+02-1.06052E+03-2.68747E+03 3.84157E-07-1.99881E-07-1.97894E+02
 -1       112-8.25605E+02-1.06052E+03-2.68747E+03 3.84156E-07-1.99881E-07-1.97894E+02
 -1       113-5.86564E+02-7.26663E+02-1.82452E+03 6.10382E-08-1.93881E-07-2.34921E+02
 -1       114-5.86564E+02-7.26663E+02-1.82452E+03 6.10379E-08-1.93881E-07-2.34921E+02
 -1       115-2.70629E+02-2.89538E+02-6.90297E+02-4.85787E-08-8.29079E-08-3.27291E+02
 -1       116-2.70629E+02-2.89538E+02-6.90297E+02-4.85809E-08-8.29078E-08-3.27291E+02
 -1       117 5.11473E+01 2.38449E+02 7.49907E+02-7.13167E-08 1.14511E-08-3.81556E+02
 -1       118 5.11473E+01 2.38449E+02 7.49907E+02-7.13195E-08 1.14511E-08-3.81556E+02
 -1       119 3.56680E+02 7.12813E+02 2.03697E+03-2.41887E-08 7.26334E-08-2.66111E+02
 -1       120 3.56680E+02 7.12813E+02 2.03697E+03-2.41847E-08 7.26334E-08-2.66111E+02
 -1       121 4.58520E+02 8.37305E+02 2.35345E+03 1.53086E-07 1.38230E-07-2.00419E+01
 -1       122 4.58520E+02 8.37305E+02 2.35345E+03 1.53084E-07 1.38230E-07-2.00419E+01
 -1       123 3.20425E+02 5.52529E+02 1.53094E+03 3.26544E-07 2.07938E-07 1.01956E+02
 -1       124 3.20425E+02 5.52529E+02 1.53094E+03 3.26546E-07 2.07938E-07 1.01956E+02
 -1       125 2.67519E+02 3.54836E+02 9.18114E+02 4.85225E-07 2.40374E-07 1.02760E+02
 -1       126 2.67519E+02 3.54836E+02 9.18114E+02 4.85218E-07 2.40374E-07 1.02760E+02
 -3
    1PSTEP                        63          16           1          
  100CL  116 1.60000E-01         126                     1   16           1
 -4  TOSTRAIN    6    1
 -5  EXX         1    4    1    1
 -5  EYY         1    4    2    2
 -5  EZZ         1    4    3    3
 -5  EXY         1    4    1    2
 -5  EYZ         1    4    2    3
 -5  EZX         1    4    3    1
 -1         1-3.23079E-05-3.88501E-26-1.80348E-02-8.95293E-16 1.34170E-18 8.85632E-03
 -1         2-3.30572E-05-1.20560E-26 9.82630E-04 2.97459E-17-1.40866E-19 6.83731E-03
 -1         3-6.47634E-04 2.26012E-26 1.24218E-03 2.11379E-13 5.90474E-15 2.23035E-03
 -1         4 4.20523E-03 1.82438E-25-1.58835E-02 2.82807E-13-2.09737E-13 2.79904E-03
 -1         5-3.23079E-05-3.88501E-26-1.80348E-02-8.95293E-16 1.34170E-18 8.85632E-03
 -1         6-3.30572E-05-1.20560E-26 9.82630E-04 2.97489E-17-1.40440E-19 6.83731E-03
 -1         7-6.47634E-04 2.26011E-26 1.24218E-03 2.11379E-13 5.90465E-15 2.23035E-03
 -1         8 4.20523E-03 1.82439E-25-1.58835E-02 2.82807E-13-2.09737E-13 2.79904E-03
 -1         9-7.67048E-04 9.38964E-25 1.56048E-03 7.16917E-13-8.16700E-14 2.50996E-03
 -1        10 1.85189E-03 1.11578E-24-1.08998E-02 7.13844E-13-2.81994E-13 1.74584E-03
 -1        11-7.67048E-04 9.38963E-25 1.56048E-03 7.16917E-13-8.16697E-14 2.50996E-03
 -1        12 1.85189E-03 1.11578E-24-1.08998E-02 7.13843E-13-2.81994E-13 1.74584E-03
 -1        13-7.43572E-04 2.69124E-24 1.63922E-03 1.16665E-12-5.60727E-14 2.15471E-03
 -1        14 9.97879E-04 2.07789E-24-5.80856E-03 1.02542E-12-1.11162E-13 1.71701E-03
 -1        15-7.43572E-04 2.69122E-24 1.63922E-03 1.16665E-12-5.60727E-14 2.15471E-03
 -1        16 9.97879E-04 2.07790E-24-5.80856E-03 1.02542E-12-1.11162E-13 1.71701E-03
 -1        17-7.61367E-04 3.29984E-24 1.72324E-03 1.28906E-12 2.26330E-14 1.86050E-03
 -1        18 5.42839E-05 2.92699E-24-1.51980E-03 1.20612E-12 1.95819E-13 1.42122E-03
 -1        19-7.61367E-04 3.29986E-24 1.72324E-03 1.28906E-12 2.26333E-14 1.86050E-03
 -1        20 5.42839E-05 2.92698E-24-1.51980E-03 1.20612E-12 1.95818E-13 1.42122E-03
 -1        21-8.35712E-04 1.55273E-24 1.83832E-03 9.54507E-13-3.57462E-14 1.57230E-03
 -1        22-8.11637E-04 1.84067E-24 2.23405E-03 9.08965E-13 4.71293E-13 1.20831E-03
 -1        23-8.35712E-04 1.55273E-24 1.83832E-03 9.54509E-13-3.57461E-14 1.57230E-03
 -1        24-8.11637E-04 1.84068E-24 2.23405E-03 9.08966E-13 4.71294E-13 1.20831E-03
 -1        25-8.36350E-04-2.91102E-25 1.87656E-03-7.69589E-14-8.37620E-14 1.25370E-03
 -1        26-1.42909E-03 7.47812E-26 5.28008E-03-1.47512E-14 4.43031E-13 9.72914E-04
 -1        27-8.36350E-04-2.91104E-25 1.87656E-03-7.69597E-14-8.37623E-14 1.25370E-03
 -1        28-1.42909E-03 7.47805E-26 5.28008E-03-1.47523E-14 4.43031E-13 9.72914E-04
 -1        29-8.11846E-04 8.42854E-25 1.85658E-03-6.71615E-13-2.66991E-14 9.42940E-04
 -1        30-1.92232E-03 6.91608E-25 7.61027E-03-6.23686E-13 8.11152E-14 7.25375E-04
 -1        31-8.11846E-04 8.42843E-25 1.85658E-03-6.71611E-13-2.66987E-14 9.42940E-04
 -1        32-1.92232E-03 6.91605E-25 7.61027E-03-6.23684E-13 8.11153E-14 7.25375E-04
 -1        33-8.36664E-04 4.41022E-25 1.85903E-03-5.15598E-13 3.81010E-14 6.37130E-04
 -1        34-2.32081E-03 6.01058E-25 9.33996E-03-5.30407E-13-2.94198E-13 4.81748E-04
 -1        35-8.36664E-04 4.41051E-25 1.85903E-03-5.15615E-13 3.80999E-14 6.37130E-04
 -1        36-2.32081E-03 6.01036E-25 9.33996E-03-5.30394E-13-2.94198E-13 4.81748E-04
 -1        37-8.41414E-04-2.34644E-25 1.84255E-03 7.19232E-14 6.01789E-14 3.62575E-04
 -1        38-2.57525E-03 2.82065E-25 1.04804E-02 1.23832E-13-5.14935E-13 2.77018E-04
 -1        39-8.41414E-04-2.34647E-25 1.84255E-03 7.19236E-14 6.01791E-14 3.62575E-04
 -1        40-2.57525E-03 2.82084E-25 1.04804E-02 1.23844E-13-5.14935E-13 2.77018E-04
 -1        41-7.86377E-04 9.90922E-25 1.73700E-03 8.10702E-13 1.11606E-14 1.28741E-04
 -1        42-2.64143E-03 1.74229E-24 1.10305E-02 8.12306E-13-6.12060E-13 1.12445E-04
 -1        43-7.86377E-04 9.90908E-25 1.73700E-03 8.10697E-13 1.11604E-14 1.28741E-04
 -1        44-2.64143E-03 1.74232E-24 1.10305E-02 8.12311E-13-6.12059E-13 1.12445E-04
 -1        45-6.92685E-04 5.32463E-24 1.56766E-03 1.65645E-12-6.83807E-14-2.61989E-04
 -1        46-2.57345E-03 5.35790E-24 1.08163E-02 1.60811E-12-4.29844E-13-1.85058E-04
 -1        47-6.92685E-04 5.32451E-24 1.56766E-03 1.65643E-12-6.83807E-14-2.61989E-04
 -1        48-2.57345E-03 5.35785E-24 1.08163E-02 1.60810E-12-4.29844E-13-1.85058E-04
 -1        49-6.15982E-04 7.90796E-24 1.40942E-03 1.99982E-12-1.00978E-13-6.85349E-04
 -1        50-2.26508E-03 6.81433E-24 9.65015E-03 1.86413E-12 1.00308E-13-5.16631E-04
 -1        51-6.15982E-04 7.90800E-24 1.40942E-03 1.99983E-12-1.00978E-13-6.85349E-04
 -1        52-2.26508E-03 6.81432E-24 9.65015E-03 1.86413E-12 1.00308E-13-5.16631E-04
 -1        53-5.43651E-04 2.57876E-24 1.26950E-03 1.22390E-12-8.96589E-14-8.64087E-04
 -1        54-1.83056E-03 2.58739E-24 7.87912E-03 1.11153E-12 5.28644E-13-6.53383E-04
 -1        55-5.43651E-04 2.57873E-24 1.26950E-03 1.22389E-12-8.96591E-14-8.64087E-04
 -1        56-1.83056E-03 2.58741E-24 7.87912E-03 1.11153E-12 5.28644E-13-6.53383E-04
 -1        57-4.49613E-04-3.23012E-25 1.12315E-03 7.33006E-14-4.95146E-14-1.02058E-03
 -1        58-1.32660E-03 1.15705E-25 5.85462E-03 3.29775E-14 4.58517E-13-7.78135E-04
 -1        59-4.49613E-04-3.23006E-25 1.12315E-03 7.33019E-14-4.95144E-14-1.02058E-03
 -1        60-1.32660E-03 1.15700E-25 5.85462E-03 3.29760E-14 4.58517E-13-7.78135E-04
 -1        61-3.74258E-04 9.66150E-26 9.89781E-04-2.52701E-13 1.31056E-14-1.36869E-03
 -1        62-7.69625E-04 1.01317E-25 3.25756E-03-2.10182E-13 1.56780E-13-1.05500E-03
 -1        63-3.74258E-04 9.66154E-26 9.89781E-04-2.52702E-13 1.31055E-14-1.36869E-03
 -1        64-7.69625E-04 1.01325E-25 3.25756E-03-2.10192E-13 1.56780E-13-1.05500E-03
 -1        65-3.39547E-04 8.33178E-26 8.50878E-04-2.08461E-13 1.05730E-14-1.52525E-03
 -1        66-2.40666E-05 2.05164E-26-6.85380E-05-1.33571E-13-5.53161E-14-1.17186E-03
 -1        67-3.39547E-04 8.33177E-26 8.50878E-04-2.08460E-13 1.05733E-14-1.52525E-03
 -1        68-2.40666E-05 2.05171E-26-6.85380E-05-1.33574E-13-5.53166E-14-1.17186E-03
 -1        69-2.24727E-04-4.05648E-26 6.82522E-04-5.35239E-14-6.76877E-14-9.84548E-04
 -1        70 7.42489E-04 9.34801E-26-2.97958E-03 3.39130E-14-2.53743E-13-7.71696E-04
 -1        71-2.24727E-04-4.05649E-26 6.82522E-04-5.35306E-14-6.76878E-14-9.84548E-04
 -1        72 7.42489E-04 9.34815E-26-2.97958E-03 3.39227E-14-2.53743E-13-7.71696E-04
 -1        73-9.98261E-05 1.36820E-25 5.43741E-04 3.75460E-13-2.67536E-14 4.97260E-05
 -1        74 1.04429E-03 3.92032E-25-3.75558E-03 2.92130E-13-4.10744E-13-4.08455E-05
 -1        75-9.98261E-05 1.36823E-25 5.43741E-04 3.75462E-13-2.67534E-14 4.97260E-05
 -1        76 1.04429E-03 3.92019E-25-3.75558E-03 2.92122E-13-4.10744E-13-4.08455E-05
 -1        77-8.00166E-05 1.45938E-24 4.79284E-04 9.13383E-13 1.47633E-13 5.56281E-04
 -1        78 5.93127E-04 1.65191E-24-2.33042E-03 8.61575E-13-4.69039E-13 3.25855E-04
 -1        79-8.00166E-05 1.45935E-24 4.79284E-04 9.13375E-13 1.47633E-13 5.56281E-04
 -1        80 5.93127E-04 1.65194E-24-2.33042E-03 8.61585E-13-4.69038E-13 3.25855E-04
 -1        81-9.13933E-06 5.14980E-24 4.65567E-04 1.63593E-12 2.34296E-13 4.52431E-04
 -1        82 2.63183E-04 5.30019E-24-1.23695E-03 1.60955E-12-4.90211E-13 1.64627E-04
 -1        83-9.13933E-06 5.14977E-24 4.65567E-04 1.63593E-12 2.34296E-13 4.52431E-04
 -1        84 2.63183E-04 5.30015E-24-1.23695E-03 1.60954E-12-4.90212E-13 1.64627E-04
 -1        85-3.38065E-05-3.41788E-26 2.06340E-02 9.51486E-16-1.54477E-18 9.67607E-03
 -1        86-5.50049E-03 1.58861E-25 1.86201E-02 2.41493E-13 2.33528E-13 2.96742E-03
 -1        87-3.38065E-05-3.41788E-26 2.06340E-02 9.51464E-16-1.54795E-18 9.67607E-03
 -1        88-5.50049E-03 1.58862E-25 1.86201E-02 2.41494E-13 2.33528E-13 2.96742E-03
 -1        89-3.38599E-03 8.95168E-25 1.39458E-02 6.57252E-13 2.81025E-13 1.71962E-03
 -1        90-3.38599E-03 8.95169E-25 1.39458E-02 6.57252E-13 2.81025E-13 1.71962E-03
 -1        91-2.48502E-03 2.85604E-24 9.09315E-03 1.20187E-12 1.14673E-13 1.69086E-03
 -1        92-2.48502E-03 2.85605E-24 9.09315E-03 1.20187E-12 1.14673E-13 1.69086E-03
 -1        93-1.57702E-03 3.02940E-24 4.97486E-03 1.23072E-12-1.55257E-13 1.44100E-03
 -1        94-1.57702E-03 3.02939E-24 4.97486E-03 1.23072E-12-1.55257E-13 1.44100E-03
 -1        95-8.59787E-04 1.80951E-24 1.41852E-03 8.75514E-13-5.11056E-13 1.23211E-03
 -1        96-8.59787E-04 1.80947E-24 1.41852E-03 8.75504E-13-5.11056E-13 1.23211E-03
 -1        97-2.43611E-04 3.45076E-25-1.51913E-03-2.40252E-14-5.56936E-13 9.67154E-04
 -1        98-2.43611E-04 3.45086E-25-1.51913E-03-2.40291E-14-5.56935E-13 9.67154E-04
 -1        99 2.98632E-04 4.35892E-25-3.85541E-03-5.12301E-13-1.17469E-13 7.14807E-04
 -1       100 2.98632E-04 4.35885E-25-3.85541E-03-5.12295E-13-1.17471E-13 7.14807E-04
 -1       101 6.47486E-04 5.81603E-25-5.61247E-03-4.62010E-13 3.86539E-13 4.80951E-04
 -1       102 6.47486E-04 5.81568E-25-5.61247E-03-4.61988E-13 3.86541E-13 4.80951E-04
 -1       103 8.92421E-04 5.50686E-25-6.80329E-03 1.47503E-13 6.00380E-13 2.62682E-04
 -1       104 8.92421E-04 5.50682E-25-6.80329E-03 1.47499E-13 6.00380E-13 2.62682E-04
 -1       105 1.06868E-03 1.39536E-24-7.53457E-03 7.22961E-13 5.60640E-13 7.15072E-05
 -1       106 1.06868E-03 1.39536E-24-7.53457E-03 7.22966E-13 5.60640E-13 7.15072E-05
 -1       107 1.18808E-03 4.87128E-24-7.63912E-03 1.56663E-12 3.22760E-13-2.35959E-04
 -1       108 1.18808E-03 4.87138E-24-7.63912E-03 1.56665E-12 3.22760E-13-2.35959E-04
 -1       109 1.03312E-03 7.08797E-24-6.80818E-03 1.89534E-12-2.02735E-13-5.57122E-04
 -1       110 1.03312E-03 7.08786E-24-6.80818E-03 1.89532E-12-2.02735E-13-5.57122E-04
 -1       111 7.43254E-04 3.58614E-24-5.32445E-03 1.24549E-12-6.62296E-13-6.88794E-04
 -1       112 7.43254E-04 3.58612E-24-5.32445E-03 1.24549E-12-6.62296E-13-6.88794E-04
 -1       113 4.27378E-04 5.39890E-25-3.56932E-03 1.90041E-13-6.35633E-13-8.17274E-04
 -1       114 4.27378E-04 5.39886E-25-3.56932E-03 1.90041E-13-6.35633E-13-8.17274E-04
 -1       115 2.11096E-05 1.13439E-25-1.27359E-03-1.62746E-13-2.67445E-13-1.08607E-03
 -1       116 2.11096E-05 1.13445E-25-1.27359E-03-1.62753E-13-2.67445E-13-1.08607E-03
 -1       117-6.55027E-04 8.77929E-26 1.69129E-03-2.31074E-13 4.08750E-14-1.19743E-03
 -1       118-6.55027E-04 8.77998E-26 1.69129E-03-2.31083E-13 4.08750E-14-1.19743E-03
 -1       119-1.19194E-03 2.12054E-26 4.28891E-03-7.49425E-14 2.35767E-13-7.83002E-04
 -1       120-1.19194E-03 2.12043E-26 4.28891E-03-7.49295E-14 2.35767E-13-7.83002E-04
 -1       121-1.24394E-03 6.90454E-25 4.88239E-03 5.01389E-13 4.41815E-13-6.65049E-06
 -1       122-1.24394E-03 6.90442E-25 4.88239E-03 5.01383E-13 4.41815E-13-6.65049E-06
 -1       123-7.53160E-04 2.94777E-24 3.15343E-03 1.06386E-12 6.67498E-13 3.50639E-04
 -1       124-7.53160E-04 2.94779E-24 3.15343E-03 1.06387E-12 6.67498E-13 3.50639E-04
 -1       125-2.81462E-04 5.98863E-24 1.82111E-03 1.57868E-12 7.73236E-13 3.39676E-04
 -1       126-2.81462E-04 5.98849E-24 1.82111E-03 1.57866E-12 7.73236E-13 3.39676E-04
 -3
    1PSTEP                        64          16           1          
  100CL  116 1.60000E-01         126                     1   16           1
 -4  ERROR       1    1
 -5  STR(%)      1    1    0    0
 -1         1 6.75608E+01
 -1         2 6.75608E+01
 -1         3 6.92138E+01
 -1         4 6.92138E+01
 -1         5 6.75608E+01
 -1         6 6.75608E+01
 -1         7 6.92138E+01
 -1         8 6.92138E+01
 -1         9 7.14639E+01
 -1        10 7.14639E+01
 -1        11 7.14639E+01
 -1        12 7.14639E+01
 -1        13 7.14639E+01
 -1        14 7.14639E+01
 -1        15 7.14639E+01
 -1        16 7.14639E+01
 -1        17 6.62428E+01
 -1        18 6.62428E+01
 -1        19 6.62428E+01
 -1        20 6.62428E+01
 -1        21 5.98217E+01
 -1        22 3.60159E+01
 -1        23 5.98217E+01
 -1        24 3.60159E+01
 -1        25 7.94951E+01
 -1        26 3.90768E+01
 -1        27 7.94951E+01
 -1        28 3.90768E+01
 -1        29 8.50130E+01
 -1        30 4.49799E+01
 -1        31 8.50130E+01
 -1        32 4.49799E+01
 -1        33 8.50130E+01
 -1        34 4.69159E+01
 -1        35 8.50130E+01
 -1        36 4.69159E+01
 -1        37 8.09483E+01
 -1        38 4.80827E+01
 -1        39 8.09483E+01
 -1        40 4.80827E+01
 -1        41 7.61621E+01
 -1        42 4.87658E+01
 -1        43 7.61621E+01
 -1        44 4.87658E+01
 -1        45 7.53170E+01
 -1        46 5.01723E+01
 -1        47 7.53170E+01
 -1        48 5.01723E+01
 -1        49 7.88695E+01
 -1        50 5.01723E+01
 -1        51 7.88695E+01
 -1        52 5.01723E+01
 -1        53 8.09123E+01
 -1        54 4.97214E+01
 -1        55 8.09123E+01
 -1        56 4.97214E+01
 -1        57 8.09123E+01
 -1        58 4.74831E+01
 -1        59 8.09123E+01
 -1        60 4.74831E+01
 -1        61 6.87058E+01
 -1        62 4.09973E+01
 -1        63 6.87058E+01
 -1        64 4.09973E+01
 -1        65 7.76496E+01
 -1        66 7.76496E+01
 -1        67 7.76496E+01
 -1        68 7.76496E+01
 -1        69 7.76496E+01
 -1        70 7.76496E+01
 -1        71 7.76496E+01
 -1        72 7.76496E+01
 -1        73 7.54091E+01
 -1        74 7.54091E+01
 -1        75 7.54091E+01
 -1        76 7.54091E+01
 -1        77 7.52983E+01
 -1        78 7.52983E+01
 -1        79 7.52983E+01
 -1        80 7.52983E+01
 -1        81 7.52983E+01
 -1        82 7.52983E+01
 -1        83 7.52983E+01
 -1        84 7.52983E+01
 -1        85 6.10367E+01
 -1        86 6.10367E+01
 -1        87 6.10367E+01
 -1        88 6.10367E+01
 -1        89 5.48457E+01
 -1        90 5.48457E+01
 -1        91 5.02828E+01
 -1        92 5.02828E+01
 -1        93 4.00843E+01
 -1        94 4.00843E+01
 -1        95 5.98217E+01
 -1        96 5.98217E+01
 -1        97 7.94951E+01
 -1        98 7.94951E+01
 -1        99 8.50130E+01
 -1       100 8.50130E+01
 -1       101 8.50130E+01
 -1       102 8.50130E+01
 -1       103 8.09483E+01
 -1       104 8.09483E+01
 -1       105 7.61621E+01
 -1       106 7.61621E+01
 -1       107 7.53170E+01
 -1       108 7.53170E+01
 -1       109 7.88695E+01
 -1       110 7.88695E+01
 -1       111 8.09123E+01
 -1       112 8.09123E+01
 -1       113 8.09123E+01
 -1       114 8.09123E+01
 -1       115 6.87058E+01
 -1       116 6.87058E+01
 -1       117 3.72623E+01
 -1       118 3.72623E+01
 -1       119 5.35714E+01
 -1       120 5.35714E+01
 -1       121 5.35714E+01
 -1       122 5.35714E+01
 -1       123 5.16950E+01
 -1       124 5.16950E+01
 -1       125 3.18849E+01
 -1       126 3.18849E+01
 -3
    1PSTEP                        65          17           1          
  100CL  117 1.70000E-01         126                     1   17           1
 -4  DISP        4    1
 -5  D1          1    2    1    0
 -5  D2          1    2    2    0
 -5  D3          1    2    3    0
 -5  ALL         1    2    0    0    1ALL
 -1         1 0.00000E+00 0.00000E+00 0.00000E+00
 -1         2 0.00000E+00 0.00000E+00 0.00000E+00
 -1         3 7.07238E-04 0.00000E+00 5.54183E-05
 -1         4 9.10381E-04 0.00000E+00-9.54192E-04
 -1         5 0.00000E+00 0.00000E+00 0.00000E+00
 -1         6 0.00000E+00 0.00000E+00 0.00000E+00
 -1         7 7.07238E-04 0.00000E+00 5.54183E-05
 -1         8 9.10381E-04 0.00000E+00-9.54192E-04
 -1         9 2.47369E-03 0.00000E+00 1.00605E-04
 -1        10 2.54461E-03 0.00000E+00-1.71472E-03
 -1        11 2.47369E-03 0.00000E+00 1.00605E-04
 -1        12 2.54461E-03 0.00000E+00-1.71472E-03
 -1        13 4.83935E-03 0.00000E+00 1.17727E-04
 -1        14 4.84511E-03 0.00000E+00-2.21696E-03
 -1        15 4.83935E-03 0.00000E+00 1.17727E-04
 -1        16 4.84511E-03 0.00000E+00-2.21696E-03
 -1        17 7.57809E-03 0.00000E+00 1.16038E-04
 -1        18 7.52407E-03 0.00000E+00-2.50079E-03
 -1        19 7.57809E-03 0.00000E+00 1.16038E-04
 -1        20 7.52407E-03 0.00000E+00-2.50079E-03
 -1        21 1.04584E-02 0.00000E+00 1.04431E-04
 -1        22 1.03612E-02 0.00000E+00-2.59486E-03
 -1        23 1.04584E-02 0.00000E+00 1.04431E-04
 -1        24 1.03612E-02 0.00000E+00-2.59486E-03
 -1        25 1.33122E-02 0.00000E+00 9.91945E-05
 -1        26 1.31818E-02 0.00000E+00-2.51628E-03
 -1        27 1.33122E-02 0.00000E+00 9.91945E-05
 -1        28 1.31818E-02 0.00000E+00-2.51628E-03
 -1        29 1.59788E-02 0.00000E+00 1.12509E-04
 -1        30 1.58289E-02 0.00000E+00-2.27996E-03
 -1        31 1.59788E-02 0.00000E+00 1.12509E-04
 -1        32 1.58289E-02 0.00000E+00-2.27996E-03
 -1        33 1.83308E-02 0.00000E+00 1.45337E-04
 -1        34 1.81751E-02 0.00000E+00-1.91352E-03
 -1        35 1.83308E-02 0.00000E+00 1.45337E-04
 -1        36 1.81751E-02 0.00000E+00-1.91352E-03
 -1        37 2.02741E-02 0.00000E+00 1.96701E-04
 -1        38 2.01185E-02 0.00000E+00-1.44628E-03
 -1        39 2.02741E-02 0.00000E+00 1.96701E-04
 -1        40 2.01185E-02 0.00000E+00-1.44628E-03
 -1        41 2.17255E-02 0.00000E+00 2.64994E-04
 -1        42 2.15777E-02 0.00000E+00-9.15292E-04
 -1        43 2.17255E-02 0.00000E+00 2.64994E-04
 -1        44 2.15777E-02 0.00000E+00-9.15292E-04
 -1        45 2.26753E-02 0.00000E+00 3.44050E-04
 -1        46 2.25354E-02 0.00000E+00-3.57258E-04
 -1        47 2.26753E-02 0.00000E+00 3.44050E-04
 -1        48 2.25354E-02 0.00000E+00-3.57258E-04
 -1        49 2.31170E-02 0.00000E+00 4.26083E-04
 -1        50 2.29891E-02 0.00000E+00 2.00965E-04
 -1        51 2.31170E-02 0.00000E+00 4.26083E-04
 -1        52 2.29891E-02 0.00000E+00 2.00965E-04
 -1        53 2.30293E-02 0.00000E+00 5.03063E-04
 -1        54 2.29227E-02 0.00000E+00 7.07177E-04
 -1        55 2.30293E-02 0.00000E+00 5.03063E-04
 -1        56 2.29227E-02 0.00000E+00 7.07177E-04
 -1        57 2.25144E-02 0.00000E+00 5.70423E-04
 -1        58 2.24357E-02 0.00000E+00 1.09821E-03
 -1        59 2.25144E-02 0.00000E+00 5.70423E-04
 -1        60 2.24357E-02 0.00000E+00 1.09821E-03
 -1        61 2.17609E-02 0.00000E+00 6.28951E-04
 -1        62 2.17026E-02 0.00000E+00 1.36430E-03
 -1        63 2.17609E-02 0.00000E+00 6.28951E-04
 -1        64 2.17026E-02 0.00000E+00 1.36430E-03
 -1        65 2.08661E-02 0.00000E+00 6.76099E-04
 -1        66 2.08309E-02 0.00000E+00 1.53014E-03
 -1        67 2.08661E-02 0.00000E+00 6.76099E-04
 -1        68 2.08309E-02 0.00000E+00 1.53014E-03
 -1        69 1.98836E-02 0.00000E+00 7.11281E-04
 -1        70 1.98705E-02 0.00000E+00 1.60111E-03
 -1        71 1.98836E-02 0.00000E+00 7.11281E-04
 -1        72 1.98705E-02 0.00000E+00 1.60111E-03
 -1        73 1.89352E-02 0.00000E+00 7.40963E-04
 -1        74 1.89363E-02 0.00000E+00 1.58422E-03
 -1        75 1.89352E-02 0.00000E+00 7.40963E-04
 -1        76 1.89363E-02 0.00000E+00 1.58422E-03
 -1        77 1.81281E-02 0.00000E+00 7.65536E-04
 -1        78 1.81324E-02 0.00000E+00 1.53205E-03
 -1        79 1.81281E-02 0.00000E+00 7.65536E-04
 -1        80 1.81324E-02 0.00000E+00 1.53205E-03
 -1        81 1.74084E-02 0.00000E+00 7.84908E-04
 -1        82 1.74109E-02 0.00000E+00 1.50455E-03
 -1        83 1.74084E-02 0.00000E+00 7.84908E-04
 -1        84 1.74109E-02 0.00000E+00 1.50455E-03
 -1        85 0.00000E+00 0.00000E+00 0.00000E+00
 -1        86 9.99304E-04 0.00000E+00 1.06035E-03
 -1        87 0.00000E+00 0.00000E+00 0.00000E+00
 -1        88 9.99304E-04 0.00000E+00 1.06035E-03
 -1        89 2.66939E-03 0.00000E+00 1.89751E-03
 -1        90 2.66939E-03 0.00000E+00 1.89751E-03
 -1        91 5.00973E-03 0.00000E+00 2.43900E-03
 -1        92 5.00973E-03 0.00000E+00 2.43900E-03
 -1        93 7.71183E-03 0.00000E+00 2.72680E-03
 -1        94 7.71183E-03 0.00000E+00 2.72680E-03
 -1        95 1.05578E-02 0.00000E+00 2.80681E-03
 -1        96 1.05578E-02 0.00000E+00 2.80681E-03
 -1        97 1.33797E-02 0.00000E+00 2.72255E-03
 -1        98 1.33797E-02 0.00000E+00 2.72255E-03
 -1        99 1.60096E-02 0.00000E+00 2.51247E-03
 -1       100 1.60096E-02 0.00000E+00 2.51247E-03
 -1       101 1.83272E-02 0.00000E+00 2.21170E-03
 -1       102 1.83272E-02 0.00000E+00 2.21170E-03
 -1       103 2.02410E-02 0.00000E+00 1.84662E-03
 -1       104 2.02410E-02 0.00000E+00 1.84662E-03
 -1       105 2.16740E-02 0.00000E+00 1.44921E-03
 -1       106 2.16740E-02 0.00000E+00 1.44921E-03
 -1       107 2.26108E-02 0.00000E+00 1.04551E-03
 -1       108 2.26108E-02 0.00000E+00 1.04551E-03
 -1       109 2.30503E-02 0.00000E+00 6.47607E-04
 -1       110 2.30503E-02 0.00000E+00 6.47607E-04
 -1       111 2.29753E-02 0.00000E+00 2.93716E-04
 -1       112 2.29753E-02 0.00000E+00 2.93716E-04
 -1       113 2.24863E-02 0.00000E+00 3.82245E-05
 -1       114 2.24863E-02 0.00000E+00 3.82245E-05
 -1       115 2.17540E-02 0.00000E+00-1.12677E-04
 -1       116 2.17540E-02 0.00000E+00-1.12677E-04
 -1       117 2.08736E-02 0.00000E+00-1.84853E-04
 -1       118 2.08736E-02 0.00000E+00-1.84853E-04
 -1       119 1.99064E-02 0.00000E+00-1.78777E-04
 -1       120 1.99064E-02 0.00000E+00-1.78777E-04
 -1       121 1.89706E-02 0.00000E+00-9.93845E-05
 -1       122 1.89706E-02 0.00000E+00-9.93845E-05
 -1       123 1.81532E-02 0.00000E+00-2.65041E-06
 -1       124 1.81532E-02 0.00000E+00-2.65041E-06
 -1       125 1.74206E-02 0.00000E+00 4.39142E-05
 -1       126 1.74206E-02 0.00000E+00 4.39142E-05
 -3
    1PSTEP                        66          17           1          
  100CL  117 1.70000E-01         126                     1   17           1
 -4  STRESS      6    1
 -5  SXX         1    4    1    1
 -5  SYY         1    4    2    2
 -5  SZZ         1    4    3    3
 -5  SXY         1    4    1    2
 -5  SYZ         1    4    2    3
 -5  SZX         1    4    3    1
 -1         1-4.32100E+03-4.40753E+03-9.97823E+03-2.74179E-10 1.27685E-10 2.63175E+03
 -1         2 3.24694E+02 2.78669E+02 5.67658E+02-9.38586E-11 1.06136E-10 2.18169E+03
 -1         3 2.42471E+01 1.54612E+02 4.80057E+02 3.12871E-08-3.15483E-08 7.12075E+02
 -1         4-1.52827E+03-2.89289E+03-7.90655E+03 2.79545E-08-6.26708E-08 7.17198E+02
 -1         5-4.32100E+03-4.40753E+03-9.97823E+03-2.74179E-10 1.27685E-10 2.63175E+03
 -1         6 3.24694E+02 2.78669E+02 5.67658E+02-9.38577E-11 1.06136E-10 2.18169E+03
 -1         7 2.42471E+01 1.54612E+02 4.80057E+02 3.12872E-08-3.15483E-08 7.12075E+02
 -1         8-1.52827E+03-2.89289E+03-7.90655E+03 2.79544E-08-6.26707E-08 7.17198E+02
 -1         9 1.02356E+02 2.06763E+02 5.72809E+02 1.36539E-07-2.19600E-09 8.10840E+02
 -1        10-1.57151E+03-2.25539E+03-5.83140E+03 1.04984E-07-1.08145E-07 3.78923E+02
 -1        11 1.02356E+02 2.06763E+02 5.72809E+02 1.36539E-07-2.19603E-09 8.10840E+02
 -1        12-1.57151E+03-2.25539E+03-5.83140E+03 1.04984E-07-1.08145E-07 3.78923E+02
 -1        13 1.10960E+02 2.07853E+02 5.80755E+02 3.11720E-07 8.36820E-09 7.03682E+02
 -1        14-8.28040E+02-1.24851E+03-3.29499E+03 3.14850E-07-1.01141E-07 4.13304E+02
 -1        15 1.10960E+02 2.07853E+02 5.80755E+02 3.11720E-07 8.36817E-09 7.03682E+02
 -1        16-8.28040E+02-1.24851E+03-3.29499E+03 3.14851E-07-1.01141E-07 4.13304E+02
 -1        17 1.27633E+02 2.16008E+02 5.95719E+02 4.33718E-07-1.69775E-08 6.17489E+02
 -1        18-3.16433E+02-4.53556E+02-1.18710E+03 4.20354E-07-2.00890E-08 4.10143E+02
 -1        19 1.27633E+02 2.16008E+02 5.95719E+02 4.33718E-07-1.69775E-08 6.17489E+02
 -1        20-3.16433E+02-4.53556E+02-1.18710E+03 4.20354E-07-2.00887E-08 4.10143E+02
 -1        21 1.26939E+02 2.23741E+02 6.23231E+02 3.48319E-07-1.22560E-08 5.27539E+02
 -1        22 1.16745E+02 2.21052E+02 6.26268E+02 3.27488E-07 9.65335E-08 4.14277E+02
 -1        23 1.26939E+02 2.23741E+02 6.23231E+02 3.48319E-07-1.22560E-08 5.27539E+02
 -1        24 1.16745E+02 2.21052E+02 6.26268E+02 3.27487E-07 9.65337E-08 4.14277E+02
 -1        25 9.37188E+01 2.30796E+02 6.78943E+02 1.43312E-07-8.79381E-09 4.50593E+02
 -1        26 4.44709E+02 7.84674E+02 2.19241E+03 1.78401E-07 1.86368E-07 4.13997E+02
 -1        27 9.37188E+01 2.30796E+02 6.78943E+02 1.43311E-07-8.79377E-09 4.50593E+02
 -1        28 4.44709E+02 7.84674E+02 2.19241E+03 1.78403E-07 1.86368E-07 4.13997E+02
 -1        29 8.24797E+01 2.46151E+02 7.39129E+02-1.60975E-07-3.88048E-10 3.65326E+02
 -1        30 7.16242E+02 1.25042E+03 3.49778E+03-1.22202E-07 1.70710E-07 3.92528E+02
 -1        31 8.24797E+01 2.46151E+02 7.39129E+02-1.60973E-07-3.88100E-10 3.65326E+02
 -1        32 7.16242E+02 1.25042E+03 3.49777E+03-1.22203E-07 1.70710E-07 3.92528E+02
 -1        33 7.69953E+01 2.54210E+02 7.68602E+02-2.79001E-07 1.21474E-08 2.77059E+02
 -1        34 9.44028E+02 1.61287E+03 4.50393E+03-2.40564E-07 3.12999E-08 3.43265E+02
 -1        35 7.69953E+01 2.54210E+02 7.68602E+02-2.79001E-07 1.21474E-08 2.77059E+02
 -1        36 9.44028E+02 1.61287E+03 4.50393E+03-2.40562E-07 3.12997E-08 3.43265E+02
 -1        37 6.35060E+01 2.53909E+02 7.79208E+02-1.19173E-07 6.18606E-09 1.68869E+02
 -1        38 1.07252E+03 1.84415E+03 5.16686E+03-9.16604E-08-8.47361E-08 2.50958E+02
 -1        39 6.35060E+01 2.53909E+02 7.79208E+02-1.19172E-07 6.18605E-09 1.68869E+02
 -1        40 1.07252E+03 1.84415E+03 5.16686E+03-9.16612E-08-8.47362E-08 2.50958E+02
 -1        41 5.34310E+01 2.51459E+02 7.78902E+02 4.09917E-08 5.78288E-09 6.50625E+01
 -1        42 1.15196E+03 1.96370E+03 5.49611E+03 4.53738E-08-9.78625E-08 1.39983E+02
 -1        43 5.34310E+01 2.51459E+02 7.78902E+02 4.09923E-08 5.78288E-09 6.50625E+01
 -1        44 1.15196E+03 1.96370E+03 5.49611E+03 4.53704E-08-9.78624E-08 1.39983E+02
 -1        45 5.27914E+01 2.45351E+02 7.58825E+02 1.45793E-07 4.48402E-11-1.25487E+01
 -1        46 1.15382E+03 1.97694E+03 5.53949E+03 1.50748E-07-8.06647E-08 4.44984E+01
 -1        47 5.27914E+01 2.45351E+02 7.58825E+02 1.45789E-07 4.48045E-11-1.25487E+01
 -1        48 1.15382E+03 1.97694E+03 5.53949E+03 1.50751E-07-8.06647E-08 4.44984E+01
 -1        49 5.64046E+01 2.32409E+02 7.14403E+02 2.34592E-07-1.87667E-08-1.41578E+02
 -1        50 1.09524E+03 1.87192E+03 5.23876E+03 2.40417E-07-6.11899E-08-8.94927E+01
 -1        51 5.64046E+01 2.32409E+02 7.14403E+02 2.34593E-07-1.87667E-08-1.41578E+02
 -1        52 1.09524E+03 1.87192E+03 5.23876E+03 2.40421E-07-6.11899E-08-8.94927E+01
 -1        53 7.02116E+01 2.19554E+02 6.59604E+02 3.04270E-07-2.78163E-08-2.93234E+02
 -1        54 9.38610E+02 1.58467E+03 4.41210E+03 2.91241E-07 1.03537E-08-2.34389E+02
 -1        55 7.02116E+01 2.19554E+02 6.59604E+02 3.04273E-07-2.78163E-08-2.93234E+02
 -1        56 9.38610E+02 1.58467E+03 4.41210E+03 2.91240E-07 1.03536E-08-2.34389E+02
 -1        57 7.78600E+01 2.05906E+02 6.07496E+02 1.74722E-07-1.78358E-08-3.24588E+02
 -1        58 7.23846E+02 1.18305E+03 3.25782E+03 1.73289E-07 9.94750E-08-2.70254E+02
 -1        59 7.78600E+01 2.05906E+02 6.07496E+02 1.74723E-07-1.78358E-08-3.24588E+02
 -1        60 7.23846E+02 1.18305E+03 3.25782E+03 1.73285E-07 9.94750E-08-2.70254E+02
 -1        61 6.66770E+01 1.81894E+02 5.40159E+02-9.40689E-08-2.45210E-08-2.67813E+02
 -1        62 4.64144E+02 7.82241E+02 2.16096E+03-7.17729E-08 8.75824E-08-2.21038E+02
 -1        63 6.66770E+01 1.81894E+02 5.40159E+02-9.40642E-08-2.45210E-08-2.67813E+02
 -1        64 4.64144E+02 7.82241E+02 2.16096E+03-7.17755E-08 8.75827E-08-2.21038E+02
 -1        65 8.95012E+01 1.66065E+02 4.65334E+02-1.97922E-07-2.73878E-08-2.53496E+02
 -1        66 2.91151E+02 4.55964E+02 1.23555E+03-1.75730E-07-4.02797E-09-2.00035E+02
 -1        67 8.95012E+01 1.66065E+02 4.65334E+02-1.97920E-07-2.73878E-08-2.53496E+02
 -1        68 2.91151E+02 4.55964E+02 1.23555E+03-1.75733E-07-4.02811E-09-2.00035E+02
 -1        69 9.34407E+01 1.46289E+02 3.95383E+02-1.63971E-07 7.71300E-09-2.35694E+02
 -1        70 1.16007E+02 1.41757E+02 3.58080E+02-1.67104E-07-8.96807E-08-1.79525E+02
 -1        71 9.34407E+01 1.46289E+02 3.95383E+02-1.63970E-07 7.71302E-09-2.35694E+02
 -1        72 1.16007E+02 1.41757E+02 3.58080E+02-1.67104E-07-8.96807E-08-1.79525E+02
 -1        73 5.70986E+01 1.14477E+02 3.25470E+02-2.62665E-08 3.98079E-08-1.13158E+02
 -1        74-3.26302E+01-8.64144E+01-2.54784E+02-1.29317E-08-1.68057E-07-7.75110E+01
 -1        75 5.70986E+01 1.14477E+02 3.25470E+02-2.62671E-08 3.98078E-08-1.13158E+02
 -1        76-3.26302E+01-8.64144E+01-2.54784E+02-1.29337E-08-1.68057E-07-7.75110E+01
 -1        77 7.97535E+01 1.07568E+02 2.79107E+02 2.70414E-07 4.21269E-08 1.07724E+01
 -1        78-4.76272E+01-1.10002E+02-3.18734E+02 2.96483E-07-2.32422E-07 1.40123E+01
 -1        79 7.97535E+01 1.07568E+02 2.79107E+02 2.70414E-07 4.21269E-08 1.07724E+01
 -1        80-4.76272E+01-1.10002E+02-3.18734E+02 2.96487E-07-2.32422E-07 1.40123E+01
 -1        81 1.18011E+02 1.15707E+02 2.67853E+02 5.72764E-07 3.95490E-08 3.17328E+01
 -1        82-2.01324E+01-6.74683E+01-2.04788E+02 5.47360E-07-2.38840E-07-4.28872E+00
 -1        83 1.18011E+02 1.15707E+02 2.67853E+02 5.72768E-07 3.95489E-08 3.17328E+01
 -1        84-2.01324E+01-6.74683E+01-2.04788E+02 5.47355E-07-2.38840E-07-4.28872E+00
 -1        85 4.99568E+03 4.88790E+03 1.18088E+04 1.86370E-10 1.78439E-10 3.28592E+03
 -1        86 1.50023E+03 3.16691E+03 9.34357E+03 5.23515E-08 2.01408E-08 1.13331E+03
 -1        87 4.99568E+03 4.88790E+03 1.18088E+04 1.86363E-10 1.78438E-10 3.28592E+03
 -1        88 1.50023E+03 3.16691E+03 9.34357E+03 5.23514E-08 2.01409E-08 1.13331E+03
 -1        89 1.66961E+03 2.61157E+03 7.21669E+03 1.92565E-07 6.25588E-08 7.61979E+02
 -1        90 1.66961E+03 2.61157E+03 7.21669E+03 1.92565E-07 6.25589E-08 7.61979E+02
 -1        91 1.01769E+03 1.66766E+03 4.62224E+03 2.92560E-07 6.21876E-08 7.12841E+02
 -1        92 1.01769E+03 1.66766E+03 4.62224E+03 2.92559E-07 6.21874E-08 7.12841E+02
 -1        93 5.53677E+02 8.99953E+02 2.47427E+03 3.94586E-07-3.72049E-08 5.59707E+02
 -1        94 5.53677E+02 8.99953E+02 2.47427E+03 3.94587E-07-3.72042E-08 5.59707E+02
 -1        95 1.23512E+02 2.39157E+02 6.79978E+02 3.08721E-07-1.47474E-07 4.22243E+02
 -1        96 1.23512E+02 2.39157E+02 6.79978E+02 3.08722E-07-1.47475E-07 4.22243E+02
 -1        97-2.85392E+02-3.29133E+02-8.07734E+02 1.03997E-07-2.03767E-07 3.01643E+02
 -1        98-2.85392E+02-3.29133E+02-8.07734E+02 1.03998E-07-2.03768E-07 3.01643E+02
 -1        99-5.82295E+02-7.71476E+02-1.97727E+03-1.46752E-07-1.45479E-07 1.92131E+02
 -1       100-5.82295E+02-7.71476E+02-1.97727E+03-1.46754E-07-1.45479E-07 1.92131E+02
 -1       101-8.13692E+02-1.11478E+03-2.87766E+03-2.48470E-07-1.48250E-08 1.07522E+02
 -1       102-8.13692E+02-1.11478E+03-2.87766E+03-2.48475E-07-1.48252E-08 1.07522E+02
 -1       103-9.69505E+02-1.35046E+03-3.49532E+03-1.19121E-07 8.22799E-08 2.95942E+01
 -1       104-9.69505E+02-1.35046E+03-3.49532E+03-1.19119E-07 8.22800E-08 2.95942E+01
 -1       105-1.07200E+03-1.48056E+03-3.81967E+03 3.53074E-08 1.04374E-07-3.05653E+01
 -1       106-1.07200E+03-1.48056E+03-3.81967E+03 3.53053E-08 1.04374E-07-3.05653E+01
 -1       107-1.07503E+03-1.50669E+03-3.90171E+03 1.25501E-07 7.81115E-08-5.99942E+01
 -1       108-1.07503E+03-1.50669E+03-3.90171E+03 1.25509E-07 7.81114E-08-5.99942E+01
 -1       109-1.00339E+03-1.42218E+03-3.69464E+03 2.07792E-07 3.18034E-08-1.24906E+02
 -1       110-1.00339E+03-1.42218E+03-3.69464E+03 2.07786E-07 3.18035E-08-1.24906E+02
 -1       111-8.09906E+02-1.15099E+03-2.99821E+03 2.77534E-07-5.20548E-08-2.16614E+02
 -1       112-8.09906E+02-1.15099E+03-2.99821E+03 2.77533E-07-5.20547E-08-2.16614E+02
 -1       113-5.80553E+02-7.77888E+02-2.00018E+03 1.67311E-07-1.31783E-07-2.31839E+02
 -1       114-5.80553E+02-7.77888E+02-2.00018E+03 1.67312E-07-1.31783E-07-2.31839E+02
 -1       115-3.45123E+02-4.27839E+02-1.07746E+03-9.18030E-08-1.27981E-07-1.92798E+02
 -1       116-3.45123E+02-4.27839E+02-1.07746E+03-9.18115E-08-1.27981E-07-1.92798E+02
 -1       117-1.06440E+02-1.13393E+02-2.70589E+02-1.50448E-07-3.00496E-08-1.91981E+02
 -1       118-1.06440E+02-1.13393E+02-2.70589E+02-1.50451E-07-3.00496E-08-1.91981E+02
 -1       119 8.64568E+01 1.70488E+02 4.83680E+02-1.07080E-07 1.07781E-07-1.93030E+02
 -1       120 8.64568E+01 1.70488E+02 4.83680E+02-1.07078E-07 1.07781E-07-1.93030E+02
 -1       121 1.41118E+02 3.11174E+02 8.99660E+02-6.02291E-10 2.41537E-07-1.18424E+02
 -1       122 1.41118E+02 3.11174E+02 8.99660E+02-6.03454E-10 2.41537E-07-1.18424E+02
 -1       123 1.52806E+02 2.69906E+02 7.49308E+02 2.62759E-07 3.18043E-07-2.58748E+01
 -1       124 1.52806E+02 2.69906E+02 7.49308E+02 2.62754E-07 3.18043E-07-2.58748E+01
 -1       125 1.67611E+02 2.09078E+02 5.30295E+02 5.62029E-07 3.26174E-07 2.31347E+01
 -1       126 1.67611E+02 2.09078E+02 5.30295E+02 5.62031E-07 3.26174E-07 2.31347E+01
 -3
    1PSTEP                        67          17           1          
  100CL  117 1.70000E-01         126                     1   17           1
 -4  TOSTRAIN    6    1
 -5  EXX         1    4    1    1
 -5  EYY         1    4    2    2
 -5  EZZ         1    4    3    3
 -5  EXY         1    4    1    2
 -5  EYZ         1    4    2    3
 -5  EZX         1    4    3    1
 -1         1-3.54234E-05-1.71818E-26-1.87709E-02-7.78752E-16 2.46872E-18 9.10365E-03
 -1         2-3.59167E-05-5.76408E-27 1.17304E-03-3.30303E-16 1.39554E-18 7.07223E-03
 -1         3-7.02455E-04 1.19214E-26 1.33974E-03 1.04265E-13-1.00292E-13 2.27446E-03
 -1         4 4.24607E-03 8.22090E-26-1.66767E-02 9.62488E-14-2.06690E-13 2.85163E-03
 -1         5-3.54234E-05-1.71818E-26-1.87709E-02-7.78752E-16 2.46872E-18 9.10365E-03
 -1         6-3.59167E-05-5.76408E-27 1.17304E-03-3.30300E-16 1.39597E-18 7.07223E-03
 -1         7-7.02455E-04 1.19217E-26 1.33974E-03 1.04266E-13-1.00292E-13 2.27446E-03
 -1         8 4.24607E-03 8.22085E-26-1.66767E-02 9.62482E-14-2.06690E-13 2.85163E-03
 -1         9-6.06474E-04 2.86594E-25 1.47950E-03 4.43884E-13 8.88148E-15 2.56229E-03
 -1        10 2.06278E-03 3.61655E-25-1.17638E-02 3.55903E-13-3.44464E-13 1.77746E-03
 -1        11-6.06474E-04 2.86593E-25 1.47950E-03 4.43884E-13 8.88136E-15 2.56229E-03
 -1        12 2.06278E-03 3.61654E-25-1.17638E-02 3.55903E-13-3.44464E-13 1.77746E-03
 -1        13-5.65363E-04 1.94913E-24 1.45802E-03 1.01047E-12 7.40742E-14 2.19651E-03
 -1        14 1.19922E-03 2.17471E-24-6.58642E-03 1.03988E-12-2.83357E-13 1.73669E-03
 -1        15-5.65363E-04 1.94913E-24 1.45802E-03 1.01047E-12 7.40740E-14 2.19651E-03
 -1        16 1.19922E-03 2.17472E-24-6.58642E-03 1.03988E-12-2.83358E-13 1.73669E-03
 -1        17-5.10716E-04 3.94616E-24 1.44515E-03 1.41051E-12 1.84179E-14 1.90816E-03
 -1        18 2.88186E-04 3.67899E-24-2.24887E-03 1.36862E-12 6.16193E-15 1.48130E-03
 -1        19-5.10716E-04 3.94616E-24 1.44515E-03 1.41051E-12 1.84178E-14 1.90816E-03
 -1        20 2.88186E-04 3.67901E-24-2.24887E-03 1.36862E-12 6.16290E-15 1.48130E-03
 -1        21-5.05357E-04 2.43115E-24 1.47528E-03 1.13249E-12 2.13138E-14 1.61030E-03
 -1        22-4.85565E-04 2.32655E-24 1.44675E-03 1.04495E-12 3.70011E-13 1.24464E-03
 -1        23-5.05357E-04 2.43115E-24 1.47528E-03 1.13249E-12 2.13137E-14 1.61030E-03
 -1        24-4.85565E-04 2.32654E-24 1.44675E-03 1.04495E-12 3.70011E-13 1.24464E-03
 -1        25-6.05638E-04 6.39847E-26 1.60521E-03 4.66703E-13-4.08831E-15 1.35065E-03
 -1        26-1.23825E-03 1.04001E-24 4.65029E-03 5.45783E-13 6.31296E-13 1.02972E-03
 -1        27-6.05638E-04 6.39835E-26 1.60521E-03 4.66700E-13-4.08836E-15 1.35065E-03
 -1        28-1.23825E-03 1.04002E-24 4.65029E-03 5.45789E-13 6.31296E-13 1.02972E-03
 -1        29-6.59246E-04 2.75366E-25 1.72304E-03-5.22502E-13-2.61602E-14 1.07434E-03
 -1        30-1.85120E-03 6.01731E-25 7.29490E-03-4.23677E-13 5.30079E-13 8.22816E-04
 -1        31-6.59246E-04 2.75363E-25 1.72304E-03-5.22497E-13-2.61601E-14 1.07434E-03
 -1        32-1.85120E-03 6.01735E-25 7.29490E-03-4.23682E-13 5.30079E-13 8.22816E-04
 -1        33-6.72503E-04 1.58283E-24 1.76831E-03-9.07700E-13 2.29412E-15 8.00536E-04
 -1        34-2.26624E-03 1.13096E-24 9.29525E-03-7.84314E-13 6.87645E-14 6.20997E-04
 -1        35-6.72503E-04 1.58284E-24 1.76831E-03-9.07700E-13 2.29439E-15 8.00536E-04
 -1        36-2.26624E-03 1.13094E-24 9.29525E-03-7.84307E-13 6.87644E-14 6.20997E-04
 -1        37-6.86970E-04 1.88767E-25 1.77904E-03-3.87770E-13 7.48567E-15 4.68584E-04
 -1        38-2.57398E-03 1.99467E-25 1.06162E-02-2.87937E-13-2.80940E-13 3.66474E-04
 -1        39-6.86970E-04 1.88767E-25 1.77904E-03-3.87770E-13 7.48565E-15 4.68584E-04
 -1        40-2.57398E-03 1.99474E-25 1.06162E-02-2.87940E-13-2.80941E-13 3.66474E-04
 -1        41-6.88018E-04-6.40051E-26 1.76793E-03 1.32770E-13 2.17939E-14 1.54577E-04
 -1        42-2.67978E-03 1.47459E-25 1.12465E-02 1.54768E-13-3.09889E-13 1.17173E-04
 -1        43-6.88018E-04-6.40003E-26 1.76793E-03 1.32772E-13 2.17939E-14 1.54577E-04
 -1        44-2.67978E-03 1.47449E-25 1.12465E-02 1.54756E-13-3.09889E-13 1.17173E-04
 -1        45-6.61011E-04 3.93451E-25 1.71418E-03 4.73864E-13 6.67025E-15-7.28430E-05
 -1        46-2.70460E-03 5.56178E-25 1.13293E-02 4.92692E-13-2.51477E-13-5.41961E-05
 -1        47-6.61011E-04 3.93430E-25 1.71418E-03 4.73852E-13 6.66995E-15-7.28430E-05
 -1        48-2.70460E-03 5.56196E-25 1.13293E-02 4.92702E-13-2.51477E-13-5.41961E-05
 -1        49-6.06596E-04 1.14134E-24 1.60471E-03 7.62732E-13-5.74110E-14-4.67878E-04
 -1        50-2.55125E-03 1.26689E-24 1.07150E-02 7.80829E-13-1.92487E-13-3.43471E-04
 -1        51-6.06596E-04 1.14134E-24 1.60471E-03 7.62733E-13-5.74110E-14-4.67878E-04
 -1        52-2.55125E-03 1.26694E-24 1.07150E-02 7.80842E-13-1.92488E-13-3.43471E-04
 -1        53-5.21629E-04 1.93311E-24 1.46684E-03 9.88358E-13-9.41852E-14-9.41238E-04
 -1        54-2.12691E-03 1.74486E-24 9.03243E-03 9.45319E-13 2.95508E-14-7.01697E-04
 -1        55-5.21629E-04 1.93313E-24 1.46684E-03 9.88365E-13-9.41852E-14-9.41238E-04
 -1        56-2.12691E-03 1.74486E-24 9.03243E-03 9.45318E-13 2.95506E-14-7.01697E-04
 -1        57-4.51210E-04 4.49550E-25 1.34044E-03 5.67069E-13-6.39043E-14-1.03238E-03
 -1        58-1.51913E-03 6.51192E-25 6.66845E-03 5.66399E-13 3.14459E-13-7.78238E-04
 -1        59-4.51210E-04 4.49563E-25 1.34044E-03 5.67072E-13-6.39042E-14-1.03238E-03
 -1        60-1.51913E-03 6.51162E-25 6.66845E-03 5.66385E-13 3.14459E-13-7.78238E-04
 -1        61-4.05826E-04 1.49171E-26 1.19314E-03-3.06990E-13-7.51323E-14-8.44407E-04
 -1        62-1.05761E-03 8.45054E-26 4.45783E-03-2.28550E-13 2.86240E-13-6.29550E-04
 -1        63-4.05826E-04 1.49064E-26 1.19314E-03-3.06975E-13-7.51323E-14-8.44407E-04
 -1        64-1.05761E-03 8.45151E-26 4.45783E-03-2.28558E-13 2.86242E-13-6.29550E-04
 -1        65-2.80231E-04 8.22034E-25 9.99917E-04-6.44755E-13-7.78997E-14-8.00042E-04
 -1        66-5.59126E-04 6.09575E-25 2.53919E-03-5.71022E-13-3.36262E-15-5.93541E-04
 -1        67-2.80231E-04 8.22026E-25 9.99917E-04-6.44751E-13-7.78998E-14-8.00042E-04
 -1        68-5.59126E-04 6.09593E-25 2.53919E-03-5.71032E-13-3.36291E-15-5.93541E-04
 -1        69-2.01035E-04 4.96985E-25 8.35239E-04-5.32259E-13 3.44943E-14-7.46037E-04
 -1        70-1.05462E-04 6.69699E-25 7.20760E-04-5.48397E-13-2.81497E-13-5.67343E-04
 -1        71-2.01035E-04 4.96976E-25 8.35239E-04-5.32255E-13 3.44943E-14-7.46037E-04
 -1        72-1.05462E-04 6.69702E-25 7.20760E-04-5.48398E-13-2.81497E-13-5.67343E-04
 -1        73-2.01448E-04-2.85675E-25 6.97627E-04-8.30689E-14 1.30719E-13-3.51987E-04
 -1        74 1.64137E-04 2.24858E-25-5.38593E-04-5.15200E-14-5.45757E-13-2.63611E-04
 -1        75-2.01448E-04-2.85678E-25 6.97627E-04-8.30707E-14 1.30719E-13-3.51987E-04
 -1        76 1.64137E-04 2.24854E-25-5.38593E-04-5.15265E-14-5.45757E-13-2.63611E-04
 -1        77-9.01370E-05 1.00116E-24 5.56336E-04 8.80710E-13 1.23379E-13 4.49050E-05
 -1        78 2.03185E-04 2.44802E-24-6.79849E-04 9.51953E-13-7.70676E-13 3.17382E-05
 -1        79-9.01370E-05 1.00116E-24 5.56336E-04 8.80712E-13 1.23379E-13 4.49050E-05
 -1        80 2.03185E-04 2.44807E-24-6.79849E-04 9.51965E-13-7.70676E-13 3.17382E-05
 -1        81 1.05192E-05 6.35720E-24 4.91048E-04 1.86267E-12 1.01304E-13 1.10036E-04
 -1        82 1.53291E-04 7.03860E-24-4.45714E-04 1.76752E-12-8.02140E-13-2.25708E-05
 -1        83 1.05192E-05 6.35729E-24 4.91048E-04 1.86268E-12 1.01304E-13 1.10036E-04
 -1        84 1.53291E-04 7.03849E-24-4.45714E-04 1.76750E-12-8.02139E-13-2.25708E-05
 -1        85-3.64100E-05-9.17828E-27 2.15946E-02 3.70613E-16 6.74347E-19 9.99286E-03
 -1        86-5.65098E-03 1.34453E-26 1.95071E-02 1.68242E-13 6.70394E-14 3.02885E-03
 -1        87-3.64100E-05-9.17828E-27 2.15946E-02 3.70591E-16 6.71153E-19 9.99286E-03
 -1        88-5.65098E-03 1.34451E-26 1.95071E-02 1.68241E-13 6.70396E-14 3.02885E-03
 -1        89-3.27573E-03 7.79536E-25 1.46970E-02 6.15974E-13 2.21191E-13 1.75673E-03
 -1        90-3.27573E-03 7.79537E-25 1.46970E-02 6.15974E-13 2.21192E-13 1.75673E-03
 -1        91-2.32994E-03 1.82179E-24 9.60204E-03 9.38225E-13 2.42879E-13 1.72100E-03
 -1        92-2.32994E-03 1.82177E-24 9.60204E-03 9.38222E-13 2.42878E-13 1.72100E-03
 -1        93-1.30962E-03 3.25469E-24 5.22542E-03 1.28624E-12-5.35133E-14 1.46256E-03
 -1        94-1.30962E-03 3.25470E-24 5.22542E-03 1.28624E-12-5.35112E-14 1.46256E-03
 -1        95-5.25150E-04 2.30363E-24 1.56474E-03 1.02884E-12-4.23526E-13 1.26011E-03
 -1        96-5.25150E-04 2.30364E-24 1.56474E-03 1.02884E-12-4.23526E-13 1.26011E-03
 -1        97 2.69752E-05 7.81264E-25-1.45128E-03 3.73882E-13-6.44910E-13 1.06577E-03
 -1        98 2.69752E-05 7.81255E-25-1.45128E-03 3.73885E-13-6.44911E-13 1.06577E-03
 -1        99 5.32706E-04 6.70909E-25-3.86892E-03-4.53442E-13-4.97743E-13 8.45280E-04
 -1       100 5.32706E-04 6.70903E-25-3.86892E-03-4.53448E-13-4.97743E-13 8.45280E-04
 -1       101 9.21235E-04 1.21495E-24-5.73747E-03-8.05967E-13-8.18852E-14 6.32536E-04
 -1       102 9.21235E-04 1.21500E-24-5.73747E-03-8.05983E-13-8.18868E-14 6.32536E-04
 -1       103 1.20004E-03 3.40594E-25-7.03057E-03-3.96572E-13 2.57217E-13 3.71745E-04
 -1       104 1.20004E-03 3.40581E-25-7.03057E-03-3.96564E-13 2.57217E-13 3.71745E-04
 -1       105 1.30374E-03 1.70638E-25-7.69326E-03 1.06834E-13 3.45493E-13 1.13708E-04
 -1       106 1.30374E-03 1.70630E-25-7.69326E-03 1.06827E-13 3.45493E-13 1.13708E-04
 -1       107 1.38258E-03 4.11780E-25-7.88435E-03 4.05095E-13 2.62341E-13-6.79426E-05
 -1       108 1.38258E-03 4.11821E-25-7.88435E-03 4.05120E-13 2.62341E-13-6.79426E-05
 -1       109 1.33806E-03 8.87778E-25-7.47647E-03 6.76116E-13 1.07505E-13-3.73212E-04
 -1       110 1.33806E-03 8.87721E-25-7.47647E-03 6.76096E-13 1.07505E-13-3.73212E-04
 -1       111 1.08365E-03 1.62951E-24-6.05503E-03 9.02290E-13-1.74309E-13-7.42465E-04
 -1       112 1.08365E-03 1.62950E-24-6.05503E-03 9.02288E-13-1.74309E-13-7.42465E-04
 -1       113 6.16706E-04 7.66824E-25-3.98001E-03 5.39077E-13-4.36521E-13-8.09688E-04
 -1       114 6.16706E-04 7.66807E-25-3.98001E-03 5.39079E-13-4.36521E-13-8.09688E-04
 -1       115 2.45963E-04 3.52850E-25-2.09779E-03-3.05223E-13-4.12779E-13-6.64784E-04
 -1       116 2.45963E-04 3.52863E-25-2.09779E-03-3.05250E-13-4.12778E-13-6.64784E-04
 -1       117-1.33516E-06 4.36824E-25-4.89671E-04-4.90817E-13-8.93282E-14-6.32871E-04
 -1       118-1.33516E-06 4.36845E-25-4.89671E-04-4.90827E-13-8.93280E-14-6.32871E-04
 -1       119-2.96608E-04 3.57259E-25 1.03634E-03-3.41263E-13 3.55913E-13-6.02436E-04
 -1       120-2.96608E-04 3.57249E-25 1.03634E-03-3.41255E-13 3.55913E-13-6.02436E-04
 -1       121-5.67032E-04 8.99555E-25 1.91703E-03 1.17991E-14 7.82956E-13-3.41522E-04
 -1       122-5.67032E-04 8.99564E-25 1.91703E-03 1.17953E-14 7.82956E-13-3.41522E-04
 -1       123-3.83459E-04 3.02833E-24 1.55448E-03 8.69700E-13 1.01830E-12-5.33614E-05
 -1       124-3.83459E-04 3.02827E-24 1.55448E-03 8.69683E-13 1.01830E-12-5.33614E-05
 -1       125-1.32252E-04 8.30238E-24 1.03902E-03 1.84135E-12 1.03138E-12 9.22262E-05
 -1       126-1.32252E-04 8.30240E-24 1.03902E-03 1.84135E-12 1.03138E-12 9.22262E-05
 -3
    1PSTEP                        68          17           1          
  100CL  117 1.70000E-01         126                     1   17           1
 -4  ERROR       1    1
 -5  STR(%)      1    1    0    0
 -1         1 6.78880E+01
 -1         2 6.78880E+01
 -1         3 6.91404E+01
 -1         4 6.91404E+01
 -1         5 6.78880E+01
 -1         6 6.78880E+01
 -1         7 6.91404E+01
 -1         8 6.91404E+01
 -1         9 7.04823E+01
 -1        10 7.04823E+01
 -1        11 7.04823E+01
 -1        12 7.04823E+01
 -1        13 7.04823E+01
 -1        14 7.04823E+01
 -1        15 7.04823E+01
 -1        16 7.04823E+01
 -1        17 6.62217E+01
 -1        18 6.62217E+01
 -1        19 6.62217E+01
 -1        20 6.62217E+01
 -1        21 4.72007E+01
 -1        22 4.72007E+01
 -1        23 4.72007E+01
 -1        24 4.72007E+01
 -1        25 8.15689E+01
 -1        26 3.86776E+01
 -1        27 8.15689E+01
 -1        28 3.86776E+01
 -1        29 8.67608E+01
 -1        30 4.55011E+01
 -1        31 8.67608E+01
 -1        32 4.55011E+01
 -1        33 8.67608E+01
 -1        34 4.79183E+01
 -1        35 8.67608E+01
 -1        36 4.79183E+01
 -1        37 8.35530E+01
 -1        38 4.84134E+01
 -1        39 8.35530E+01
 -1        40 4.84134E+01
 -1        41 7.74877E+01
 -1        42 4.84134E+01
 -1        43 7.74877E+01
 -1        44 4.84134E+01
 -1        45 7.50154E+01
 -1        46 4.88935E+01
 -1        47 7.50154E+01
 -1        48 4.88935E+01
 -1        49 7.97400E+01
 -1        50 4.95878E+01
 -1        51 7.97400E+01
 -1        52 4.95878E+01
 -1        53 8.16999E+01
 -1        54 4.95878E+01
 -1        55 8.16999E+01
 -1        56 4.95878E+01
 -1        57 8.53329E+01
 -1        58 4.71363E+01
 -1        59 8.53329E+01
 -1        60 4.71363E+01
 -1        61 8.73604E+01
 -1        62 4.20421E+01
 -1        63 8.73604E+01
 -1        64 4.20421E+01
 -1        65 8.73604E+01
 -1        66 3.33270E+01
 -1        67 8.73604E+01
 -1        68 3.33270E+01
 -1        69 5.06353E+01
 -1        70 5.06353E+01
 -1        71 5.06353E+01
 -1        72 5.06353E+01
 -1        73 1.09711E+02
 -1        74 1.09711E+02
 -1        75 1.09711E+02
 -1        76 1.09711E+02
 -1        77 1.09711E+02
 -1        78 1.09711E+02
 -1        79 1.09711E+02
 -1        80 1.09711E+02
 -1        81 6.67558E+01
 -1        82 6.67558E+01
 -1        83 6.67558E+01
 -1        84 6.67558E+01
 -1        85 6.03438E+01
 -1        86 6.03438E+01
 -1        87 6.03438E+01
 -1        88 6.03438E+01
 -1        89 5.46272E+01
 -1        90 5.46272E+01
 -1        91 5.13991E+01
 -1        92 5.13991E+01
 -1        93 4.15419E+01
 -1        94 4.15419E+01
 -1        95 4.64530E+01
 -1        96 4.64530E+01
 -1        97 8.15689E+01
 -1        98 8.15689E+01
 -1        99 8.67608E+01
 -1       100 8.67608E+01
 -1       101 8.67608E+01
 -1       102 8.67608E+01
 -1       103 8.35530E+01
 -1       104 8.35530E+01
 -1       105 7.74877E+01
 -1       106 7.74877E+01
 -1       107 7.50154E+01
 -1       108 7.50154E+01
 -1       109 7.97400E+01
 -1       110 7.97400E+01
 -1       111 8.16999E+01
 -1       112 8.16999E+01
 -1       113 8.53329E+01
 -1       114 8.53329E+01
 -1       115 8.73604E+01
 -1       116 8.73604E+01
 -1       117 8.73604E+01
 -1       118 8.73604E+01
 -1       119 2.88744E+01
 -1       120 2.88744E+01
 -1       121 3.91005E+01
 -1       122 3.91005E+01
 -1       123 3.91005E+01
 -1       124 3.91005E+01
 -1       125 2.20921E+01
 -1       126 2.20921E+01
 -3
    1PSTEP                        69          18           1          
  100CL  118 1.80000E-01         126                     1   18           1
 -4  DISP        4    1
 -5  D1          1    2    1    0
 -5  D2          1    2    2    0
 -5  D3          1    2    3    0
 -5  ALL         1    2    0    0    1ALL
 -1         1 0.00000E+00 0.00000E+00 0.00000E+00
 -1         2 0.00000E+00 0.00000E+00 0.00000E+00
 -1         3 7.45276E-04 0.00000E+00 5.16252E-05
 -1         4 9.59816E-04 0.00000E+00-9.97894E-04
 -1         5 0.00000E+00 0.00000E+00 0.00000E+00
 -1         6 0.00000E+00 0.00000E+00 0.00000E+00
 -1         7 7.45276E-04 0.00000E+00 5.16252E-05
 -1         8 9.59816E-04 0.00000E+00-9.97894E-04
 -1         9 2.58268E-03 0.00000E+00 9.60588E-05
 -1        10 2.65405E-03 0.00000E+00-1.79448E-03
 -1        11 2.58268E-03 0.00000E+00 9.60588E-05
 -1        12 2.65405E-03 0.00000E+00-1.79448E-03
 -1        13 5.03738E-03 0.00000E+00 1.06439E-04
 -1        14 5.04546E-03 0.00000E+00-2.33889E-03
 -1        15 5.03738E-03 0.00000E+00 1.06439E-04
 -1        16 5.04546E-03 0.00000E+00-2.33889E-03
 -1        17 7.90977E-03 0.00000E+00 9.34319E-05
 -1        18 7.85020E-03 0.00000E+00-2.67268E-03
 -1        19 7.90977E-03 0.00000E+00 9.34319E-05
 -1        20 7.85020E-03 0.00000E+00-2.67268E-03
 -1        21 1.09662E-02 0.00000E+00 7.14268E-05
 -1        22 1.08597E-02 0.00000E+00-2.80614E-03
 -1        23 1.09662E-02 0.00000E+00 7.14268E-05
 -1        24 1.08597E-02 0.00000E+00-2.80614E-03
 -1        25 1.40099E-02 0.00000E+00 4.75801E-05
 -1        26 1.38763E-02 0.00000E+00-2.76496E-03
 -1        27 1.40099E-02 0.00000E+00 4.75801E-05
 -1        28 1.38763E-02 0.00000E+00-2.76496E-03
 -1        29 1.68874E-02 0.00000E+00 3.44089E-05
 -1        30 1.67311E-02 0.00000E+00-2.56581E-03
 -1        31 1.68874E-02 0.00000E+00 3.44089E-05
 -1        32 1.67311E-02 0.00000E+00-2.56581E-03
 -1        33 1.94597E-02 0.00000E+00 4.24849E-05
 -1        34 1.92952E-02 0.00000E+00-2.22608E-03
 -1        35 1.94597E-02 0.00000E+00 4.24849E-05
 -1        36 1.92952E-02 0.00000E+00-2.22608E-03
 -1        37 2.16178E-02 0.00000E+00 7.25338E-05
 -1        38 2.14540E-02 0.00000E+00-1.77590E-03
 -1        39 2.16178E-02 0.00000E+00 7.25338E-05
 -1        40 2.14540E-02 0.00000E+00-1.77590E-03
 -1        41 2.32934E-02 0.00000E+00 1.22233E-04
 -1        42 2.31374E-02 0.00000E+00-1.24739E-03
 -1        43 2.32934E-02 0.00000E+00 1.22233E-04
 -1        44 2.31374E-02 0.00000E+00-1.24739E-03
 -1        45 2.44245E-02 0.00000E+00 1.89817E-04
 -1        46 2.42752E-02 0.00000E+00-6.78563E-04
 -1        47 2.44245E-02 0.00000E+00 1.89817E-04
 -1        48 2.42752E-02 0.00000E+00-6.78563E-04
 -1        49 2.50233E-02 0.00000E+00 2.68815E-04
 -1        50 2.48863E-02 0.00000E+00-1.11959E-04
 -1        51 2.50233E-02 0.00000E+00 2.68815E-04
 -1        52 2.48863E-02 0.00000E+00-1.11959E-04
 -1        53 2.51169E-02 0.00000E+00 3.50712E-04
 -1        54 2.49951E-02 0.00000E+00 4.14525E-04
 -1        55 2.51169E-02 0.00000E+00 3.50712E-04
 -1        56 2.49951E-02 0.00000E+00 4.14525E-04
 -1        57 2.47604E-02 0.00000E+00 4.27161E-04
 -1        58 2.46636E-02 0.00000E+00 8.54920E-04
 -1        59 2.47604E-02 0.00000E+00 4.27161E-04
 -1        60 2.46636E-02 0.00000E+00 8.54920E-04
 -1        61 2.40885E-02 0.00000E+00 4.92474E-04
 -1        62 2.40119E-02 0.00000E+00 1.18226E-03
 -1        63 2.40885E-02 0.00000E+00 4.92474E-04
 -1        64 2.40119E-02 0.00000E+00 1.18226E-03
 -1        65 2.32627E-02 0.00000E+00 5.48718E-04
 -1        66 2.31916E-02 0.00000E+00 1.43495E-03
 -1        67 2.32627E-02 0.00000E+00 5.48718E-04
 -1        68 2.31916E-02 0.00000E+00 1.43495E-03
 -1        69 2.22983E-02 0.00000E+00 5.97779E-04
 -1        70 2.22212E-02 0.00000E+00 1.67458E-03
 -1        71 2.22983E-02 0.00000E+00 5.97779E-04
 -1        72 2.22212E-02 0.00000E+00 1.67458E-03
 -1        73 2.11026E-02 0.00000E+00 6.31903E-04
 -1        74 2.10358E-02 0.00000E+00 1.90093E-03
 -1        75 2.11026E-02 0.00000E+00 6.31903E-04
 -1        76 2.10358E-02 0.00000E+00 1.90093E-03
 -1        77 1.96673E-02 0.00000E+00 6.47054E-04
 -1        78 1.96219E-02 0.00000E+00 2.05474E-03
 -1        79 1.96673E-02 0.00000E+00 6.47054E-04
 -1        80 1.96219E-02 0.00000E+00 2.05474E-03
 -1        81 1.81643E-02 0.00000E+00 6.51931E-04
 -1        82 1.81329E-02 0.00000E+00 2.09759E-03
 -1        83 1.81643E-02 0.00000E+00 6.51931E-04
 -1        84 1.81329E-02 0.00000E+00 2.09759E-03
 -1        85 0.00000E+00 0.00000E+00 0.00000E+00
 -1        86 1.06484E-03 0.00000E+00 1.10451E-03
 -1        87 0.00000E+00 0.00000E+00 0.00000E+00
 -1        88 1.06484E-03 0.00000E+00 1.10451E-03
 -1        89 2.80696E-03 0.00000E+00 1.97100E-03
 -1        90 2.80696E-03 0.00000E+00 1.97100E-03
 -1        91 5.23728E-03 0.00000E+00 2.53665E-03
 -1        92 5.23728E-03 0.00000E+00 2.53665E-03
 -1        93 8.07825E-03 0.00000E+00 2.85132E-03
 -1        94 8.07825E-03 0.00000E+00 2.85132E-03
 -1        95 1.10984E-02 0.00000E+00 2.94534E-03
 -1        96 1.10984E-02 0.00000E+00 2.94534E-03
 -1        97 1.41044E-02 0.00000E+00 2.86345E-03
 -1        98 1.41044E-02 0.00000E+00 2.86345E-03
 -1        99 1.69421E-02 0.00000E+00 2.64351E-03
 -1       100 1.69421E-02 0.00000E+00 2.64351E-03
 -1       101 1.94778E-02 0.00000E+00 2.31989E-03
 -1       102 1.94778E-02 0.00000E+00 2.31989E-03
 -1       103 2.16026E-02 0.00000E+00 1.92899E-03
 -1       104 2.16026E-02 0.00000E+00 1.92899E-03
 -1       105 2.32559E-02 0.00000E+00 1.49934E-03
 -1       106 2.32559E-02 0.00000E+00 1.49934E-03
 -1       107 2.43745E-02 0.00000E+00 1.06330E-03
 -1       108 2.43745E-02 0.00000E+00 1.06330E-03
 -1       109 2.49732E-02 0.00000E+00 6.50937E-04
 -1       110 2.49732E-02 0.00000E+00 6.50937E-04
 -1       111 2.50768E-02 0.00000E+00 2.84432E-04
 -1       112 2.50768E-02 0.00000E+00 2.84432E-04
 -1       113 2.47411E-02 0.00000E+00-5.90598E-06
 -1       114 2.47411E-02 0.00000E+00-5.90598E-06
 -1       115 2.40857E-02 0.00000E+00-2.00970E-04
 -1       116 2.40857E-02 0.00000E+00-2.00970E-04
 -1       117 2.32675E-02 0.00000E+00-3.37359E-04
 -1       118 2.32675E-02 0.00000E+00-3.37359E-04
 -1       119 2.23020E-02 0.00000E+00-4.83244E-04
 -1       120 2.23020E-02 0.00000E+00-4.83244E-04
 -1       121 2.11068E-02 0.00000E+00-6.49067E-04
 -1       122 2.11068E-02 0.00000E+00-6.49067E-04
 -1       123 1.96851E-02 0.00000E+00-7.72478E-04
 -1       124 1.96851E-02 0.00000E+00-7.72478E-04
 -1       125 1.81885E-02 0.00000E+00-8.19983E-04
 -1       126 1.81885E-02 0.00000E+00-8.19983E-04
 -3
    1PSTEP                        70          18           1          
  100CL  118 1.80000E-01         126                     1   18           1
 -4  STRESS      6    1
 -5  SXX         1    4    1    1
 -5  SYY         1    4    2    2
 -5  SZZ         1    4    3    3
 -5  SXY         1    4    1    2
 -5  SYZ         1    4    2    3
 -5  SZX         1    4    3    1
 -1         1-4.51244E+03-4.60886E+03-1.04184E+04-1.46292E-10 1.78201E-10 2.76659E+03
 -1         2 3.14741E+02 2.63729E+02 5.25084E+02 9.21738E-11 8.28829E-11 2.29781E+03
 -1         3-4.83967E+01 1.17928E+02 4.30285E+02 2.39082E-08 2.34370E-08 7.44783E+02
 -1         4-1.56931E+03-3.01355E+03-8.24876E+03 4.77971E-08-1.57027E-08 7.53853E+02
 -1         5-4.51244E+03-4.60886E+03-1.04184E+04-1.46346E-10 1.78201E-10 2.76659E+03
 -1         6 3.14741E+02 2.63729E+02 5.25084E+02 9.21828E-11 8.28832E-11 2.29781E+03
 -1         7-4.83967E+01 1.17928E+02 4.30285E+02 2.39083E-08 2.34369E-08 7.44783E+02
 -1         8-1.56931E+03-3.01355E+03-8.24876E+03 4.77970E-08-1.57026E-08 7.53853E+02
 -1         9-1.48324E+01 1.53373E+02 5.10478E+02 6.30387E-08 4.50154E-09 8.21917E+02
 -1        10-1.70147E+03-2.40724E+03-6.19397E+03 9.92245E-08-2.10207E-08 3.70745E+02
 -1        11-1.48324E+01 1.53373E+02 5.10478E+02 6.30385E-08 4.50163E-09 8.21917E+02
 -1        12-1.70147E+03-2.40724E+03-6.19397E+03 9.92245E-08-2.10207E-08 3.70745E+02
 -1        13 1.21792E+01 1.54832E+02 5.02380E+02 7.62564E-08-1.69037E-08 7.08983E+02
 -1        14-9.30996E+02-1.40014E+03-3.68905E+03 7.83611E-08-3.06406E-08 3.95529E+02
 -1        15 1.21792E+01 1.54832E+02 5.02380E+02 7.62569E-08-1.69037E-08 7.08983E+02
 -1        16-9.30996E+02-1.40014E+03-3.68905E+03 7.83598E-08-3.06404E-08 3.95529E+02
 -1        17-4.58277E+00 1.51390E+02 5.12397E+02 7.76738E-08-1.47648E-08 6.39676E+02
 -1        18-4.53711E+02-6.08987E+02-1.56438E+03 7.26330E-08-3.33488E-08 4.00918E+02
 -1        19-4.58277E+00 1.51390E+02 5.12397E+02 7.76739E-08-1.47649E-08 6.39676E+02
 -1        20-4.53711E+02-6.08987E+02-1.56438E+03 7.26332E-08-3.33488E-08 4.00918E+02
 -1        21-4.22005E+00 1.54937E+02 5.25082E+02 1.09444E-07-4.08471E-09 5.54146E+02
 -1        22 1.76371E+00 9.68307E+01 3.26235E+02 1.01002E-07-1.23052E-08 4.27591E+02
 -1        23-4.22005E+00 1.54937E+02 5.25082E+02 1.09443E-07-4.08459E-09 5.54146E+02
 -1        24 1.76371E+00 9.68307E+01 3.26235E+02 1.01002E-07-1.23054E-08 4.27591E+02
 -1        25-4.26316E-01 1.59050E+02 5.33437E+02 1.50016E-07 1.25351E-08 4.67464E+02
 -1        26 4.10804E+02 7.00081E+02 1.94063E+03 1.14050E-07 2.17670E-08 4.26005E+02
 -1        27-4.26317E-01 1.59050E+02 5.33437E+02 1.50016E-07 1.25351E-08 4.67464E+02
 -1        28 4.10804E+02 7.00081E+02 1.94063E+03 1.14051E-07 2.17670E-08 4.26005E+02
 -1        29-2.89865E+01 1.58507E+02 5.57592E+02 1.07380E-07 2.40503E-09 3.86609E+02
 -1        30 6.67463E+02 1.17262E+03 3.28221E+03 1.06034E-07 7.83179E-08 4.09411E+02
 -1        31-2.89865E+01 1.58507E+02 5.57592E+02 1.07379E-07 2.40505E-09 3.86609E+02
 -1        32 6.67463E+02 1.17262E+03 3.28221E+03 1.06035E-07 7.83179E-08 4.09411E+02
 -1        33-4.52722E+01 1.65250E+02 5.93344E+02-5.57688E-08-9.15639E-09 2.99131E+02
 -1        34 8.95250E+02 1.55806E+03 4.36593E+03-6.11895E-08 1.21858E-07 3.70368E+02
 -1        35-4.52722E+01 1.65250E+02 5.93344E+02-5.57671E-08-9.15636E-09 2.99131E+02
 -1        36 8.95250E+02 1.55806E+03 4.36593E+03-6.11895E-08 1.21858E-07 3.70368E+02
 -1        37-5.03081E+01 1.71726E+02 6.17074E+02-2.20674E-07-3.44253E-09 2.10900E+02
 -1        38 1.05847E+03 1.83115E+03 5.13588E+03-2.22728E-07 1.02241E-07 3.04189E+02
 -1        39-5.03081E+01 1.71726E+02 6.17074E+02-2.20674E-07-3.44261E-09 2.10900E+02
 -1        40 1.05847E+03 1.83115E+03 5.13588E+03-2.22728E-07 1.02241E-07 3.04189E+02
 -1        41-5.48987E+01 1.78111E+02 6.41757E+02-2.49700E-07-4.15654E-09 1.01745E+02
 -1        42 1.16319E+03 1.99176E+03 5.58203E+03-2.39688E-07 4.92774E-08 1.89637E+02
 -1        43-5.48987E+01 1.78111E+02 6.41757E+02-2.49700E-07-4.15647E-09 1.01745E+02
 -1        44 1.16319E+03 1.99176E+03 5.58203E+03-2.39691E-07 4.92775E-08 1.89637E+02
 -1        45-6.79452E+01 1.81476E+02 6.65448E+02-2.93984E-07 6.82818E-09-1.24282E+01
 -1        46 1.13963E+03 2.00291E+03 5.64425E+03-2.93232E-07-3.01545E-09 5.84426E+01
 -1        47-6.79452E+01 1.81476E+02 6.65448E+02-2.93982E-07 6.82812E-09-1.24282E+01
 -1        48 1.13963E+03 2.00291E+03 5.64425E+03-2.93229E-07-3.01545E-09 5.84426E+01
 -1        49-6.50602E+01 1.85701E+02 6.77918E+02-2.60246E-07 2.18861E-08-1.06147E+02
 -1        50 1.07781E+03 1.90490E+03 5.36997E+03-2.69292E-07-7.66985E-08-4.90475E+01
 -1        51-6.50602E+01 1.85701E+02 6.77918E+02-2.60247E-07 2.18861E-08-1.06147E+02
 -1        52 1.07781E+03 1.90490E+03 5.36997E+03-2.69295E-07-7.66985E-08-4.90475E+01
 -1        53-6.30111E+01 1.79944E+02 6.59243E+02-7.16193E-08 2.14019E-08-2.05386E+02
 -1        54 9.28904E+02 1.67143E+03 4.71991E+03-6.80061E-08-1.13369E-07-1.51310E+02
 -1        55-6.30111E+01 1.79944E+02 6.59243E+02-7.16141E-08 2.14019E-08-2.05386E+02
 -1        56 9.28904E+02 1.67143E+03 4.71991E+03-6.80111E-08-1.13369E-07-1.51310E+02
 -1        57-4.80684E+01 1.70166E+02 6.13208E+02 1.24074E-07-8.40706E-09-2.61274E+02
 -1        58 7.67503E+02 1.34493E+03 3.76592E+03 1.27364E-07-4.35696E-08-2.12139E+02
 -1        59-4.80684E+01 1.70166E+02 6.13208E+02 1.24075E-07-8.40714E-09-2.61274E+02
 -1        60 7.67503E+02 1.34493E+03 3.76592E+03 1.27366E-07-4.35695E-08-2.12139E+02
 -1        61-3.28341E+01 1.58493E+02 5.59580E+02 6.12266E-08-1.45448E-08-1.80748E+02
 -1        62 5.94763E+02 1.03174E+03 2.87308E+03 2.98914E-08 5.61982E-08-1.59854E+02
 -1        63-3.28341E+01 1.58493E+02 5.59580E+02 6.12204E-08-1.45448E-08-1.80748E+02
 -1        64 5.94763E+02 1.03174E+03 2.87308E+03 2.99003E-08 5.61983E-08-1.59854E+02
 -1        65-4.17793E+01 1.41451E+02 5.12189E+02-1.29640E-07 9.08150E-09-3.25063E+01
 -1        66 4.94473E+02 8.81421E+02 2.46449E+03-1.24948E-07 6.34639E-08-4.58379E+01
 -1        67-4.17793E+01 1.41451E+02 5.12189E+02-1.29641E-07 9.08146E-09-3.25063E+01
 -1        68 4.94473E+02 8.81421E+02 2.46449E+03-1.24951E-07 6.34640E-08-4.58379E+01
 -1        69-6.10843E+01 1.13724E+02 4.39922E+02-1.88463E-07 2.42228E-08-8.73790E+00
 -1        70 4.25841E+02 8.27002E+02 2.35061E+03-1.80198E-07-1.29546E-08-2.40917E+01
 -1        71-6.10843E+01 1.13724E+02 4.39922E+02-1.88464E-07 2.42228E-08-8.73790E+00
 -1        72 4.25841E+02 8.27002E+02 2.35061E+03-1.80195E-07-1.29548E-08-2.40917E+01
 -1        73-4.30882E+00 1.05494E+02 3.56299E+02-8.89058E-08 1.85322E-08-1.29303E+02
 -1        74 4.16105E+02 7.21448E+02 2.00399E+03-5.17090E-08-9.03182E-08-1.14847E+02
 -1        75-4.30882E+00 1.05494E+02 3.56299E+02-8.89046E-08 1.85322E-08-1.29303E+02
 -1        76 4.16105E+02 7.21448E+02 2.00399E+03-5.17104E-08-9.03182E-08-1.14847E+02
 -1        77 3.09552E+01 9.22556E+01 2.76513E+02 5.72385E-08-7.26986E-09-1.74655E+02
 -1        78 2.83036E+02 4.32557E+02 1.16479E+03 7.34056E-08-1.19461E-07-1.47820E+02
 -1        79 3.09552E+01 9.22556E+01 2.76513E+02 5.72404E-08-7.26974E-09-1.74655E+02
 -1        80 2.83036E+02 4.32557E+02 1.16479E+03 7.34027E-08-1.19461E-07-1.47820E+02
 -1        81 6.46792E+01 9.66365E+01 2.57773E+02 2.04590E-07-1.20779E-08-1.39133E+02
 -1        82 1.94142E+02 2.51166E+02 6.44752E+02 2.23524E-07-1.29824E-07-1.40659E+02
 -1        83 6.46792E+01 9.66365E+01 2.57773E+02 2.04588E-07-1.20781E-08-1.39133E+02
 -1        84 1.94142E+02 2.51166E+02 6.44752E+02 2.23525E-07-1.29823E-07-1.40659E+02
 -1        85 5.21592E+03 5.09348E+03 1.23220E+04 2.12076E-10 1.06707E-10 3.51030E+03
 -1        86 1.40421E+03 3.22542E+03 9.65524E+03 2.69082E-08 4.40875E-08 1.20848E+03
 -1        87 5.21592E+03 5.09348E+03 1.23220E+04 2.12063E-10 1.06706E-10 3.51030E+03
 -1        88 1.40421E+03 3.22542E+03 9.65524E+03 2.69081E-08 4.40876E-08 1.20848E+03
 -1        89 1.53864E+03 2.63374E+03 7.43301E+03 3.92586E-08 4.43998E-08 7.82651E+02
 -1        90 1.53864E+03 2.63374E+03 7.43301E+03 3.92589E-08 4.43995E-08 7.82651E+02
 -1        91 9.09041E+02 1.70181E+03 4.85324E+03 5.56234E-08 2.89096E-08 7.42584E+02
 -1        92 9.09041E+02 1.70181E+03 4.85324E+03 5.56244E-08 2.89094E-08 7.42584E+02
 -1        93 4.09091E+02 9.12481E+02 2.66556E+03 8.18667E-08 3.19602E-08 6.01156E+02
 -1        94 4.09091E+02 9.12481E+02 2.66556E+03 8.18661E-08 3.19606E-08 6.01156E+02
 -1        95-3.40294E+01 2.18291E+02 7.69547E+02 1.15632E-07 3.36421E-08 4.54029E+02
 -1        96-3.40294E+01 2.18291E+02 7.69547E+02 1.15633E-07 3.36424E-08 4.54029E+02
 -1        97-4.25619E+02-3.71563E+02-8.08291E+02 1.51947E-07-6.00726E-09 3.15051E+02
 -1        98-4.25619E+02-3.71563E+02-8.08291E+02 1.51945E-07-6.00767E-09 3.15051E+02
 -1        99-7.48771E+02-8.58441E+02-2.09849E+03 7.36462E-08-9.38326E-08 2.01818E+02
 -1       100-7.48771E+02-8.58441E+02-2.09849E+03 7.36517E-08-9.38326E-08 2.01818E+02
 -1       101-1.01452E+03-1.24112E+03-3.09331E+03-6.23029E-08-1.32494E-07 1.13172E+02
 -1       102-1.01452E+03-1.24112E+03-3.09331E+03-6.23057E-08-1.32494E-07 1.13172E+02
 -1       103-1.18146E+03-1.49902E+03-3.77225E+03-2.06391E-07-8.90295E-08 5.05465E+01
 -1       104-1.18146E+03-1.49902E+03-3.77225E+03-2.06396E-07-8.90293E-08 5.05465E+01
 -1       105-1.29372E+03-1.64839E+03-4.14811E+03-2.30642E-07-3.88361E-08-1.26920E+01
 -1       106-1.29372E+03-1.64839E+03-4.14811E+03-2.30643E-07-3.88363E-08-1.26920E+01
 -1       107-1.30043E+03-1.65852E+03-4.17521E+03-2.63165E-07 1.16069E-08-7.01622E+01
 -1       108-1.30043E+03-1.65852E+03-4.17521E+03-2.63160E-07 1.16071E-08-7.01622E+01
 -1       109-1.23412E+03-1.55459E+03-3.90185E+03-2.34982E-07 8.41634E-08-1.04112E+02
 -1       110-1.23412E+03-1.55459E+03-3.90185E+03-2.34976E-07 8.41633E-08-1.04112E+02
 -1       111-1.07956E+03-1.33073E+03-3.32264E+03-7.98925E-08 1.20367E-07-1.49856E+02
 -1       112-1.07956E+03-1.33073E+03-3.32264E+03-7.98984E-08 1.20367E-07-1.49856E+02
 -1       113-8.75831E+02-1.01177E+03-2.47828E+03 7.61254E-08 4.90430E-08-1.83569E+02
 -1       114-8.75831E+02-1.01177E+03-2.47828E+03 7.61306E-08 4.90430E-08-1.83569E+02
 -1       115-6.54311E+02-7.05301E+02-1.68944E+03 5.86671E-08-4.67935E-08-1.25145E+02
 -1       116-6.54311E+02-7.05301E+02-1.68944E+03 5.86680E-08-4.67935E-08-1.25145E+02
 -1       117-5.81551E+02-6.01089E+02-1.41737E+03-1.12989E-07-4.39181E-08-1.01255E+01
 -1       118-5.81551E+02-6.01089E+02-1.41737E+03-1.12989E-07-4.39181E-08-1.01255E+01
 -1       119-5.78411E+02-6.28597E+02-1.51031E+03-1.76511E-07 3.49493E-08 1.22960E+01
 -1       120-5.78411E+02-6.28597E+02-1.51031E+03-1.76514E-07 3.49493E-08 1.22960E+01
 -1       121-4.50678E+02-5.31643E+02-1.31579E+03-1.06457E-07 9.97831E-08-7.32709E+01
 -1       122-4.50678E+02-5.31643E+02-1.31579E+03-1.06459E-07 9.97831E-08-7.32709E+01
 -1       123-2.63587E+02-2.85274E+02-6.85600E+02 4.12821E-08 1.31745E-07-1.15645E+02
 -1       124-2.63587E+02-2.85274E+02-6.85600E+02 4.12859E-08 1.31745E-07-1.15645E+02
 -1       125-1.38054E+02-1.27297E+02-2.86150E+02 2.28147E-07 1.59927E-07-7.37573E+01
 -1       126-1.38054E+02-1.27297E+02-2.86150E+02 2.28143E-07 1.59927E-07-7.37573E+01
 -3
    1PSTEP                        71          18           1          
  100CL  118 1.80000E-01         126                     1   18           1
 -4  TOSTRAIN    6    1
 -5  EXX         1    4    1    1
 -5  EYY         1    4    2    2
 -5  EZZ         1    4    3    3
 -5  EXY         1    4    1    2
 -5  EYZ         1    4    2    3
 -5  EZX         1    4    3    1
 -1         1-3.83254E-05-7.71167E-27-1.96123E-02-3.00144E-16-4.55063E-19 9.59799E-03
 -1         2-3.92882E-05-3.18047E-27 1.10477E-03 2.78240E-16-9.69380E-19 7.45259E-03
 -1         3-8.45796E-04 1.43402E-26 1.32272E-03 7.56773E-14 7.77937E-14 2.37757E-03
 -1         4 4.48893E-03 3.77821E-26-1.74334E-02 1.56811E-13-4.89029E-14 3.02019E-03
 -1         5-3.83254E-05-7.71170E-27-1.96123E-02-3.00319E-16-4.58268E-19 9.59799E-03
 -1         6-3.92882E-05-3.18046E-27 1.10477E-03 2.78269E-16-9.68460E-19 7.45259E-03
 -1         7-8.45796E-04 1.43404E-26 1.32272E-03 7.56777E-14 7.77936E-14 2.37757E-03
 -1         8 4.48893E-03 3.77819E-26-1.74334E-02 1.56811E-13-4.89027E-14 3.02019E-03
 -1         9-8.31576E-04 7.32318E-26 1.47150E-03 2.04028E-13 2.24315E-14 2.58987E-03
 -1        10 2.12582E-03 2.06157E-25-1.24750E-02 3.25807E-13-5.70389E-14 1.80544E-03
 -1        11-8.31576E-04 7.32312E-26 1.47150E-03 2.04028E-13 2.24318E-14 2.58987E-03
 -1        12 2.12582E-03 2.06157E-25-1.24750E-02 3.25807E-13-5.70389E-14 1.80544E-03
 -1        13-7.32561E-04 1.23925E-25 1.39435E-03 2.50459E-13-4.25414E-14 2.20716E-03
 -1        14 1.35050E-03 1.49479E-25-7.38952E-03 2.59966E-13-8.77826E-14 1.74631E-03
 -1        15-7.32561E-04 1.23926E-25 1.39435E-03 2.50460E-13-4.25414E-14 2.20716E-03
 -1        16 1.35050E-03 1.49474E-25-7.38952E-03 2.59962E-13-8.77823E-14 1.74631E-03
 -1        17-7.53521E-04 1.26268E-25 1.40707E-03 2.54941E-13-3.38021E-14 1.96602E-03
 -1        18 3.37638E-04 1.32328E-25-2.96920E-03 2.42219E-13-9.55188E-14 1.50450E-03
 -1        19-7.53521E-04 1.26269E-25 1.40707E-03 2.54941E-13-3.38025E-14 1.96602E-03
 -1        20 3.37638E-04 1.32328E-25-2.96920E-03 2.42219E-13-9.55188E-14 1.50450E-03
 -1        21-7.30562E-04 2.46392E-25 1.40182E-03 3.55976E-13 7.21206E-15 1.68377E-03
 -1        22-4.72223E-04 2.14504E-25 8.94397E-04 3.30149E-13-2.10159E-14 1.31705E-03
 -1        23-7.30562E-04 2.46390E-25 1.40182E-03 3.55974E-13 7.21234E-15 1.68377E-03
 -1        24-4.72223E-04 2.14503E-25 8.94397E-04 3.30149E-13-2.10166E-14 1.31705E-03
 -1        25-6.95231E-04 4.71636E-25 1.38341E-03 4.84446E-13 6.80124E-14 1.40666E-03
 -1        26-1.08815E-03 2.73493E-25 4.13153E-03 3.65695E-13 9.09950E-14 1.08562E-03
 -1        27-6.95231E-04 4.71632E-25 1.38341E-03 4.84444E-13 6.80123E-14 1.40666E-03
 -1        28-1.08815E-03 2.73502E-25 4.13153E-03 3.65701E-13 9.09956E-14 1.08562E-03
 -1        29-7.52893E-04 1.67750E-25 1.43608E-03 3.48201E-13 2.59948E-14 1.14607E-03
 -1        30-1.77053E-03 2.86702E-25 6.87401E-03 3.30142E-13 2.69633E-13 8.67370E-04
 -1        31-7.52893E-04 1.67747E-25 1.43608E-03 3.48197E-13 2.59947E-14 1.14607E-03
 -1        32-1.77053E-03 2.86703E-25 6.87401E-03 3.30144E-13 2.69633E-13 8.67370E-04
 -1        33-7.94766E-04-8.36080E-26 1.50391E-03-1.79727E-13-3.77962E-14 8.70386E-04
 -1        34-2.26112E-03 2.25927E-25 9.04941E-03-2.16913E-13 3.81998E-13 6.72067E-04
 -1        35-7.94766E-04-8.36146E-26 1.50391E-03-1.79722E-13-3.77959E-14 8.70386E-04
 -1        36-2.26112E-03 2.25927E-25 9.04941E-03-2.16913E-13 3.81998E-13 6.72067E-04
 -1        37-8.03130E-04 9.50187E-25 1.53746E-03-7.16558E-13-3.74592E-14 6.00736E-04
 -1        38-2.59296E-03 1.17682E-24 1.05775E-02-7.34853E-13 3.01238E-13 4.82824E-04
 -1        39-8.03130E-04 9.50184E-25 1.53746E-03-7.16558E-13-3.74594E-14 6.00736E-04
 -1        40-2.59296E-03 1.17682E-24 1.05775E-02-7.34853E-13 3.01239E-13 4.82824E-04
 -1        41-8.14055E-04 1.30913E-24 1.57413E-03-8.11163E-13-3.55900E-14 2.66994E-04
 -1        42-2.74892E-03 1.24388E-24 1.14381E-02-7.81751E-13 1.36800E-13 2.15028E-04
 -1        43-8.14055E-04 1.30912E-24 1.57413E-03-8.11160E-13-3.55897E-14 2.66994E-04
 -1        44-2.74892E-03 1.24391E-24 1.14381E-02-7.81760E-13 1.36800E-13 2.15028E-04
 -1        45-8.47848E-04 1.82585E-24 1.62242E-03-9.56131E-13 5.42783E-15-8.13770E-05
 -1        46-2.83912E-03 1.80526E-24 1.15771E-02-9.51072E-13-2.61384E-14-6.37565E-05
 -1        47-8.47848E-04 1.82583E-24 1.62242E-03-9.56125E-13 5.42769E-15-8.13770E-05
 -1        48-2.83912E-03 1.80524E-24 1.15771E-02-9.51065E-13-2.61382E-14-6.37565E-05
 -1        49-8.45387E-04 1.35616E-24 1.63959E-03-8.46666E-13 6.44735E-14-3.61725E-04
 -1        50-2.71357E-03 1.54124E-24 1.10217E-02-8.72025E-13-2.52348E-13-2.59694E-04
 -1        51-8.45387E-04 1.35616E-24 1.63959E-03-8.46669E-13 6.44735E-14-3.61725E-04
 -1        52-2.71357E-03 1.54127E-24 1.10217E-02-8.72035E-13-2.52348E-13-2.59694E-04
 -1        53-8.20812E-04-6.02595E-26 1.59268E-03-2.32661E-13 6.97961E-14-6.61713E-04
 -1        54-2.43749E-03 1.50913E-25 9.72231E-03-2.21495E-13-3.63364E-13-4.66512E-04
 -1        55-8.20812E-04-6.02773E-26 1.59268E-03-2.32644E-13 6.97961E-14-6.61713E-04
 -1        56-2.43749E-03 1.50919E-25 9.72231E-03-2.21511E-13-3.63364E-13-4.66512E-04
 -1        57-7.40505E-04 2.44265E-25 1.47303E-03 4.03132E-13-3.06782E-14-8.27338E-04
 -1        58-1.90093E-03 2.74619E-25 7.75731E-03 4.12100E-13-1.43548E-13-5.95668E-04
 -1        59-7.40505E-04 2.44269E-25 1.47303E-03 4.03134E-13-3.06785E-14-8.27338E-04
 -1        60-1.90093E-03 2.74623E-25 7.75731E-03 4.12106E-13-1.43548E-13-5.95668E-04
 -1        61-6.43460E-04 2.84476E-27 1.32782E-03 1.98298E-13-5.00357E-14-5.58519E-04
 -1        62-1.43748E-03-8.68596E-27 5.92524E-03 9.96693E-14 1.79794E-13-4.10632E-04
 -1        63-6.43460E-04 2.83248E-27 1.32782E-03 1.98278E-13-5.00354E-14-5.58519E-04
 -1        64-1.43748E-03-8.67660E-27 5.92524E-03 9.96983E-14 1.79793E-13-4.10632E-04
 -1        65-6.02249E-04 2.77211E-25 1.21352E-03-4.20867E-13 3.68331E-14-7.34310E-05
 -1        66-1.26386E-03 3.48057E-25 5.09543E-03-4.02071E-13 2.11902E-13-3.48412E-05
 -1        67-6.02249E-04 2.77223E-25 1.21352E-03-4.20871E-13 3.68330E-14-7.34310E-05
 -1        68-1.26386E-03 3.48067E-25 5.09543E-03-4.02080E-13 2.11903E-13-3.48412E-05
 -1        69-5.75806E-04 7.40423E-25 1.06688E-03-6.10856E-13 9.17788E-14 6.56492E-06
 -1        70-1.30992E-03 6.35050E-25 4.90397E-03-5.86087E-13-2.93137E-14 5.57413E-05
 -1        71-5.75806E-04 7.40429E-25 1.06688E-03-6.10859E-13 9.17790E-14 6.56492E-06
 -1        72-1.30992E-03 6.35031E-25 4.90397E-03-5.86077E-13-2.93147E-14 5.57413E-05
 -1        73-3.85033E-04 8.48436E-26 8.40857E-04-2.87275E-13 6.74636E-14-3.89182E-04
 -1        74-1.01389E-03 1.13617E-25 4.14847E-03-1.75447E-13-2.87607E-13-2.40527E-04
 -1        75-3.85033E-04 8.48390E-26 8.40857E-04-2.87271E-13 6.74636E-14-3.89182E-04
 -1        76-1.01389E-03 1.13623E-25 4.14847E-03-1.75451E-13-2.87607E-13-2.40527E-04
 -1        77-2.32521E-04-6.27517E-26 6.31815E-04 1.85271E-13-2.88985E-14-5.43160E-04
 -1        78-5.11909E-04 2.98028E-25 2.39031E-03 2.27152E-13-3.93547E-13-3.96967E-04
 -1        79-2.32521E-04-6.27402E-26 6.31815E-04 1.85278E-13-2.88983E-14-5.43160E-04
 -1        80-5.11909E-04 2.98017E-25 2.39031E-03 2.27142E-13-3.93548E-13-3.96967E-04
 -1        81-1.30447E-04 7.33463E-25 5.49239E-04 6.63391E-13-5.86317E-14-4.32362E-04
 -1        82-2.11136E-04 1.27762E-24 1.30060E-03 7.13366E-13-4.41960E-13-4.12166E-04
 -1        83-1.30447E-04 7.33454E-25 5.49239E-04 6.63383E-13-5.86322E-14-4.32362E-04
 -1        84-2.11136E-04 1.27761E-24 1.30060E-03 7.13368E-13-4.41957E-13-4.12166E-04
 -1        85-4.02510E-05-8.49499E-27 2.25201E-02 5.69699E-16-1.82312E-18 1.06482E-02
 -1        86-6.18052E-03 4.67730E-26 2.02919E-02 8.33639E-14 1.41387E-13 3.20858E-03
 -1        87-4.02510E-05-8.49499E-27 2.25201E-02 5.69656E-16-1.82678E-18 1.06482E-02
 -1        88-6.18052E-03 4.67730E-26 2.02919E-02 8.33635E-14 1.41388E-13 3.20858E-03
 -1        89-3.78897E-03 6.30129E-26 1.53057E-02 1.21169E-13 1.46298E-13 1.75054E-03
 -1        90-3.78897E-03 6.30130E-26 1.53057E-02 1.21170E-13 1.46297E-13 1.75054E-03
 -1        91-2.81563E-03 7.13031E-26 1.02356E-02 1.75385E-13 1.01482E-13 1.73486E-03
 -1        92-2.81563E-03 7.13057E-26 1.02356E-02 1.75388E-13 1.01482E-13 1.73486E-03
 -1        93-1.84468E-03 1.51585E-25 5.81464E-03 2.59516E-13 1.17608E-13 1.51510E-03
 -1        94-1.84468E-03 1.51583E-25 5.81464E-03 2.59514E-13 1.17610E-13 1.51510E-03
 -1        95-9.88901E-04 2.94636E-25 1.93818E-03 3.68743E-13 1.30470E-13 1.30842E-03
 -1        96-9.88901E-04 2.94641E-25 1.93818E-03 3.68746E-13 1.30472E-13 1.30842E-03
 -1        97-3.02317E-04 4.61842E-25-1.30466E-03 4.94668E-13 8.30001E-15 1.08963E-03
 -1        98-3.02317E-04 4.61830E-25-1.30466E-03 4.94661E-13 8.29830E-15 1.08963E-03
 -1        99 2.64745E-04 2.10381E-25-3.97458E-03 2.55885E-13-2.93683E-13 8.88145E-04
 -1       100 2.64745E-04 2.10396E-25-3.97458E-03 2.55903E-13-2.93682E-13 8.88145E-04
 -1       101 6.71584E-04 3.32692E-25-6.02974E-03-1.82442E-13-4.43079E-13 6.82612E-04
 -1       102 6.71584E-04 3.32690E-25-6.02974E-03-1.82451E-13-4.43079E-13 6.82612E-04
 -1       103 9.86697E-04 1.00196E-24-7.45355E-03-6.60763E-13-3.17213E-13 4.84342E-04
 -1       104 9.86697E-04 1.00201E-24-7.45355E-03-6.60781E-13-3.17213E-13 4.84342E-04
 -1       105 1.12081E-03 1.14243E-24-8.22890E-03-7.47576E-13-1.48438E-13 2.18296E-04
 -1       106 1.12081E-03 1.14244E-24-8.22890E-03-7.47579E-13-1.48438E-13 2.18296E-04
 -1       107 1.14343E-03 1.44923E-24-8.29517E-03-8.57911E-13 2.30027E-14-6.56204E-05
 -1       108 1.14343E-03 1.44918E-24-8.29517E-03-8.57895E-13 2.30038E-14-6.56204E-05
 -1       109 1.02280E-03 1.25191E-24-7.72852E-03-7.67413E-13 2.70683E-13-2.76458E-04
 -1       110 1.02280E-03 1.25187E-24-7.72852E-03-7.67396E-13 2.70683E-13-2.76458E-04
 -1       111 7.95866E-04 3.18504E-25-6.53970E-03-2.59264E-13 3.95316E-13-5.03069E-04
 -1       112 7.95866E-04 3.18532E-25-6.53970E-03-2.59283E-13 3.95316E-13-5.03069E-04
 -1       113 4.19922E-04 8.97520E-26-4.79086E-03 2.49485E-13 1.58353E-13-6.47777E-04
 -1       114 4.19922E-04 8.97675E-26-4.79086E-03 2.49502E-13 1.58353E-13-6.47777E-04
 -1       115 1.50554E-04 5.00721E-26-3.20066E-03 1.88666E-13-1.55528E-13-4.57010E-04
 -1       116 1.50554E-04 5.00749E-26-3.20066E-03 1.88668E-13-1.55528E-13-4.57010E-04
 -1       117 5.93630E-05 2.31842E-25-2.65980E-03-3.70179E-13-1.36824E-13-8.19391E-05
 -1       118 5.93630E-05 2.31839E-25-2.65980E-03-3.70177E-13-1.36824E-13-8.19391E-05
 -1       119 1.58303E-04 6.53099E-25-2.87738E-03-5.71760E-13 1.26478E-13-2.61774E-05
 -1       120 1.58303E-04 6.53116E-25-2.87738E-03-5.71768E-13 1.26478E-13-2.61774E-05
 -1       121 2.43822E-04 3.73482E-25-2.54404E-03-3.37652E-13 3.34253E-13-3.10615E-04
 -1       122 2.43822E-04 3.73485E-25-2.54404E-03-3.37661E-13 3.34253E-13-3.10615E-04
 -1       123 4.68662E-05 2.34410E-25-1.28166E-03 1.46703E-13 4.24947E-13-4.15190E-04
 -1       124 4.68662E-05 2.34411E-25-1.28166E-03 1.46715E-13 4.24946E-13-4.15190E-04
 -1       125-4.97567E-05 1.41281E-24-5.01745E-04 7.56943E-13 4.98057E-13-2.53984E-04
 -1       126-4.97567E-05 1.41277E-24-5.01745E-04 7.56930E-13 4.98057E-13-2.53984E-04
 -3
    1PSTEP                        72          18           1          
  100CL  118 1.80000E-01         126                     1   18           1
 -4  ERROR       1    1
 -5  STR(%)      1    1    0    0
 -1         1 6.75406E+01
 -1         2 6.75406E+01
 -1         3 6.89019E+01
 -1         4 6.89019E+01
 -1         5 6.75406E+01
 -1         6 6.75406E+01
 -1         7 6.89019E+01
 -1         8 6.89019E+01
 -1         9 7.03011E+01
 -1        10 7.03011E+01
 -1        11 7.03011E+01
 -1        12 7.03011E+01
 -1        13 7.03011E+01
 -1        14 7.03011E+01
 -1        15 7.03011E+01
 -1        16 7.03011E+01
 -1        17 6.59683E+01
 -1        18 6.59683E+01
 -1        19 6.59683E+01
 -1        20 6.59683E+01
 -1        21 5.94136E+01
 -1        22 5.94136E+01
 -1        23 5.94136E+01
 -1        24 5.94136E+01
 -1        25 6.52773E+01
 -1        26 3.99187E+01
 -1        27 6.52773E+01
 -1        28 3.99187E+01
 -1        29 7.98258E+01
 -1        30 4.76155E+01
 -1        31 7.98258E+01
 -1        32 4.76155E+01
 -1        33 7.98258E+01
 -1        34 4.99737E+01
 -1        35 7.98258E+01
 -1        36 4.99737E+01
 -1        37 7.69184E+01
 -1        38 5.07534E+01
 -1        39 7.69184E+01
 -1        40 5.07534E+01
 -1        41 7.33046E+01
 -1        42 5.07534E+01
 -1        43 7.33046E+01
 -1        44 5.07534E+01
 -1        45 7.20706E+01
 -1        46 4.97989E+01
 -1        47 7.20706E+01
 -1        48 4.97989E+01
 -1        49 7.56833E+01
 -1        50 4.97989E+01
 -1        51 7.56833E+01
 -1        52 4.97989E+01
 -1        53 8.12131E+01
 -1        54 4.94904E+01
 -1        55 8.12131E+01
 -1        56 4.94904E+01
 -1        57 8.22503E+01
 -1        58 4.79389E+01
 -1        59 8.22503E+01
 -1        60 4.79389E+01
 -1        61 8.64811E+01
 -1        62 4.51685E+01
 -1        63 8.64811E+01
 -1        64 4.51685E+01
 -1        65 8.64811E+01
 -1        66 4.33531E+01
 -1        67 8.64811E+01
 -1        68 4.33531E+01
 -1        69 8.02848E+01
 -1        70 4.49139E+01
 -1        71 8.02848E+01
 -1        72 4.49139E+01
 -1        73 7.69865E+01
 -1        74 4.49139E+01
 -1        75 7.69865E+01
 -1        76 4.49139E+01
 -1        77 7.62417E+01
 -1        78 4.20158E+01
 -1        79 7.62417E+01
 -1        80 4.20158E+01
 -1        81 7.62417E+01
 -1        82 1.93874E+01
 -1        83 7.62417E+01
 -1        84 1.93874E+01
 -1        85 6.12231E+01
 -1        86 6.12231E+01
 -1        87 6.12231E+01
 -1        88 6.12231E+01
 -1        89 5.55827E+01
 -1        90 5.55827E+01
 -1        91 5.34940E+01
 -1        92 5.34940E+01
 -1        93 4.62055E+01
 -1        94 4.62055E+01
 -1        95 4.60554E+01
 -1        96 4.60554E+01
 -1        97 6.52773E+01
 -1        98 6.52773E+01
 -1        99 7.98258E+01
 -1       100 7.98258E+01
 -1       101 7.98258E+01
 -1       102 7.98258E+01
 -1       103 7.69184E+01
 -1       104 7.69184E+01
 -1       105 7.33046E+01
 -1       106 7.33046E+01
 -1       107 7.20706E+01
 -1       108 7.20706E+01
 -1       109 7.56833E+01
 -1       110 7.56833E+01
 -1       111 8.12131E+01
 -1       112 8.12131E+01
 -1       113 8.22503E+01
 -1       114 8.22503E+01
 -1       115 8.64811E+01
 -1       116 8.64811E+01
 -1       117 8.64811E+01
 -1       118 8.64811E+01
 -1       119 8.02848E+01
 -1       120 8.02848E+01
 -1       121 7.69865E+01
 -1       122 7.69865E+01
 -1       123 7.62417E+01
 -1       124 7.62417E+01
 -1       125 7.62417E+01
 -1       126 7.62417E+01
 -3
